864
Lattice="21.12 0.0 0.0 0.0 21.12 0.0 0.0 0.0 21.12" Properties=species:S:1:pos:R:3:initial_magmoms:R:1 pbc="T T T"
Ni       0.00000000       0.00000000       0.00000000       0.60000000
Ni       0.00000000       1.76000000       1.76000000       0.60000000
Ni       1.76000000       0.00000000       1.76000000       0.60000000
Ni       1.76000000       1.76000000       0.00000000       0.60000000
Ni       0.00000000       0.00000000       3.52000000       0.60000000
Ni       0.00000000       1.76000000       5.28000000       0.60000000
Ni       1.76000000       0.00000000       5.28000000       0.60000000
Ni       1.76000000       1.76000000       3.52000000       0.60000000
Ni       0.00000000       0.00000000       7.04000000       0.60000000
Ni       0.00000000       1.76000000       8.80000000       0.60000000
Ni       1.76000000       0.00000000       8.80000000       0.60000000
Ni       1.76000000       1.76000000       7.04000000       0.60000000
Ni       0.00000000       0.00000000      10.56000000       0.60000000
Ni       0.00000000       1.76000000      12.32000000       0.60000000
Ni       1.76000000       0.00000000      12.32000000       0.60000000
Ni       1.76000000       1.76000000      10.56000000       0.60000000
Ni       0.00000000       0.00000000      14.08000000       0.60000000
Ni       0.00000000       1.76000000      15.84000000       0.60000000
Ni       1.76000000       0.00000000      15.84000000       0.60000000
Ni       1.76000000       1.76000000      14.08000000       0.60000000
Ni       0.00000000       0.00000000      17.60000000       0.60000000
Ni       0.00000000       1.76000000      19.36000000       0.60000000
Ni       1.76000000       0.00000000      19.36000000       0.60000000
Ni       1.76000000       1.76000000      17.60000000       0.60000000
Ni       0.00000000       3.52000000       0.00000000       0.60000000
Ni       0.00000000       5.28000000       1.76000000       0.60000000
Ni       1.76000000       3.52000000       1.76000000       0.60000000
Ni       1.76000000       5.28000000       0.00000000       0.60000000
Ni       0.00000000       3.52000000       3.52000000       0.60000000
Ni       0.00000000       5.28000000       5.28000000       0.60000000
Ni       1.76000000       3.52000000       5.28000000       0.60000000
Ni       1.76000000       5.28000000       3.52000000       0.60000000
Ni       0.00000000       3.52000000       7.04000000       0.60000000
Ni       0.00000000       5.28000000       8.80000000       0.60000000
Ni       1.76000000       3.52000000       8.80000000       0.60000000
Ni       1.76000000       5.28000000       7.04000000       0.60000000
Ni       0.00000000       3.52000000      10.56000000       0.60000000
Ni       0.00000000       5.28000000      12.32000000       0.60000000
Ni       1.76000000       3.52000000      12.32000000       0.60000000
Ni       1.76000000       5.28000000      10.56000000       0.60000000
Ni       0.00000000       3.52000000      14.08000000       0.60000000
Ni       0.00000000       5.28000000      15.84000000       0.60000000
Ni       1.76000000       3.52000000      15.84000000       0.60000000
Ni       1.76000000       5.28000000      14.08000000       0.60000000
Ni       0.00000000       3.52000000      17.60000000       0.60000000
Ni       0.00000000       5.28000000      19.36000000       0.60000000
Ni       1.76000000       3.52000000      19.36000000       0.60000000
Ni       1.76000000       5.28000000      17.60000000       0.60000000
Ni       0.00000000       7.04000000       0.00000000       0.60000000
Ni       0.00000000       8.80000000       1.76000000       0.60000000
Ni       1.76000000       7.04000000       1.76000000       0.60000000
Ni       1.76000000       8.80000000       0.00000000       0.60000000
Ni       0.00000000       7.04000000       3.52000000       0.60000000
Ni       0.00000000       8.80000000       5.28000000       0.60000000
Ni       1.76000000       7.04000000       5.28000000       0.60000000
Ni       1.76000000       8.80000000       3.52000000       0.60000000
Ni       0.00000000       7.04000000       7.04000000       0.60000000
Ni       0.00000000       8.80000000       8.80000000       0.60000000
Ni       1.76000000       7.04000000       8.80000000       0.60000000
Ni       1.76000000       8.80000000       7.04000000       0.60000000
Ni       0.00000000       7.04000000      10.56000000       0.60000000
Ni       0.00000000       8.80000000      12.32000000       0.60000000
Ni       1.76000000       7.04000000      12.32000000       0.60000000
Ni       1.76000000       8.80000000      10.56000000       0.60000000
Ni       0.00000000       7.04000000      14.08000000       0.60000000
Ni       0.00000000       8.80000000      15.84000000       0.60000000
Ni       1.76000000       7.04000000      15.84000000       0.60000000
Ni       1.76000000       8.80000000      14.08000000       0.60000000
Ni       0.00000000       7.04000000      17.60000000       0.60000000
Ni       0.00000000       8.80000000      19.36000000       0.60000000
Ni       1.76000000       7.04000000      19.36000000       0.60000000
Ni       1.76000000       8.80000000      17.60000000       0.60000000
Ni       0.00000000      10.56000000       0.00000000       0.60000000
Ni       0.00000000      12.32000000       1.76000000       0.60000000
Ni       1.76000000      10.56000000       1.76000000       0.60000000
Ni       1.76000000      12.32000000       0.00000000       0.60000000
Ni       0.00000000      10.56000000       3.52000000       0.60000000
Ni       0.00000000      12.32000000       5.28000000       0.60000000
Ni       1.76000000      10.56000000       5.28000000       0.60000000
Ni       1.76000000      12.32000000       3.52000000       0.60000000
Ni       0.00000000      10.56000000       7.04000000       0.60000000
Ni       0.00000000      12.32000000       8.80000000       0.60000000
Ni       1.76000000      10.56000000       8.80000000       0.60000000
Ni       1.76000000      12.32000000       7.04000000       0.60000000
Ni       0.00000000      10.56000000      10.56000000       0.60000000
Ni       0.00000000      12.32000000      12.32000000       0.60000000
Ni       1.76000000      10.56000000      12.32000000       0.60000000
Ni       1.76000000      12.32000000      10.56000000       0.60000000
Ni       0.00000000      10.56000000      14.08000000       0.60000000
Ni       0.00000000      12.32000000      15.84000000       0.60000000
Ni       1.76000000      10.56000000      15.84000000       0.60000000
Ni       1.76000000      12.32000000      14.08000000       0.60000000
Ni       0.00000000      10.56000000      17.60000000       0.60000000
Ni       0.58666667      12.90666667      18.18666667       0.60000000
Ni       2.34666667      11.14666667      18.18666667       0.60000000
Ni       2.34666667      12.90666667      16.42666667       0.60000000
Ni       0.00000000      14.08000000       0.00000000       0.60000000
Ni       0.00000000      15.84000000       1.76000000       0.60000000
Ni       1.76000000      14.08000000       1.76000000       0.60000000
Ni       1.76000000      15.84000000       0.00000000       0.60000000
Ni       0.00000000      14.08000000       3.52000000       0.60000000
Ni       0.00000000      15.84000000       5.28000000       0.60000000
Ni       1.76000000      14.08000000       5.28000000       0.60000000
Ni       1.76000000      15.84000000       3.52000000       0.60000000
Ni       0.00000000      14.08000000       7.04000000       0.60000000
Ni       0.00000000      15.84000000       8.80000000       0.60000000
Ni       1.76000000      14.08000000       8.80000000       0.60000000
Ni       1.76000000      15.84000000       7.04000000       0.60000000
Ni       0.00000000      14.08000000      10.56000000       0.60000000
Ni       0.00000000      15.84000000      12.32000000       0.60000000
Ni       1.76000000      14.08000000      12.32000000       0.60000000
Ni       1.76000000      15.84000000      10.56000000       0.60000000
Ni       0.00000000      14.08000000      14.08000000       0.60000000
Ni       0.58666667      16.42666667      14.66666667       0.60000000
Ni       2.34666667      14.66666667      14.66666667       0.60000000
Ni       2.34666667      16.42666667      12.90666667       0.60000000
Ni       0.58666667      14.66666667      16.42666667       0.60000000
Ni       0.58666667      16.42666667      18.18666667       0.60000000
Ni       2.34666667      14.66666667      18.18666667       0.60000000
Ni       2.34666667      16.42666667      16.42666667       0.60000000
Ni       0.00000000      17.60000000       0.00000000       0.60000000
Ni       0.00000000      19.36000000       1.76000000       0.60000000
Ni       1.76000000      17.60000000       1.76000000       0.60000000
Ni       1.76000000      19.36000000       0.00000000       0.60000000
Ni       0.00000000      17.60000000       3.52000000       0.60000000
Ni       0.00000000      19.36000000       5.28000000       0.60000000
Ni       1.76000000      17.60000000       5.28000000       0.60000000
Ni       1.76000000      19.36000000       3.52000000       0.60000000
Ni       0.00000000      17.60000000       7.04000000       0.60000000
Ni       0.00000000      19.36000000       8.80000000       0.60000000
Ni       1.76000000      17.60000000       8.80000000       0.60000000
Ni       1.76000000      19.36000000       7.04000000       0.60000000
Ni       0.00000000      17.60000000      10.56000000       0.60000000
Ni       0.58666667      19.94666667      11.14666667       0.60000000
Ni       2.34666667      18.18666667      11.14666667       0.60000000
Ni       2.34666667      19.94666667       9.38666667       0.60000000
Ni       0.58666667      18.18666667      12.90666667       0.60000000
Ni       0.58666667      19.94666667      14.66666667       0.60000000
Ni       2.34666667      18.18666667      14.66666667       0.60000000
Ni       2.34666667      19.94666667      12.90666667       0.60000000
Ni       0.58666667      18.18666667      16.42666667       0.60000000
Ni       0.58666667      19.94666667      18.18666667       0.60000000
Ni       2.34666667      18.18666667      18.18666667       0.60000000
Ni       2.34666667      19.94666667      16.42666667       0.60000000
Ni       3.52000000       0.00000000       0.00000000       0.60000000
Ni       3.52000000       1.76000000       1.76000000       0.60000000
Ni       5.28000000       0.00000000       1.76000000       0.60000000
Ni       5.28000000       1.76000000       0.00000000       0.60000000
Ni       3.52000000       0.00000000       3.52000000       0.60000000
Ni       3.52000000       1.76000000       5.28000000       0.60000000
Ni       5.28000000       0.00000000       5.28000000       0.60000000
Ni       5.28000000       1.76000000       3.52000000       0.60000000
Ni       3.52000000       0.00000000       7.04000000       0.60000000
Ni       3.52000000       1.76000000       8.80000000       0.60000000
Ni       5.28000000       0.00000000       8.80000000       0.60000000
Ni       5.28000000       1.76000000       7.04000000       0.60000000
Ni       3.52000000       0.00000000      10.56000000       0.60000000
Ni       3.52000000       1.76000000      12.32000000       0.60000000
Ni       5.28000000       0.00000000      12.32000000       0.60000000
Ni       5.28000000       1.76000000      10.56000000       0.60000000
Ni       3.52000000       0.00000000      14.08000000       0.60000000
Ni       3.52000000       1.76000000      15.84000000       0.60000000
Ni       5.28000000       0.00000000      15.84000000       0.60000000
Ni       5.28000000       1.76000000      14.08000000       0.60000000
Ni       3.52000000       0.00000000      17.60000000       0.60000000
Ni       3.52000000       1.76000000      19.36000000       0.60000000
Ni       5.28000000       0.00000000      19.36000000       0.60000000
Ni       5.28000000       1.76000000      17.60000000       0.60000000
Ni       3.52000000       3.52000000       0.00000000       0.60000000
Ni       3.52000000       5.28000000       1.76000000       0.60000000
Ni       5.28000000       3.52000000       1.76000000       0.60000000
Ni       5.28000000       5.28000000       0.00000000       0.60000000
Ni       3.52000000       3.52000000       3.52000000       0.60000000
Ni       3.52000000       5.28000000       5.28000000       0.60000000
Ni       5.28000000       3.52000000       5.28000000       0.60000000
Ni       5.28000000       5.28000000       3.52000000       0.60000000
Ni       3.52000000       3.52000000       7.04000000       0.60000000
Ni       3.52000000       5.28000000       8.80000000       0.60000000
Ni       5.28000000       3.52000000       8.80000000       0.60000000
Ni       5.28000000       5.28000000       7.04000000       0.60000000
Ni       3.52000000       3.52000000      10.56000000       0.60000000
Ni       3.52000000       5.28000000      12.32000000       0.60000000
Ni       5.28000000       3.52000000      12.32000000       0.60000000
Ni       5.28000000       5.28000000      10.56000000       0.60000000
Ni       3.52000000       3.52000000      14.08000000       0.60000000
Ni       3.52000000       5.28000000      15.84000000       0.60000000
Ni       5.28000000       3.52000000      15.84000000       0.60000000
Ni       5.28000000       5.28000000      14.08000000       0.60000000
Ni       3.52000000       3.52000000      17.60000000       0.60000000
Ni       3.52000000       5.28000000      19.36000000       0.60000000
Ni       5.28000000       3.52000000      19.36000000       0.60000000
Ni       5.28000000       5.28000000      17.60000000       0.60000000
Ni       3.52000000       7.04000000       0.00000000       0.60000000
Ni       3.52000000       8.80000000       1.76000000       0.60000000
Ni       5.28000000       7.04000000       1.76000000       0.60000000
Ni       5.28000000       8.80000000       0.00000000       0.60000000
Ni       3.52000000       7.04000000       3.52000000       0.60000000
Ni       3.52000000       8.80000000       5.28000000       0.60000000
Ni       5.28000000       7.04000000       5.28000000       0.60000000
Ni       5.28000000       8.80000000       3.52000000       0.60000000
Ni       3.52000000       7.04000000       7.04000000       0.60000000
Ni       3.52000000       8.80000000       8.80000000       0.60000000
Ni       5.28000000       7.04000000       8.80000000       0.60000000
Ni       5.28000000       8.80000000       7.04000000       0.60000000
Ni       3.52000000       7.04000000      10.56000000       0.60000000
Ni       3.52000000       8.80000000      12.32000000       0.60000000
Ni       5.28000000       7.04000000      12.32000000       0.60000000
Ni       5.28000000       8.80000000      10.56000000       0.60000000
Ni       3.52000000       7.04000000      14.08000000       0.60000000
Ni       3.52000000       8.80000000      15.84000000       0.60000000
Ni       5.28000000       7.04000000      15.84000000       0.60000000
Ni       5.28000000       8.80000000      14.08000000       0.60000000
Ni       3.52000000       7.04000000      17.60000000       0.60000000
Ni       4.10666667       9.38666667      18.18666667       0.60000000
Ni       5.86666667       7.62666667      18.18666667       0.60000000
Ni       5.86666667       9.38666667      16.42666667       0.60000000
Ni       3.52000000      10.56000000       0.00000000       0.60000000
Ni       3.52000000      12.32000000       1.76000000       0.60000000
Ni       5.28000000      10.56000000       1.76000000       0.60000000
Ni       5.28000000      12.32000000       0.00000000       0.60000000
Ni       3.52000000      10.56000000       3.52000000       0.60000000
Ni       3.52000000      12.32000000       5.28000000       0.60000000
Ni       5.28000000      10.56000000       5.28000000       0.60000000
Ni       5.28000000      12.32000000       3.52000000       0.60000000
Ni       3.52000000      10.56000000       7.04000000       0.60000000
Ni       3.52000000      12.32000000       8.80000000       0.60000000
Ni       5.28000000      10.56000000       8.80000000       0.60000000
Ni       5.28000000      12.32000000       7.04000000       0.60000000
Ni       3.52000000      10.56000000      10.56000000       0.60000000
Ni       3.52000000      12.32000000      12.32000000       0.60000000
Ni       5.28000000      10.56000000      12.32000000       0.60000000
Ni       5.28000000      12.32000000      10.56000000       0.60000000
Ni       3.52000000      10.56000000      14.08000000       0.60000000
Ni       4.10666667      12.90666667      14.66666667       0.60000000
Ni       5.86666667      11.14666667      14.66666667       0.60000000
Ni       5.86666667      12.90666667      12.90666667       0.60000000
Ni       4.10666667      11.14666667      16.42666667       0.60000000
Ni       4.10666667      12.90666667      18.18666667       0.60000000
Ni       5.86666667      11.14666667      18.18666667       0.60000000
Ni       5.86666667      12.90666667      16.42666667       0.60000000
Ni       3.52000000      14.08000000       0.00000000       0.60000000
Ni       3.52000000      15.84000000       1.76000000       0.60000000
Ni       5.28000000      14.08000000       1.76000000       0.60000000
Ni       5.28000000      15.84000000       0.00000000       0.60000000
Ni       3.52000000      14.08000000       3.52000000       0.60000000
Ni       3.52000000      15.84000000       5.28000000       0.60000000
Ni       5.28000000      14.08000000       5.28000000       0.60000000
Ni       5.28000000      15.84000000       3.52000000       0.60000000
Ni       3.52000000      14.08000000       7.04000000       0.60000000
Ni       3.52000000      15.84000000       8.80000000       0.60000000
Ni       5.28000000      14.08000000       8.80000000       0.60000000
Ni       5.28000000      15.84000000       7.04000000       0.60000000
Ni       3.52000000      14.08000000      10.56000000       0.60000000
Ni       4.10666667      16.42666667      11.14666667       0.60000000
Ni       5.86666667      14.66666667      11.14666667       0.60000000
Ni       5.86666667      16.42666667       9.38666667       0.60000000
Ni       4.10666667      14.66666667      12.90666667       0.60000000
Ni       4.10666667      16.42666667      14.66666667       0.60000000
Ni       5.86666667      14.66666667      14.66666667       0.60000000
Ni       5.86666667      16.42666667      12.90666667       0.60000000
Ni       4.10666667      14.66666667      16.42666667       0.60000000
Ni       4.10666667      16.42666667      18.18666667       0.60000000
Ni       5.86666667      14.66666667      18.18666667       0.60000000
Ni       5.86666667      16.42666667      16.42666667       0.60000000
Ni       3.52000000      17.60000000       0.00000000       0.60000000
Ni       3.52000000      19.36000000       1.76000000       0.60000000
Ni       5.28000000      17.60000000       1.76000000       0.60000000
Ni       5.28000000      19.36000000       0.00000000       0.60000000
Ni       3.52000000      17.60000000       3.52000000       0.60000000
Ni       3.52000000      19.36000000       5.28000000       0.60000000
Ni       5.28000000      17.60000000       5.28000000       0.60000000
Ni       5.28000000      19.36000000       3.52000000       0.60000000
Ni       3.52000000      17.60000000       7.04000000       0.60000000
Ni       4.10666667      19.94666667       7.62666667       0.60000000
Ni       5.86666667      18.18666667       7.62666667       0.60000000
Ni       5.86666667      19.94666667       5.86666667       0.60000000
Ni       4.10666667      18.18666667       9.38666667       0.60000000
Ni       4.10666667      19.94666667      11.14666667       0.60000000
Ni       5.86666667      18.18666667      11.14666667       0.60000000
Ni       5.86666667      19.94666667       9.38666667       0.60000000
Ni       4.10666667      18.18666667      12.90666667       0.60000000
Ni       4.10666667      19.94666667      14.66666667       0.60000000
Ni       5.86666667      18.18666667      14.66666667       0.60000000
Ni       5.86666667      19.94666667      12.90666667       0.60000000
Ni       4.10666667      18.18666667      16.42666667       0.60000000
Ni       4.10666667      19.94666667      18.18666667       0.60000000
Ni       5.86666667      18.18666667      18.18666667       0.60000000
Ni       5.86666667      19.94666667      16.42666667       0.60000000
Ni       7.04000000       0.00000000       0.00000000       0.60000000
Ni       7.04000000       1.76000000       1.76000000       0.60000000
Ni       8.80000000       0.00000000       1.76000000       0.60000000
Ni       8.80000000       1.76000000       0.00000000       0.60000000
Ni       7.04000000       0.00000000       3.52000000       0.60000000
Ni       7.04000000       1.76000000       5.28000000       0.60000000
Ni       8.80000000       0.00000000       5.28000000       0.60000000
Ni       8.80000000       1.76000000       3.52000000       0.60000000
Ni       7.04000000       0.00000000       7.04000000       0.60000000
Ni       7.04000000       1.76000000       8.80000000       0.60000000
Ni       8.80000000       0.00000000       8.80000000       0.60000000
Ni       8.80000000       1.76000000       7.04000000       0.60000000
Ni       7.04000000       0.00000000      10.56000000       0.60000000
Ni       7.04000000       1.76000000      12.32000000       0.60000000
Ni       8.80000000       0.00000000      12.32000000       0.60000000
Ni       8.80000000       1.76000000      10.56000000       0.60000000
Ni       7.04000000       0.00000000      14.08000000       0.60000000
Ni       7.04000000       1.76000000      15.84000000       0.60000000
Ni       8.80000000       0.00000000      15.84000000       0.60000000
Ni       8.80000000       1.76000000      14.08000000       0.60000000
Ni       7.04000000       0.00000000      17.60000000       0.60000000
Ni       7.04000000       1.76000000      19.36000000       0.60000000
Ni       8.80000000       0.00000000      19.36000000       0.60000000
Ni       8.80000000       1.76000000      17.60000000       0.60000000
Ni       7.04000000       3.52000000       0.00000000       0.60000000
Ni       7.04000000       5.28000000       1.76000000       0.60000000
Ni       8.80000000       3.52000000       1.76000000       0.60000000
Ni       8.80000000       5.28000000       0.00000000       0.60000000
Ni       7.04000000       3.52000000       3.52000000       0.60000000
Ni       7.04000000       5.28000000       5.28000000       0.60000000
Ni       8.80000000       3.52000000       5.28000000       0.60000000
Ni       8.80000000       5.28000000       3.52000000       0.60000000
Ni       7.04000000       3.52000000       7.04000000       0.60000000
Ni       7.04000000       5.28000000       8.80000000       0.60000000
Ni       8.80000000       3.52000000       8.80000000       0.60000000
Ni       8.80000000       5.28000000       7.04000000       0.60000000
Ni       7.04000000       3.52000000      10.56000000       0.60000000
Ni       7.04000000       5.28000000      12.32000000       0.60000000
Ni       8.80000000       3.52000000      12.32000000       0.60000000
Ni       8.80000000       5.28000000      10.56000000       0.60000000
Ni       7.04000000       3.52000000      14.08000000       0.60000000
Ni       7.04000000       5.28000000      15.84000000       0.60000000
Ni       8.80000000       3.52000000      15.84000000       0.60000000
Ni       8.80000000       5.28000000      14.08000000       0.60000000
Ni       7.04000000       3.52000000      17.60000000       0.60000000
Ni       7.62666667       5.86666667      18.18666667       0.60000000
Ni       9.38666667       4.10666667      18.18666667       0.60000000
Ni       9.38666667       5.86666667      16.42666667       0.60000000
Ni       7.04000000       7.04000000       0.00000000       0.60000000
Ni       7.04000000       8.80000000       1.76000000       0.60000000
Ni       8.80000000       7.04000000       1.76000000       0.60000000
Ni       8.80000000       8.80000000       0.00000000       0.60000000
Ni       7.04000000       7.04000000       3.52000000       0.60000000
Ni       7.04000000       8.80000000       5.28000000       0.60000000
Ni       8.80000000       7.04000000       5.28000000       0.60000000
Ni       8.80000000       8.80000000       3.52000000       0.60000000
Ni       7.04000000       7.04000000       7.04000000       0.60000000
Ni       7.04000000       8.80000000       8.80000000       0.60000000
Ni       8.80000000       7.04000000       8.80000000       0.60000000
Ni       8.80000000       8.80000000       7.04000000       0.60000000
Ni       7.04000000       7.04000000      10.56000000       0.60000000
Ni       7.04000000       8.80000000      12.32000000       0.60000000
Ni       8.80000000       7.04000000      12.32000000       0.60000000
Ni       8.80000000       8.80000000      10.56000000       0.60000000
Ni       7.04000000       7.04000000      14.08000000       0.60000000
Ni       7.62666667       9.38666667      14.66666667       0.60000000
Ni       9.38666667       7.62666667      14.66666667       0.60000000
Ni       9.38666667       9.38666667      12.90666667       0.60000000
Ni       7.62666667       7.62666667      16.42666667       0.60000000
Ni       7.62666667       9.38666667      18.18666667       0.60000000
Ni       9.38666667       7.62666667      18.18666667       0.60000000
Ni       9.38666667       9.38666667      16.42666667       0.60000000
Ni       7.04000000      10.56000000       0.00000000       0.60000000
Ni       7.04000000      12.32000000       1.76000000       0.60000000
Ni       8.80000000      10.56000000       1.76000000       0.60000000
Ni       8.80000000      12.32000000       0.00000000       0.60000000
Ni       7.04000000      10.56000000       3.52000000       0.60000000
Ni       7.04000000      12.32000000       5.28000000       0.60000000
Ni       8.80000000      10.56000000       5.28000000       0.60000000
Ni       8.80000000      12.32000000       3.52000000       0.60000000
Ni       7.04000000      10.56000000       7.04000000       0.60000000
Ni       7.04000000      12.32000000       8.80000000       0.60000000
Ni       8.80000000      10.56000000       8.80000000       0.60000000
Ni       8.80000000      12.32000000       7.04000000       0.60000000
Ni       7.04000000      10.56000000      10.56000000       0.60000000
Ni       7.62666667      12.90666667      11.14666667       0.60000000
Ni       9.38666667      11.14666667      11.14666667       0.60000000
Ni       9.38666667      12.90666667       9.38666667       0.60000000
Ni       7.62666667      11.14666667      12.90666667       0.60000000
Ni       7.62666667      12.90666667      14.66666667       0.60000000
Ni       9.38666667      11.14666667      14.66666667       0.60000000
Ni       9.38666667      12.90666667      12.90666667       0.60000000
Ni       7.62666667      11.14666667      16.42666667       0.60000000
Ni       7.62666667      12.90666667      18.18666667       0.60000000
Ni       9.38666667      11.14666667      18.18666667       0.60000000
Ni       9.38666667      12.90666667      16.42666667       0.60000000
Ni       7.04000000      14.08000000       0.00000000       0.60000000
Ni       7.04000000      15.84000000       1.76000000       0.60000000
Ni       8.80000000      14.08000000       1.76000000       0.60000000
Ni       8.80000000      15.84000000       0.00000000       0.60000000
Ni       7.04000000      14.08000000       3.52000000       0.60000000
Ni       7.04000000      15.84000000       5.28000000       0.60000000
Ni       8.80000000      14.08000000       5.28000000       0.60000000
Ni       8.80000000      15.84000000       3.52000000       0.60000000
Ni       7.04000000      14.08000000       7.04000000       0.60000000
Ni       7.62666667      16.42666667       7.62666667       0.60000000
Ni       9.38666667      14.66666667       7.62666667       0.60000000
Ni       9.38666667      16.42666667       5.86666667       0.60000000
Ni       7.62666667      14.66666667       9.38666667       0.60000000
Ni       7.62666667      16.42666667      11.14666667       0.60000000
Ni       9.38666667      14.66666667      11.14666667       0.60000000
Ni       9.38666667      16.42666667       9.38666667       0.60000000
Ni       7.62666667      14.66666667      12.90666667       0.60000000
Ni       7.62666667      16.42666667      14.66666667       0.60000000
Ni       9.38666667      14.66666667      14.66666667       0.60000000
Ni       9.38666667      16.42666667      12.90666667       0.60000000
Ni       7.62666667      14.66666667      16.42666667       0.60000000
Ni       7.62666667      16.42666667      18.18666667       0.60000000
Ni       9.38666667      14.66666667      18.18666667       0.60000000
Ni       9.38666667      16.42666667      16.42666667       0.60000000
Ni       7.04000000      17.60000000       0.00000000       0.60000000
Ni       7.04000000      19.36000000       1.76000000       0.60000000
Ni       8.80000000      17.60000000       1.76000000       0.60000000
Ni       8.80000000      19.36000000       0.00000000       0.60000000
Ni       7.04000000      17.60000000       3.52000000       0.60000000
Ni       7.62666667      19.94666667       4.10666667       0.60000000
Ni       9.38666667      18.18666667       4.10666667       0.60000000
Ni       9.38666667      19.94666667       2.34666667       0.60000000
Ni       7.62666667      18.18666667       5.86666667       0.60000000
Ni       7.62666667      19.94666667       7.62666667       0.60000000
Ni       9.38666667      18.18666667       7.62666667       0.60000000
Ni       9.38666667      19.94666667       5.86666667       0.60000000
Ni       7.62666667      18.18666667       9.38666667       0.60000000
Ni       7.62666667      19.94666667      11.14666667       0.60000000
Ni       9.38666667      18.18666667      11.14666667       0.60000000
Ni       9.38666667      19.94666667       9.38666667       0.60000000
Ni       7.62666667      18.18666667      12.90666667       0.60000000
Ni       7.62666667      19.94666667      14.66666667       0.60000000
Ni       9.38666667      18.18666667      14.66666667       0.60000000
Ni       9.38666667      19.94666667      12.90666667       0.60000000
Ni       7.62666667      18.18666667      16.42666667       0.60000000
Ni       7.62666667      19.94666667      18.18666667       0.60000000
Ni       9.38666667      18.18666667      18.18666667       0.60000000
Ni       9.38666667      19.94666667      16.42666667       0.60000000
Ni      10.56000000       0.00000000       0.00000000       0.60000000
Ni      10.56000000       1.76000000       1.76000000       0.60000000
Ni      12.32000000       0.00000000       1.76000000       0.60000000
Ni      12.32000000       1.76000000       0.00000000       0.60000000
Ni      10.56000000       0.00000000       3.52000000       0.60000000
Ni      10.56000000       1.76000000       5.28000000       0.60000000
Ni      12.32000000       0.00000000       5.28000000       0.60000000
Ni      12.32000000       1.76000000       3.52000000       0.60000000
Ni      10.56000000       0.00000000       7.04000000       0.60000000
Ni      10.56000000       1.76000000       8.80000000       0.60000000
Ni      12.32000000       0.00000000       8.80000000       0.60000000
Ni      12.32000000       1.76000000       7.04000000       0.60000000
Ni      10.56000000       0.00000000      10.56000000       0.60000000
Ni      10.56000000       1.76000000      12.32000000       0.60000000
Ni      12.32000000       0.00000000      12.32000000       0.60000000
Ni      12.32000000       1.76000000      10.56000000       0.60000000
Ni      10.56000000       0.00000000      14.08000000       0.60000000
Ni      10.56000000       1.76000000      15.84000000       0.60000000
Ni      12.32000000       0.00000000      15.84000000       0.60000000
Ni      12.32000000       1.76000000      14.08000000       0.60000000
Ni      10.56000000       0.00000000      17.60000000       0.60000000
Ni      11.14666667       2.34666667      18.18666667       0.60000000
Ni      12.90666667       0.58666667      18.18666667       0.60000000
Ni      12.90666667       2.34666667      16.42666667       0.60000000
Ni      10.56000000       3.52000000       0.00000000       0.60000000
Ni      10.56000000       5.28000000       1.76000000       0.60000000
Ni      12.32000000       3.52000000       1.76000000       0.60000000
Ni      12.32000000       5.28000000       0.00000000       0.60000000
Ni      10.56000000       3.52000000       3.52000000       0.60000000
Ni      10.56000000       5.28000000       5.28000000       0.60000000
Ni      12.32000000       3.52000000       5.28000000       0.60000000
Ni      12.32000000       5.28000000       3.52000000       0.60000000
Ni      10.56000000       3.52000000       7.04000000       0.60000000
Ni      10.56000000       5.28000000       8.80000000       0.60000000
Ni      12.32000000       3.52000000       8.80000000       0.60000000
Ni      12.32000000       5.28000000       7.04000000       0.60000000
Ni      10.56000000       3.52000000      10.56000000       0.60000000
Ni      10.56000000       5.28000000      12.32000000       0.60000000
Ni      12.32000000       3.52000000      12.32000000       0.60000000
Ni      12.32000000       5.28000000      10.56000000       0.60000000
Ni      10.56000000       3.52000000      14.08000000       0.60000000
Ni      11.14666667       5.86666667      14.66666667       0.60000000
Ni      12.90666667       4.10666667      14.66666667       0.60000000
Ni      12.90666667       5.86666667      12.90666667       0.60000000
Ni      11.14666667       4.10666667      16.42666667       0.60000000
Ni      11.14666667       5.86666667      18.18666667       0.60000000
Ni      12.90666667       4.10666667      18.18666667       0.60000000
Ni      12.90666667       5.86666667      16.42666667       0.60000000
Ni      10.56000000       7.04000000       0.00000000       0.60000000
Ni      10.56000000       8.80000000       1.76000000       0.60000000
Ni      12.32000000       7.04000000       1.76000000       0.60000000
Ni      12.32000000       8.80000000       0.00000000       0.60000000
Ni      10.56000000       7.04000000       3.52000000       0.60000000
Ni      10.56000000       8.80000000       5.28000000       0.60000000
Ni      12.32000000       7.04000000       5.28000000       0.60000000
Ni      12.32000000       8.80000000       3.52000000       0.60000000
Ni      10.56000000       7.04000000       7.04000000       0.60000000
Ni      10.56000000       8.80000000       8.80000000       0.60000000
Ni      12.32000000       7.04000000       8.80000000       0.60000000
Ni      12.32000000       8.80000000       7.04000000       0.60000000
Ni      10.56000000       7.04000000      10.56000000       0.60000000
Ni      11.14666667       9.38666667      11.14666667       0.60000000
Ni      12.90666667       7.62666667      11.14666667       0.60000000
Ni      12.90666667       9.38666667       9.38666667       0.60000000
Ni      11.14666667       7.62666667      12.90666667       0.60000000
Ni      11.14666667       9.38666667      14.66666667       0.60000000
Ni      12.90666667       7.62666667      14.66666667       0.60000000
Ni      12.90666667       9.38666667      12.90666667       0.60000000
Ni      11.14666667       7.62666667      16.42666667       0.60000000
Ni      11.14666667       9.38666667      18.18666667       0.60000000
Ni      12.90666667       7.62666667      18.18666667       0.60000000
Ni      12.90666667       9.38666667      16.42666667       0.60000000
Ni      10.56000000      10.56000000       0.00000000       0.60000000
Ni      10.56000000      12.32000000       1.76000000       0.60000000
Ni      12.32000000      10.56000000       1.76000000       0.60000000
Ni      12.32000000      12.32000000       0.00000000       0.60000000
Ni      10.56000000      10.56000000       3.52000000       0.60000000
Ni      10.56000000      12.32000000       5.28000000       0.60000000
Ni      12.32000000      10.56000000       5.28000000       0.60000000
Ni      12.32000000      12.32000000       3.52000000       0.60000000
Ni      10.56000000      10.56000000       7.04000000       0.60000000
Ni      11.14666667      12.90666667       7.62666667       0.60000000
Ni      12.90666667      11.14666667       7.62666667       0.60000000
Ni      12.90666667      12.90666667       5.86666667       0.60000000
Ni      11.14666667      11.14666667       9.38666667       0.60000000
Ni      11.14666667      12.90666667      11.14666667       0.60000000
Ni      12.90666667      11.14666667      11.14666667       0.60000000
Ni      12.90666667      12.90666667       9.38666667       0.60000000
Ni      11.14666667      11.14666667      12.90666667       0.60000000
Ni      11.14666667      12.90666667      14.66666667       0.60000000
Ni      12.90666667      11.14666667      14.66666667       0.60000000
Ni      12.90666667      12.90666667      12.90666667       0.60000000
Ni      11.14666667      11.14666667      16.42666667       0.60000000
Ni      11.14666667      12.90666667      18.18666667       0.60000000
Ni      12.90666667      11.14666667      18.18666667       0.60000000
Ni      12.90666667      12.90666667      16.42666667       0.60000000
Ni      10.56000000      14.08000000       0.00000000       0.60000000
Ni      10.56000000      15.84000000       1.76000000       0.60000000
Ni      12.32000000      14.08000000       1.76000000       0.60000000
Ni      12.32000000      15.84000000       0.00000000       0.60000000
Ni      10.56000000      14.08000000       3.52000000       0.60000000
Ni      11.14666667      16.42666667       4.10666667       0.60000000
Ni      12.90666667      14.66666667       4.10666667       0.60000000
Ni      12.90666667      16.42666667       2.34666667       0.60000000
Ni      11.14666667      14.66666667       5.86666667       0.60000000
Ni      11.14666667      16.42666667       7.62666667       0.60000000
Ni      12.90666667      14.66666667       7.62666667       0.60000000
Ni      12.90666667      16.42666667       5.86666667       0.60000000
Ni      11.14666667      14.66666667       9.38666667       0.60000000
Ni      11.14666667      16.42666667      11.14666667       0.60000000
Ni      12.90666667      14.66666667      11.14666667       0.60000000
Ni      12.90666667      16.42666667       9.38666667       0.60000000
Ni      11.14666667      14.66666667      12.90666667       0.60000000
Ni      11.14666667      16.42666667      14.66666667       0.60000000
Ni      12.90666667      14.66666667      14.66666667       0.60000000
Ni      12.90666667      16.42666667      12.90666667       0.60000000
Ni      11.14666667      14.66666667      16.42666667       0.60000000
Ni      11.14666667      16.42666667      18.18666667       0.60000000
Ni      12.90666667      14.66666667      18.18666667       0.60000000
Ni      12.90666667      16.42666667      16.42666667       0.60000000
Ni      10.56000000      17.60000000       0.00000000       0.60000000
Ni      11.14666667      19.94666667       0.58666667       0.60000000
Ni      12.90666667      18.18666667       0.58666667       0.60000000
Ni      12.90666667      19.94666667      -1.17333333       0.60000000
Ni      11.14666667      18.18666667       2.34666667       0.60000000
Ni      11.14666667      19.94666667       4.10666667       0.60000000
Ni      12.90666667      18.18666667       4.10666667       0.60000000
Ni      12.90666667      19.94666667       2.34666667       0.60000000
Ni      11.14666667      18.18666667       5.86666667       0.60000000
Ni      11.14666667      19.94666667       7.62666667       0.60000000
Ni      12.90666667      18.18666667       7.62666667       0.60000000
Ni      12.90666667      19.94666667       5.86666667       0.60000000
Ni      11.14666667      18.18666667       9.38666667       0.60000000
Ni      11.14666667      19.94666667      11.14666667       0.60000000
Ni      12.90666667      18.18666667      11.14666667       0.60000000
Ni      12.90666667      19.94666667       9.38666667       0.60000000
Ni      11.14666667      18.18666667      12.90666667       0.60000000
Ni      11.14666667      19.94666667      14.66666667       0.60000000
Ni      12.90666667      18.18666667      14.66666667       0.60000000
Ni      12.90666667      19.94666667      12.90666667       0.60000000
Ni      11.14666667      18.18666667      16.42666667       0.60000000
Ni      11.14666667      19.94666667      18.18666667       0.60000000
Ni      12.90666667      18.18666667      18.18666667       0.60000000
Ni      12.90666667      19.94666667      16.42666667       0.60000000
Ni      14.08000000       0.00000000       0.00000000       0.60000000
Ni      14.08000000       1.76000000       1.76000000       0.60000000
Ni      15.84000000       0.00000000       1.76000000       0.60000000
Ni      15.84000000       1.76000000       0.00000000       0.60000000
Ni      14.08000000       0.00000000       3.52000000       0.60000000
Ni      14.08000000       1.76000000       5.28000000       0.60000000
Ni      15.84000000       0.00000000       5.28000000       0.60000000
Ni      15.84000000       1.76000000       3.52000000       0.60000000
Ni      14.08000000       0.00000000       7.04000000       0.60000000
Ni      14.08000000       1.76000000       8.80000000       0.60000000
Ni      15.84000000       0.00000000       8.80000000       0.60000000
Ni      15.84000000       1.76000000       7.04000000       0.60000000
Ni      14.08000000       0.00000000      10.56000000       0.60000000
Ni      14.08000000       1.76000000      12.32000000       0.60000000
Ni      15.84000000       0.00000000      12.32000000       0.60000000
Ni      15.84000000       1.76000000      10.56000000       0.60000000
Ni      14.08000000       0.00000000      14.08000000       0.60000000
Ni      14.66666667       2.34666667      14.66666667       0.60000000
Ni      16.42666667       0.58666667      14.66666667       0.60000000
Ni      16.42666667       2.34666667      12.90666667       0.60000000
Ni      14.66666667       0.58666667      16.42666667       0.60000000
Ni      14.66666667       2.34666667      18.18666667       0.60000000
Ni      16.42666667       0.58666667      18.18666667       0.60000000
Ni      16.42666667       2.34666667      16.42666667       0.60000000
Ni      14.08000000       3.52000000       0.00000000       0.60000000
Ni      14.08000000       5.28000000       1.76000000       0.60000000
Ni      15.84000000       3.52000000       1.76000000       0.60000000
Ni      15.84000000       5.28000000       0.00000000       0.60000000
Ni      14.08000000       3.52000000       3.52000000       0.60000000
Ni      14.08000000       5.28000000       5.28000000       0.60000000
Ni      15.84000000       3.52000000       5.28000000       0.60000000
Ni      15.84000000       5.28000000       3.52000000       0.60000000
Ni      14.08000000       3.52000000       7.04000000       0.60000000
Ni      14.08000000       5.28000000       8.80000000       0.60000000
Ni      15.84000000       3.52000000       8.80000000       0.60000000
Ni      15.84000000       5.28000000       7.04000000       0.60000000
Ni      14.08000000       3.52000000      10.56000000       0.60000000
Ni      14.66666667       5.86666667      11.14666667       0.60000000
Ni      16.42666667       4.10666667      11.14666667       0.60000000
Ni      16.42666667       5.86666667       9.38666667       0.60000000
Ni      14.66666667       4.10666667      12.90666667       0.60000000
Ni      14.66666667       5.86666667      14.66666667       0.60000000
Ni      16.42666667       4.10666667      14.66666667       0.60000000
Ni      16.42666667       5.86666667      12.90666667       0.60000000
Ni      14.66666667       4.10666667      16.42666667       0.60000000
Ni      14.66666667       5.86666667      18.18666667       0.60000000
Ni      16.42666667       4.10666667      18.18666667       0.60000000
Ni      16.42666667       5.86666667      16.42666667       0.60000000
Ni      14.08000000       7.04000000       0.00000000       0.60000000
Ni      14.08000000       8.80000000       1.76000000       0.60000000
Ni      15.84000000       7.04000000       1.76000000       0.60000000
Ni      15.84000000       8.80000000       0.00000000       0.60000000
Ni      14.08000000       7.04000000       3.52000000       0.60000000
Ni      14.08000000       8.80000000       5.28000000       0.60000000
Ni      15.84000000       7.04000000       5.28000000       0.60000000
Ni      15.84000000       8.80000000       3.52000000       0.60000000
Ni      14.08000000       7.04000000       7.04000000       0.60000000
Ni      14.66666667       9.38666667       7.62666667       0.60000000
Ni      16.42666667       7.62666667       7.62666667       0.60000000
Ni      16.42666667       9.38666667       5.86666667       0.60000000
Ni      14.66666667       7.62666667       9.38666667       0.60000000
Ni      14.66666667       9.38666667      11.14666667       0.60000000
Ni      16.42666667       7.62666667      11.14666667       0.60000000
Ni      16.42666667       9.38666667       9.38666667       0.60000000
Ni      14.66666667       7.62666667      12.90666667       0.60000000
Ni      14.66666667       9.38666667      14.66666667       0.60000000
Ni      16.42666667       7.62666667      14.66666667       0.60000000
Ni      16.42666667       9.38666667      12.90666667       0.60000000
Ni      14.66666667       7.62666667      16.42666667       0.60000000
Ni      14.66666667       9.38666667      18.18666667       0.60000000
Ni      16.42666667       7.62666667      18.18666667       0.60000000
Ni      16.42666667       9.38666667      16.42666667       0.60000000
Ni      14.08000000      10.56000000       0.00000000       0.60000000
Ni      14.08000000      12.32000000       1.76000000       0.60000000
Ni      15.84000000      10.56000000       1.76000000       0.60000000
Ni      15.84000000      12.32000000       0.00000000       0.60000000
Ni      14.08000000      10.56000000       3.52000000       0.60000000
Ni      14.66666667      12.90666667       4.10666667       0.60000000
Ni      16.42666667      11.14666667       4.10666667       0.60000000
Ni      16.42666667      12.90666667       2.34666667       0.60000000
Ni      14.66666667      11.14666667       5.86666667       0.60000000
Ni      14.66666667      12.90666667       7.62666667       0.60000000
Ni      16.42666667      11.14666667       7.62666667       0.60000000
Ni      16.42666667      12.90666667       5.86666667       0.60000000
Ni      14.66666667      11.14666667       9.38666667       0.60000000
Ni      14.66666667      12.90666667      11.14666667       0.60000000
Ni      16.42666667      11.14666667      11.14666667       0.60000000
Ni      16.42666667      12.90666667       9.38666667       0.60000000
Ni      14.66666667      11.14666667      12.90666667       0.60000000
Ni      14.66666667      12.90666667      14.66666667       0.60000000
Ni      16.42666667      11.14666667      14.66666667       0.60000000
Ni      16.42666667      12.90666667      12.90666667       0.60000000
Ni      14.66666667      11.14666667      16.42666667       0.60000000
Ni      14.66666667      12.90666667      18.18666667       0.60000000
Ni      16.42666667      11.14666667      18.18666667       0.60000000
Ni      16.42666667      12.90666667      16.42666667       0.60000000
Ni      14.08000000      14.08000000       0.00000000       0.60000000
Ni      14.66666667      16.42666667       0.58666667       0.60000000
Ni      16.42666667      14.66666667       0.58666667       0.60000000
Ni      16.42666667      16.42666667      -1.17333333       0.60000000
Ni      14.66666667      14.66666667       2.34666667       0.60000000
Ni      14.66666667      16.42666667       4.10666667       0.60000000
Ni      16.42666667      14.66666667       4.10666667       0.60000000
Ni      16.42666667      16.42666667       2.34666667       0.60000000
Ni      14.66666667      14.66666667       5.86666667       0.60000000
Ni      14.66666667      16.42666667       7.62666667       0.60000000
Ni      16.42666667      14.66666667       7.62666667       0.60000000
Ni      16.42666667      16.42666667       5.86666667       0.60000000
Ni      14.66666667      14.66666667       9.38666667       0.60000000
Ni      14.66666667      16.42666667      11.14666667       0.60000000
Ni      16.42666667      14.66666667      11.14666667       0.60000000
Ni      16.42666667      16.42666667       9.38666667       0.60000000
Ni      14.66666667      14.66666667      12.90666667       0.60000000
Ni      14.66666667      16.42666667      14.66666667       0.60000000
Ni      16.42666667      14.66666667      14.66666667       0.60000000
Ni      16.42666667      16.42666667      12.90666667       0.60000000
Ni      14.66666667      14.66666667      16.42666667       0.60000000
Ni      14.66666667      16.42666667      18.18666667       0.60000000
Ni      16.42666667      14.66666667      18.18666667       0.60000000
Ni      16.42666667      16.42666667      16.42666667       0.60000000
Ni      14.66666667      18.18666667      -1.17333333       0.60000000
Ni      14.66666667      19.94666667       0.58666667       0.60000000
Ni      16.42666667      18.18666667       0.58666667       0.60000000
Ni      16.42666667      19.94666667      -1.17333333       0.60000000
Ni      14.66666667      18.18666667       2.34666667       0.60000000
Ni      14.66666667      19.94666667       4.10666667       0.60000000
Ni      16.42666667      18.18666667       4.10666667       0.60000000
Ni      16.42666667      19.94666667       2.34666667       0.60000000
Ni      14.66666667      18.18666667       5.86666667       0.60000000
Ni      14.66666667      19.94666667       7.62666667       0.60000000
Ni      16.42666667      18.18666667       7.62666667       0.60000000
Ni      16.42666667      19.94666667       5.86666667       0.60000000
Ni      14.66666667      18.18666667       9.38666667       0.60000000
Ni      14.66666667      19.94666667      11.14666667       0.60000000
Ni      16.42666667      18.18666667      11.14666667       0.60000000
Ni      16.42666667      19.94666667       9.38666667       0.60000000
Ni      14.66666667      18.18666667      12.90666667       0.60000000
Ni      14.66666667      19.94666667      14.66666667       0.60000000
Ni      16.42666667      18.18666667      14.66666667       0.60000000
Ni      16.42666667      19.94666667      12.90666667       0.60000000
Ni      14.66666667      18.18666667      16.42666667       0.60000000
Ni      14.66666667      19.94666667      18.18666667       0.60000000
Ni      16.42666667      18.18666667      18.18666667       0.60000000
Ni      16.42666667      19.94666667      16.42666667       0.60000000
Ni      17.60000000       0.00000000       0.00000000       0.60000000
Ni      17.60000000       1.76000000       1.76000000       0.60000000
Ni      19.36000000       0.00000000       1.76000000       0.60000000
Ni      19.36000000       1.76000000       0.00000000       0.60000000
Ni      17.60000000       0.00000000       3.52000000       0.60000000
Ni      17.60000000       1.76000000       5.28000000       0.60000000
Ni      19.36000000       0.00000000       5.28000000       0.60000000
Ni      19.36000000       1.76000000       3.52000000       0.60000000
Ni      17.60000000       0.00000000       7.04000000       0.60000000
Ni      17.60000000       1.76000000       8.80000000       0.60000000
Ni      19.36000000       0.00000000       8.80000000       0.60000000
Ni      19.36000000       1.76000000       7.04000000       0.60000000
Ni      17.60000000       0.00000000      10.56000000       0.60000000
Ni      18.18666667       2.34666667      11.14666667       0.60000000
Ni      19.94666667       0.58666667      11.14666667       0.60000000
Ni      19.94666667       2.34666667       9.38666667       0.60000000
Ni      18.18666667       0.58666667      12.90666667       0.60000000
Ni      18.18666667       2.34666667      14.66666667       0.60000000
Ni      19.94666667       0.58666667      14.66666667       0.60000000
Ni      19.94666667       2.34666667      12.90666667       0.60000000
Ni      18.18666667       0.58666667      16.42666667       0.60000000
Ni      18.18666667       2.34666667      18.18666667       0.60000000
Ni      19.94666667       0.58666667      18.18666667       0.60000000
Ni      19.94666667       2.34666667      16.42666667       0.60000000
Ni      17.60000000       3.52000000       0.00000000       0.60000000
Ni      17.60000000       5.28000000       1.76000000       0.60000000
Ni      19.36000000       3.52000000       1.76000000       0.60000000
Ni      19.36000000       5.28000000       0.00000000       0.60000000
Ni      17.60000000       3.52000000       3.52000000       0.60000000
Ni      17.60000000       5.28000000       5.28000000       0.60000000
Ni      19.36000000       3.52000000       5.28000000       0.60000000
Ni      19.36000000       5.28000000       3.52000000       0.60000000
Ni      17.60000000       3.52000000       7.04000000       0.60000000
Ni      18.18666667       5.86666667       7.62666667       0.60000000
Ni      19.94666667       4.10666667       7.62666667       0.60000000
Ni      19.94666667       5.86666667       5.86666667       0.60000000
Ni      18.18666667       4.10666667       9.38666667       0.60000000
Ni      18.18666667       5.86666667      11.14666667       0.60000000
Ni      19.94666667       4.10666667      11.14666667       0.60000000
Ni      19.94666667       5.86666667       9.38666667       0.60000000
Ni      18.18666667       4.10666667      12.90666667       0.60000000
Ni      18.18666667       5.86666667      14.66666667       0.60000000
Ni      19.94666667       4.10666667      14.66666667       0.60000000
Ni      19.94666667       5.86666667      12.90666667       0.60000000
Ni      18.18666667       4.10666667      16.42666667       0.60000000
Ni      18.18666667       5.86666667      18.18666667       0.60000000
Ni      19.94666667       4.10666667      18.18666667       0.60000000
Ni      19.94666667       5.86666667      16.42666667       0.60000000
Ni      17.60000000       7.04000000       0.00000000       0.60000000
Ni      17.60000000       8.80000000       1.76000000       0.60000000
Ni      19.36000000       7.04000000       1.76000000       0.60000000
Ni      19.36000000       8.80000000       0.00000000       0.60000000
Ni      17.60000000       7.04000000       3.52000000       0.60000000
Ni      18.18666667       9.38666667       4.10666667       0.60000000
Ni      19.94666667       7.62666667       4.10666667       0.60000000
Ni      19.94666667       9.38666667       2.34666667       0.60000000
Ni      18.18666667       7.62666667       5.86666667       0.60000000
Ni      18.18666667       9.38666667       7.62666667       0.60000000
Ni      19.94666667       7.62666667       7.62666667       0.60000000
Ni      19.94666667       9.38666667       5.86666667       0.60000000
Ni      18.18666667       7.62666667       9.38666667       0.60000000
Ni      18.18666667       9.38666667      11.14666667       0.60000000
Ni      19.94666667       7.62666667      11.14666667       0.60000000
Ni      19.94666667       9.38666667       9.38666667       0.60000000
Ni      18.18666667       7.62666667      12.90666667       0.60000000
Ni      18.18666667       9.38666667      14.66666667       0.60000000
Ni      19.94666667       7.62666667      14.66666667       0.60000000
Ni      19.94666667       9.38666667      12.90666667       0.60000000
Ni      18.18666667       7.62666667      16.42666667       0.60000000
Ni      18.18666667       9.38666667      18.18666667       0.60000000
Ni      19.94666667       7.62666667      18.18666667       0.60000000
Ni      19.94666667       9.38666667      16.42666667       0.60000000
Ni      17.60000000      10.56000000       0.00000000       0.60000000
Ni      18.18666667      12.90666667       0.58666667       0.60000000
Ni      19.94666667      11.14666667       0.58666667       0.60000000
Ni      19.94666667      12.90666667      -1.17333333       0.60000000
Ni      18.18666667      11.14666667       2.34666667       0.60000000
Ni      18.18666667      12.90666667       4.10666667       0.60000000
Ni      19.94666667      11.14666667       4.10666667       0.60000000
Ni      19.94666667      12.90666667       2.34666667       0.60000000
Ni      18.18666667      11.14666667       5.86666667       0.60000000
Ni      18.18666667      12.90666667       7.62666667       0.60000000
Ni      19.94666667      11.14666667       7.62666667       0.60000000
Ni      19.94666667      12.90666667       5.86666667       0.60000000
Ni      18.18666667      11.14666667       9.38666667       0.60000000
Ni      18.18666667      12.90666667      11.14666667       0.60000000
Ni      19.94666667      11.14666667      11.14666667       0.60000000
Ni      19.94666667      12.90666667       9.38666667       0.60000000
Ni      18.18666667      11.14666667      12.90666667       0.60000000
Ni      18.18666667      12.90666667      14.66666667       0.60000000
Ni      19.94666667      11.14666667      14.66666667       0.60000000
Ni      19.94666667      12.90666667      12.90666667       0.60000000
Ni      18.18666667      11.14666667      16.42666667       0.60000000
Ni      18.18666667      12.90666667      18.18666667       0.60000000
Ni      19.94666667      11.14666667      18.18666667       0.60000000
Ni      19.94666667      12.90666667      16.42666667       0.60000000
Ni      18.18666667      14.66666667      -1.17333333       0.60000000
Ni      18.18666667      16.42666667       0.58666667       0.60000000
Ni      19.94666667      14.66666667       0.58666667       0.60000000
Ni      19.94666667      16.42666667      -1.17333333       0.60000000
Ni      18.18666667      14.66666667       2.34666667       0.60000000
Ni      18.18666667      16.42666667       4.10666667       0.60000000
Ni      19.94666667      14.66666667       4.10666667       0.60000000
Ni      19.94666667      16.42666667       2.34666667       0.60000000
Ni      18.18666667      14.66666667       5.86666667       0.60000000
Ni      18.18666667      16.42666667       7.62666667       0.60000000
Ni      19.94666667      14.66666667       7.62666667       0.60000000
Ni      19.94666667      16.42666667       5.86666667       0.60000000
Ni      18.18666667      14.66666667       9.38666667       0.60000000
Ni      18.18666667      16.42666667      11.14666667       0.60000000
Ni      19.94666667      14.66666667      11.14666667       0.60000000
Ni      19.94666667      16.42666667       9.38666667       0.60000000
Ni      18.18666667      14.66666667      12.90666667       0.60000000
Ni      18.18666667      16.42666667      14.66666667       0.60000000
Ni      19.94666667      14.66666667      14.66666667       0.60000000
Ni      19.94666667      16.42666667      12.90666667       0.60000000
Ni      18.18666667      14.66666667      16.42666667       0.60000000
Ni      18.18666667      16.42666667      18.18666667       0.60000000
Ni      19.94666667      14.66666667      18.18666667       0.60000000
Ni      19.94666667      16.42666667      16.42666667       0.60000000
Ni      18.18666667      18.18666667      -1.17333333       0.60000000
Ni      18.18666667      19.94666667       0.58666667       0.60000000
Ni      19.94666667      18.18666667       0.58666667       0.60000000
Ni      19.94666667      19.94666667      -1.17333333       0.60000000
Ni      18.18666667      18.18666667       2.34666667       0.60000000
Ni      18.18666667      19.94666667       4.10666667       0.60000000
Ni      19.94666667      18.18666667       4.10666667       0.60000000
Ni      19.94666667      19.94666667       2.34666667       0.60000000
Ni      18.18666667      18.18666667       5.86666667       0.60000000
Ni      18.18666667      19.94666667       7.62666667       0.60000000
Ni      19.94666667      18.18666667       7.62666667       0.60000000
Ni      19.94666667      19.94666667       5.86666667       0.60000000
Ni      18.18666667      18.18666667       9.38666667       0.60000000
Ni      18.18666667      19.94666667      11.14666667       0.60000000
Ni      19.94666667      18.18666667      11.14666667       0.60000000
Ni      19.94666667      19.94666667       9.38666667       0.60000000
Ni      18.18666667      18.18666667      12.90666667       0.60000000
Ni      18.18666667      19.94666667      14.66666667       0.60000000
Ni      19.94666667      18.18666667      14.66666667       0.60000000
Ni      19.94666667      19.94666667      12.90666667       0.60000000
Ni      18.18666667      18.18666667      16.42666667       0.60000000
Ni      18.18666667      19.94666667      18.18666667       0.60000000
Ni      19.94666667      18.18666667      18.18666667       0.60000000
Ni      19.94666667      19.94666667      16.42666667       0.60000000
