864
Lattice="21.12 0.0 0.0 0.0 21.12 0.0 0.0 0.0 21.12" Properties=species:S:1:pos:R:3:initial_magmoms:R:1:forces:R:3:energies:R:1 energy=-4833.1865234375 stress="-0.055054984986782074 0.014723733067512512 0.00920831598341465 0.014723733067512512 -0.05505501106381416 0.009208329021930695 0.00920831598341465 0.009208329021930695 -0.01652035489678383" free_energy=-4833.1865234375 pbc="T T T"
Ni       0.09510947       0.09510948       0.07024766       0.60000000      -0.13100040      -0.13099968      -0.31310207      -5.49424100
Ni       0.03868376       1.79882204       1.75324738       0.60000000       0.25060493       0.26564363      -0.21344557      -5.71935451
Ni       1.79882204       0.03868375       1.75324738       0.60000000       0.26564398       0.25060526      -0.21344520      -5.71935469
Ni       1.77584474       1.77584476       0.01285322       0.60000000       0.20967072       0.20967034      -0.01594320      -5.75001091
Ni       0.08877758       0.08877759       3.53729596       0.60000000      -0.22074227      -0.22074185      -0.46701694      -5.61331856
Ni       0.04221074       1.76366982       5.23550295       0.60000000       0.23240188       0.38088813      -0.23709610      -5.66902661
Ni       1.76366982       0.04221073       5.23550296       0.60000000       0.38088769       0.23240247      -0.23709753      -5.66902697
Ni       1.77354377       1.77354378       3.50374456       0.60000000       0.12119715       0.12119518      -0.39179569      -5.71779293
Ni       0.06089606       0.06089607       6.98479103       0.60000000       0.02731435       0.02731574      -0.20528212      -5.57814407
Ni       0.21262606       1.87024598       8.52754039       0.60000000       0.31585771      -0.15817526       0.04031816      -5.49679160
Ni       1.87024594       0.21262618       8.52754032       0.60000000      -0.15817495       0.31585538       0.04032051      -5.49679148
Ni       1.83017462       1.83017461       6.89625007       0.60000000       0.08051501       0.08051288      -0.39351511      -5.57927042
Ni       0.25252562       0.25252561      10.13687988       0.60000000       0.13877214       0.13877225      -0.17918408      -5.42905575
Ni       0.26413619       1.90467448      12.07036972       0.60000000       0.09452082      -0.36084855      -0.16501398      -5.38922496
Ni       1.90467445       0.26413621      12.07036972       0.60000000      -0.36084747       0.09452134      -0.16501403      -5.38922502
Ni       1.88729099       1.88729104      10.43432035       0.60000000      -0.03027828      -0.03027887      -0.53409570      -5.49763429
Ni       0.29270932       0.29270934      13.70185872       0.60000000       0.29478344       0.29478380      -0.00093889      -5.25922929
Ni       0.26917543       1.89638504      15.61900835       0.60000000       0.02127520      -0.31886697       0.15587899      -5.43862003
Ni       1.89638503       0.26917549      15.61900835       0.60000000      -0.31886744       0.02127549       0.15587986      -5.43862015
Ni       1.89965603       1.89965607      13.97710298       0.60000000       0.11171573       0.11171491      -0.43885162      -5.52993828
Ni       0.26401625       0.26401625      17.29915487       0.60000000      -0.26539028      -0.26539049       0.58031642      -5.31435014
Ni       0.07385420       1.83784082      19.40682068       0.60000000       0.11974961      -0.20736618      -0.60630763      -5.52196562
Ni       1.83784081       0.07385418      19.40682067       0.60000000      -0.20736590       0.11974933      -0.60630774      -5.52196550
Ni       1.83416994       1.83416998      17.66788143       0.60000000       0.23764379       0.23764399      -0.11512988      -5.58888698
Ni      -0.01651910       3.53612613      -0.02315265       0.60000000       0.08299242       0.24092057      -0.16659272      -5.63662791
Ni      -0.01088259       5.24296021       1.71035446       0.60000000      -0.04355959       0.09009821      -0.15773568      -5.70984131
Ni       1.76174693       3.51941356       1.74896544       0.60000000       0.10303728       0.02207656      -0.22192475      -5.72676128
Ni       1.77186441       5.27666970       0.00033093       0.60000000       0.13379757      -0.04823850      -0.06515486      -5.76745415
Ni       0.00703346       3.49097092       3.47885991       0.60000000       0.19774172       0.28512672      -0.10080525      -5.68729925
Ni       0.30694903       5.14057626       5.13478302       0.60000000      -0.15041916       0.41374400       0.08211214      -5.56571013
Ni       1.87552514       3.47584917       5.19897452       0.60000000      -0.11046810       0.44952673      -0.43621689      -5.64709198
Ni       1.88273922       5.21256882       3.44952360       0.60000000       0.12098047      -0.02143921      -0.26735801      -5.68433791
Ni       0.29327720       3.42896728       6.87388178       0.60000000      -0.28192100       1.17296696      -0.39415702      -5.48676884
Ni       0.39180786       5.17715284       8.68722304       0.60000000      -0.41281211       0.35672593       0.02188979      -5.50888091
Ni       1.91070219       3.49254458       8.72217712       0.60000000       0.07948132       0.60429084      -0.48872080      -5.60393107
Ni       1.91293127       5.21998850       6.97429695       0.60000000       0.29430121      -0.02692813      -0.27783799      -5.64652866
Ni       0.37534144       3.46966483      10.42888453       0.60000000      -0.58491117       1.17234719      -0.43743172      -5.40939687
Ni       0.39420324       5.18051598      12.20946444       0.60000000      -0.46589953       0.33972245       0.02701589      -5.49828511
Ni       1.93244603       3.51172053      12.26114090       0.60000000       0.16851002       0.67808390      -0.32759103      -5.60881108
Ni       1.93283208       5.23626317      10.50782410       0.60000000       0.43126372       0.09213433      -0.18059412      -5.63279313
Ni       0.36855253       3.46662280      13.95087793       0.60000000      -0.79550648       1.00448120      -0.38856763      -5.42909878
Ni       0.39413229       5.18332259      15.73649668       0.60000000      -0.51413280       0.33325553       0.19412719      -5.52533424
Ni       1.92797704       3.50355855      15.80522032       0.60000000       0.04941095       0.55305141       0.16089734      -5.64462572
Ni       1.93505787       5.23604175      14.03078603       0.60000000       0.41294217       0.08428099      -0.04593162      -5.64984143
Ni       0.34456643       3.46986109      17.52169582       0.60000000      -1.17611635       0.64140272       0.15863799      -5.50952023
Ni       0.08059790       5.36494942      19.40691540       0.60000000      -0.06644313      -0.20492576      -0.54823399      -5.49729925
Ni       1.78645889       3.54624096      19.40181727       0.60000000       0.20059139       0.18422833       0.25934100      -5.75235730
Ni       1.86919217       5.24014847      17.64268906       0.60000000       0.33324933       0.18250522       0.09871387      -5.71442139
Ni      -0.02516994       7.01852459      -0.06544732       0.60000000      -0.11898876       0.18667705      -0.14265814      -5.59423012
Ni       0.31080632       8.66287494       1.58949616       0.60000000      -0.05553744       0.35637343      -0.05757981      -5.63297826
Ni       1.88900163       6.97478431       1.67391118       0.60000000       0.15476862      -0.04671446      -0.27317536      -5.73135567
Ni       1.91446328       8.74130519      -0.10035835       0.60000000       0.32722941       0.09776625      -0.38572446      -5.49682909
Ni       0.30870425       6.89534877       3.37283397       0.60000000      -0.10605873       0.24882841       0.09098668      -5.59168625
Ni       0.39428468       8.68883252       5.17122279       0.60000000      -0.33279297       0.13157400       0.08951887      -5.53167284
Ni       1.91335337       6.97509110       5.21622778       0.60000000       0.31920776      -0.19027591      -0.25083750      -5.66431206
Ni       1.91563415       8.73398521       3.45220491       0.60000000       0.33502162      -0.18759455      -0.33035573      -5.68568820
Ni       0.39387362       6.92938987       6.92979432       0.60000000      -0.35682064       0.16441742       0.10397135      -5.52036393
Ni       0.39681120       8.69250215       8.69307463       0.60000000      -0.42002726       0.09074225       0.08267074      -5.51062214
Ni       1.93247061       6.99025401       8.74956148       0.60000000       0.43484122      -0.09761007      -0.15324083      -5.64735895
Ni       1.93254537       8.74935831       6.99091554       0.60000000       0.43950307      -0.14120844      -0.14552192      -5.65851271
Ni       0.39655321       6.93346352      10.45180050       0.60000000      -0.42876831       0.13468722       0.07050063      -5.50415862
Ni       0.39707174       8.69263331      12.21134519       0.60000000      -0.41214156       0.10451756       0.09987977      -5.51479256
Ni       1.93452089       6.99165262      12.26906330       0.60000000       0.44200039      -0.07128500      -0.11421084      -5.65305161
Ni       1.93398680       8.75108111      10.51028470       0.60000000       0.44548211      -0.11293175      -0.12602444      -5.65840101
Ni       0.39815290       6.93345617      13.97123049       0.60000000      -0.41259462       0.15971774       0.13953397      -5.51667559
Ni       0.40126824       8.69796039      15.74442035       0.60000000      -0.33104959       0.20713195       0.27196074      -5.55340171
Ni       1.93820734       6.99296633      15.80549033       0.60000000       0.39633936      -0.04078295       0.16748154      -5.68440694
Ni       1.93597368       8.74996631      14.03084738       0.60000000       0.45442885      -0.08187258      -0.02369193      -5.66928673
Ni       0.36954561       6.96751081      17.52140644       0.60000000      -0.81083947       0.35160148       0.13446422      -5.55066419
Ni       0.11141589       8.86076818      19.33900783       0.60000000       0.07127129      -0.25758374      -0.52809644      -5.40573893
Ni       1.81093252       7.06697266      19.38875249       0.60000000       0.33516690      -0.14200568      -0.01619448      -5.64762479
Ni       1.88506334       8.76999349      17.67245816       0.60000000       0.50832814       0.24747643       0.17738456      -5.60919970
Ni       0.37376839      10.48503544      -0.23894032       0.60000000      -0.00467835       0.63190770      -0.25789732      -5.26790015
Ni       0.40064244      12.22170768       1.60804018       0.60000000      -0.21119612       0.29739490      -0.27074915      -5.61028653
Ni       1.92550396      10.50284338       1.66744538       0.60000000       0.38094944      -0.12127098      -0.46682686      -5.74781823
Ni       1.91761195      12.24766341      -0.18479278       0.60000000       0.71965396      -0.12818752      -1.11498821      -5.13003572
Ni       0.39399310      10.45079530       3.40461980       0.60000000      -0.30895266       0.15173064      -0.02204296      -5.54879194
Ni       0.39641950      12.21311966       5.17551671       0.60000000      -0.39648128       0.08020516       0.04554747      -5.51801044
Ni       1.93276334      10.50984163       5.23156176       0.60000000       0.43814504      -0.14672327      -0.17100471      -5.66649425
Ni       1.93572545      12.26935847       3.46641317       0.60000000       0.43744355      -0.12243647      -0.28382552      -5.68606377
Ni       0.39679652      10.45287206       6.93444797       0.60000000      -0.41590002       0.08297370       0.08678859      -5.51404601
Ni       0.39689467      12.21370157       8.69380378       0.60000000      -0.41544488       0.07952325       0.09266713      -5.50852013
Ni       1.93394309      10.51146115       8.75154656       0.60000000       0.44570479      -0.12374912      -0.11923169      -5.65921432
Ni       1.93401727      12.27143102       6.99291486       0.60000000       0.44595993      -0.13575397      -0.12061404      -5.65846419
Ni       0.39689247      10.45345543      10.45251241       0.60000000      -0.41613883       0.09268536       0.09070025      -5.51242864
Ni       0.39697326      12.21575261      12.21340589       0.60000000      -0.37238777       0.09521542       0.10713579      -5.51798320
Ni       1.93402455      10.51192199      12.26942995       0.60000000       0.44806072      -0.09905814      -0.08860771      -5.65851808
Ni       1.93342678      12.27219916      10.51105754       0.60000000       0.45125318      -0.11143386      -0.09676106      -5.64994001
Ni       0.39798904      10.45508369      13.97427020       0.60000000      -0.35458112       0.11852610       0.15860838      -5.53176093
Ni       0.38156798      12.21688742      15.74658523       0.60000000      -0.23510519       0.01889025       0.06424580      -5.43713534
Ni       1.93517577      10.52102855      15.81639128       0.60000000       0.34503579       0.02052510       0.22180648      -5.73956317
Ni       1.92963875      12.28259510      14.04121331       0.60000000       0.38133144       0.00569299       0.09581359      -5.70530301
Ni       0.37272023      10.48601990      17.52444772       0.60000000      -0.30136240       0.33604079       0.10367160      -5.32157697
Ni       0.57429193      12.87930025      18.25273920       0.60000000      -0.04386030      -0.14365843       0.43269300      -5.36513536
Ni       2.43446100      11.17824537      18.33156236       0.60000000       0.30953416       0.09587735       1.09215486      -5.17254172
Ni       2.43708367      12.93398683      16.49138997       0.60000000       0.30008912       0.04288596       0.46644062      -5.75610191
Ni       0.49628299      14.01645955      -0.25503501       0.60000000      -0.10217007       0.21067196      -0.85698187      -5.26783027
Ni       0.41238290      15.74083798       1.60688779       0.60000000      -0.04091609       0.16912560      -0.46561688      -5.59368712
Ni       1.94691895      14.02972570       1.67998365       0.60000000       0.47065547      -0.10642783      -0.49927384      -5.74246597
Ni       1.93691841      15.78186649      -0.18135345       0.60000000       0.95931131      -0.02215482      -1.07186067      -5.11667909
Ni       0.39789779      13.97501971       3.40951720       0.60000000      -0.34536192       0.09238125      -0.08768943      -5.53015798
Ni       0.40108132      15.73461529       5.17161387       0.60000000      -0.23208711       0.11211921      -0.10895817      -5.52863479
Ni       1.93461648      14.03041231       5.23321363       0.60000000       0.43238896      -0.16939801      -0.16806333      -5.66113871
Ni       1.94065924      15.78965016       3.46790183       0.60000000       0.50109619      -0.13701054      -0.29805088      -5.66924739
Ni       0.39700579      13.97271037       6.93439818       0.60000000      -0.41800699       0.02835794       0.05141215      -5.50601494
Ni       0.39310389      15.72229282       8.68822589       0.60000000      -0.37957728      -0.17631885      -0.14606786      -5.51318324
Ni       1.93378144      14.02980404       8.75185591       0.60000000       0.43582568      -0.17389905      -0.11116217      -5.63961190
Ni       1.93103502      15.77979222       6.98797250       0.60000000       0.34275925      -0.34053838      -0.21212649      -5.62426722
Ni       0.39698951      13.97450904      10.45431300       0.60000000      -0.38575339       0.03881837       0.08431174      -5.50604951
Ni       0.37803782      15.72446635      12.20893510       0.60000000      -0.20380914      -0.22018452      -0.18802407      -5.37942781
Ni       1.92997277      14.04030353      12.28152409       0.60000000       0.39160800      -0.06037068       0.03537996      -5.68076885
Ni       1.93532555      15.78030780      10.52009086       0.60000000       0.44342130      -0.31699288      -0.03173142      -5.65440184
Ni       0.37744808      13.97321218      13.97191402       0.60000000      -0.27630356      -0.07552288      -0.00282772      -5.39135136
Ni       0.55272193      16.38416462      14.65470249       0.60000000      -0.20343460      -0.48886967       0.18289080      -5.76438659
Ni       2.42786679      14.68983854      14.69858861       0.60000000       0.24859373      -0.04801586       0.24468547      -5.71552652
Ni       2.42514798      16.42643855      12.93779516       0.60000000       0.14340702      -0.44569963       0.24292514      -5.70755982
Ni       0.56891607      14.64108277      16.43823449       0.60000000      -0.05760945      -0.21469563       0.17068501      -5.74576062
Ni       0.60677596      16.41942257      18.28827646       0.60000000      -0.01338258      -0.29781845       0.76475656      -5.43126196
Ni       2.35281740      14.66914351      18.29731483       0.60000000      -0.06097936      -0.06075277       0.89306307      -5.15356682
Ni       2.34992828      16.40154443      16.47301166       0.60000000      -0.07556464      -0.45651641       0.54591954      -5.75565547
Ni       0.53766618      17.52807728      -0.27250364       0.60000000       0.30518678       0.27802634      -1.22219622      -5.34097464
Ni       0.43274518      19.30454980       1.57133930       0.60000000      -0.31267643      -0.08183777      -0.14211325      -5.47696173
Ni       1.94206374      17.56026577       1.68028825       0.60000000       0.60778546      -0.05318636      -0.64094770      -5.69856554
Ni       1.87303804      19.38740527      -0.19182358       0.60000000       0.57571059       0.19834965      -0.88856745      -5.43298715
Ni       0.43755537      17.49917969       3.38040260       0.60000000      -0.06896080       0.22946376      -0.30341935      -5.53005141
Ni       0.41897834      19.30196634       5.12403922       0.60000000      -0.54161799      -0.02353506       0.13528150      -5.45370990
Ni       1.93116884      17.56924577       5.22285809       0.60000000       0.58791339       0.04362250      -0.39198244      -5.61087132
Ni       1.88439424      19.39612879       3.43497144       0.60000000       0.39788479       0.02696285      -0.21594642      -5.65701592
Ni       0.43625698      17.50225917       6.90277323       0.60000000      -0.13030168       0.30605015      -0.26081479      -5.49308324
Ni       0.41713252      19.32423452       8.65009299       0.60000000      -0.46616369       0.18542644       0.10978878      -5.46733421
Ni       1.90087594      17.49561143       8.72239600       0.60000000       0.51311219      -0.02008312      -0.28843579      -5.62681985
Ni       1.90432242      19.41694935       6.98197106       0.60000000       0.55178595       0.13537775      -0.18025655      -5.71794605
Ni       0.39792856      17.42236776      10.39642079       0.60000000      -0.23117207      -0.14969397      -0.41928011      -5.33340509
Ni       0.62231245      19.52954701      11.29564607       0.60000000      -0.18511508       0.46574521      -0.11073242      -5.46907502
Ni       2.45090541      18.04575297      11.22321216       0.60000000       0.01987951      -0.51332301       0.28878340      -5.62852848
Ni       2.52423292      19.54865527       9.54926365       0.60000000       0.14889491       0.23051700       0.41509512      -5.33300687
Ni       0.52972830      18.04222138      12.96418401       0.60000000      -0.13069749      -0.55203527       0.19913928      -5.72282588
Ni       0.64440936      19.52604851      14.82638608       0.60000000       0.04948488       0.52328753      -0.05869951      -5.46039164
Ni       2.37747676      18.01333247      14.72854890       0.60000000      -0.03527306      -0.59152400       0.49316490      -5.62988335
Ni       2.44450332      19.51082367      13.04318734       0.60000000      -0.30600071       0.11303955       0.29356849      -5.49942619
Ni       0.56124405      18.05424390      16.52980619       0.60000000       0.00602367      -0.39849031       0.37090865      -5.68861306
Ni       0.62520980      19.41498120      18.48091852       0.60000000       0.20808917       0.29005671       0.68433273      -5.35901870
Ni       2.39177427      18.01594352      18.37002603       0.60000000      -0.01881614      -0.99688685       1.27746153      -5.18278091
Ni       2.44557030      19.50228354      16.60015131       0.60000000      -0.27623922      -0.10643144       0.57378328      -5.57421833
Ni       3.53612612      -0.01651911      -0.02315266       0.60000000       0.24092066       0.08299209      -0.16659260      -5.63662773
Ni       3.51941355       1.76174692       1.74896545       0.60000000       0.02207633       0.10303706      -0.22192478      -5.72676128
Ni       5.24296019      -0.01088261       1.71035445       0.60000000       0.09009801      -0.04355963      -0.15773541      -5.70984125
Ni       5.27666971       1.77186441       0.00033094       0.60000000      -0.04823837       0.13379847      -0.06515413      -5.76745385
Ni       3.49097092       0.00703346       3.47885991       0.60000000       0.28512758       0.19774261      -0.10080488      -5.68729925
Ni       3.47584917       1.87552514       5.19897452       0.60000000       0.44952503      -0.11046678      -0.43621749      -5.64709187
Ni       5.14057627       0.30694903       5.13478304       0.60000000       0.41374505      -0.15041821       0.08210801      -5.56570995
Ni       5.21256882       1.88273923       3.44952360       0.60000000      -0.02144017       0.12097842      -0.26735687      -5.68433791
Ni       3.42896727       0.29327722       6.87388177       0.60000000       1.17296529      -0.28191951      -0.39415571      -5.48676908
Ni       3.49254457       1.91070217       8.72217712       0.60000000       0.60428977       0.07948229      -0.48871994      -5.60393113
Ni       5.17715280       0.39180788       8.68722302       0.60000000       0.35672802      -0.41281137       0.02188883      -5.50888097
Ni       5.21998849       1.91293128       6.97429693       0.60000000      -0.02692679       0.29430106      -0.27783725      -5.64652890
Ni       3.46966486       0.37534151      10.42888454       0.60000000       1.17234719      -0.58491087      -0.43743223      -5.40939729
Ni       3.51172055       1.93244599      12.26114090       0.60000000       0.67808115       0.16850847      -0.32758859      -5.60881084
Ni       5.18051596       0.39420324      12.20946445       0.60000000       0.33972219      -0.46590048       0.02701543      -5.49828494
Ni       5.23626318       1.93283209      10.50782411       0.60000000       0.09213498       0.43126327      -0.18059483      -5.63279355
Ni       3.46662281       0.36855250      13.95087789       0.60000000       1.00448120      -0.79550302      -0.38857055      -5.42909867
Ni       3.50355854       1.92797706      15.80522035       0.60000000       0.55305135       0.04941054       0.16089761      -5.64462548
Ni       5.18332259       0.39413227      15.73649671       0.60000000       0.33325535      -0.51413208       0.19412759      -5.52533400
Ni       5.23604175       1.93505788      14.03078600       0.60000000       0.08428068       0.41294247      -0.04593156      -5.64984113
Ni       3.46986110       0.34456631      17.52169579       0.60000000       0.64140356      -1.17611480       0.15863779      -5.50951940
Ni       3.54624096       1.78645889      19.40181728       0.60000000       0.18422784       0.20059097       0.25934058      -5.75235778
Ni       5.36494942       0.08059791      19.40691541       0.60000000      -0.20492563      -0.06644422      -0.54823494      -5.49729937
Ni       5.24014845       1.86919217      17.64268906       0.60000000       0.18250383       0.33324882       0.09871387      -5.71442205
Ni       3.52755306       3.52755306       0.00069933       0.60000000       0.12411506       0.12411506       0.03128587      -5.74966311
Ni       3.54726686       5.27907486       1.73586606       0.60000000       0.44167259      -0.07310896      -0.30665931      -5.74684203
Ni       5.27907487       3.54726687       1.73586606       0.60000000      -0.07310982       0.44167373      -0.30665955      -5.74684209
Ni       5.29611725       5.29611724      -0.03171270       0.60000000       0.15933120       0.15933090      -0.18167371      -5.43273580
Ni       3.53014549       3.53014550       3.49885711       0.60000000       0.23066704       0.23066744      -0.50847769      -5.70401537
Ni       3.54597882       5.27402990       5.27015003       0.60000000       0.48678488      -0.08502682      -0.28003445      -5.70842940
Ni       5.27402990       3.54597883       5.27015003       0.60000000      -0.08502682       0.48678446      -0.28003410      -5.70842928
Ni       5.28331141       5.28331141       3.51635419       0.60000000       0.10592075       0.10592084      -0.14162779      -5.71973085
Ni       3.53909573       3.53909573       7.01972547       0.60000000       0.35741940       0.35741985      -0.48637506      -5.68858027
Ni       3.55138883       5.27827122       8.79186723       0.60000000       0.56327218      -0.01030085      -0.23787767      -5.69778740
Ni       5.27827122       3.55138883       8.79186723       0.60000000      -0.01030097       0.56327170      -0.23787776      -5.69778699
Ni       5.28471553       5.28471552       7.03980929       0.60000000       0.11819763       0.11819860      -0.06563240      -5.69817352
Ni       3.55085843       3.55085843      10.54371048       0.60000000       0.50202906       0.50202924      -0.40360057      -5.68352389
Ni       3.55471424       5.28063144      12.31231826       0.60000000       0.64615673       0.06322896      -0.16044357      -5.70021725
Ni       5.28063143       3.55471425      12.31231824       0.60000000       0.06322975       0.64615661      -0.16044340      -5.70021725
Ni       5.28586433       5.28586433      10.55835648       0.60000000       0.16077429       0.16077515      -0.05517665      -5.69405419
Ni       3.55396854       3.55396856      14.06854315       0.60000000       0.55174893       0.55174696      -0.15269566      -5.69812226
Ni       3.54970073       5.28310454      15.85061055       0.60000000       0.51140696       0.02934780       0.19662261      -5.73114681
Ni       5.28310455       3.54970074      15.85061054       0.60000000       0.02934840       0.51140714       0.19662231      -5.73114645
Ni       5.28550799       5.28550799      14.07973652       0.60000000       0.16495100       0.16495058       0.05650421      -5.70049149
Ni       3.54075147       3.54075149      17.61896790       0.60000000       0.25120494       0.25120500       0.33709568      -5.75799787
Ni       3.55353345       5.30715634      19.37031789       0.60000000       0.27108219       0.10424529       0.16301663      -5.59228581
Ni       5.30715635       3.55353346      19.37031791       0.60000000       0.10424538       0.27108225       0.16301638      -5.59228569
Ni       5.29829751       5.29829751      17.64006319       0.60000000       0.20102718       0.20102604       0.23526275      -5.59427619
Ni       3.55935815       7.04137005      -0.03867838       0.60000000       0.59104866      -0.14820752      -0.30782580      -5.45232648
Ni       3.55664734       8.79846447       1.72155199       0.60000000       0.60917360      -0.14893666      -0.38074610      -5.78000551
Ni       5.29327402       7.04820145       1.72980632       0.60000000       0.19717392       0.06371237      -0.23506157      -5.76891071
Ni       5.28169077       8.79588482      -0.10142529       0.60000000       0.09641472      -0.04238309      -0.79337513      -5.08405344
Ni       3.54694936       7.02997529       3.50771079       0.60000000       0.53534311      -0.17942269      -0.29956931      -5.72801131
Ni       3.55110680       8.79216900       5.27446675       0.60000000       0.56559128      -0.18731973      -0.20976774      -5.72458780
Ni       5.28522441       7.03937899       5.28131692       0.60000000       0.14360809       0.00472816      -0.05057718      -5.71208292
Ni       5.28546905       8.79928834       3.51736258       0.60000000       0.16440588      -0.01066449      -0.11598322      -5.73097908
Ni       3.55134022       7.03270254       7.03369020       0.60000000       0.56251538      -0.15491159      -0.19877547      -5.71255654
Ni       3.55446587       8.79420992       8.79468142       0.60000000       0.63492322      -0.13865063      -0.14486405      -5.71711087
Ni       5.28604319       7.03990576       8.79985600       0.60000000       0.16664121       0.01861592      -0.02759375      -5.70357150
Ni       5.28602220       8.79933119       7.04108142       0.60000000       0.16697250      -0.02025139      -0.02092530      -5.71221471
Ni       3.55452625       7.03471133      10.55356173       0.60000000       0.63893855      -0.09407227      -0.15473023      -5.70944798
Ni       3.55476272       8.79446659      12.31293243       0.60000000       0.64193165      -0.12588629      -0.13394472      -5.71674615
Ni       5.28637759       7.04008825      12.31815557       0.60000000       0.18050206       0.02990394      -0.01511934      -5.70198363
Ni       5.28656991       8.79973431      10.55915765       0.60000000       0.18130934      -0.01046009      -0.02003188      -5.70549428
Ni       3.55465598       7.03480546      14.07409996       0.60000000       0.64445752      -0.08133904      -0.06348005      -5.71824390
Ni       3.54712322       8.79607548      15.86289318       0.60000000       0.50446057      -0.07106689       0.22914565      -5.78262949
Ni       5.28682091       7.04179024      15.85829324       0.60000000       0.16283260       0.06112683       0.18728718      -5.75687724
Ni       5.28520671       8.79929480      14.07819064       0.60000000       0.15355213      -0.00272445       0.09371749      -5.73184210
Ni       3.55338337       7.04921073      17.64483007       0.60000000       0.40732408       0.03673557       0.29465693      -5.62124896
Ni       4.12886856       9.39509477      18.29164769       0.60000000       0.31013015       0.03282587       0.81326932      -5.09731198
Ni       5.87583056       7.63429427      18.28555863       0.60000000       0.10853904       0.04968353       0.74854583      -5.07848617
Ni       5.86939652       9.38755031      16.46772878       0.60000000       0.09724537       0.01189761       0.36196962      -5.78667724
Ni       3.54021539      10.54903977      -0.12016194       0.60000000       0.50473094      -0.23133427      -1.01559198      -5.14501065
Ni       3.55063529      12.31233287       1.70732335       0.60000000       0.57515132      -0.20590819      -0.55582577      -5.79420024
Ni       5.28482506      10.55933815       1.71715982       0.60000000       0.14645395      -0.01645822      -0.39323542      -5.77923352
Ni       5.27825986      12.31320032      -0.11002721       0.60000000       0.08227567      -0.07026917      -0.82051885      -5.12183376
Ni       3.55126901      10.55246154       3.51029857       0.60000000       0.59323335      -0.18245593      -0.29093438      -5.74042815
Ni       3.55411725      12.31454613       5.27658213       0.60000000       0.63481897      -0.15379469      -0.16986111      -5.72436106
Ni       5.28596642      10.55962511       5.28201412       0.60000000       0.16759557      -0.02345669      -0.04375017      -5.71830398
Ni       5.28541609      12.31974829       3.51673889       0.60000000       0.15512745      -0.03384145      -0.15561289      -5.72901142
Ni       3.55439613      10.55445500       7.03593733       0.60000000       0.63419914      -0.14659223      -0.14206079      -5.72009873
Ni       3.55496013      12.31520768       8.79527178       0.60000000       0.63901210      -0.14924407      -0.13326827      -5.70966882
Ni       5.28660846      10.56015317       8.80030730       0.60000000       0.18095021      -0.01780828      -0.01507161      -5.70582265
Ni       5.28661654      12.32029565       7.04167134       0.60000000       0.17850965      -0.02978395      -0.01523158      -5.70472097
Ni       3.55489586      10.55506414      10.55398018       0.60000000       0.64001858      -0.13310328      -0.13787428      -5.71375811
Ni       3.55420583      12.31600212      12.31401893       0.60000000       0.60315180      -0.10728540      -0.08027128      -5.73789066
Ni       5.28635039      10.56001017      12.31813004       0.60000000       0.17737782      -0.01246602      -0.00487756      -5.72541964
Ni       5.28642331      12.32017379      10.55878441       0.60000000       0.17880671      -0.03447730      -0.01505708      -5.71710044
Ni       3.55394635      10.55546576      14.07333457       0.60000000       0.60113972      -0.09113221       0.00879977      -5.75245738
Ni       4.12438272      12.90797348      14.67155917       0.60000000       0.37937486       0.01669715       0.19282070      -5.73253101
Ni       5.86805311      11.14617258      14.66942227       0.60000000       0.09941965      -0.00365904       0.13334614      -5.73914158
Ni       5.86828360      12.90572937      12.90404770       0.60000000       0.10414901      -0.04133582       0.02961201      -5.72191548
Ni       4.12625936      11.15019063      16.47194630       0.60000000       0.38875732       0.05128599       0.43683079      -5.78052169
Ni       4.12142994      12.91744357      18.30011030       0.60000000       0.22147807       0.12601762       0.87316912      -5.12361874
Ni       5.86987842      11.15044658      18.29415999       0.60000000       0.07423139       0.05368401       0.78606808      -5.11152455
Ni       5.86677977      12.90709586      16.46872100       0.60000000       0.05470554      -0.00615391       0.38810182      -5.77592111
Ni       3.53847544      14.06585849      -0.12685265       0.60000000       0.49129725      -0.24583557      -1.01953804      -5.16539215
Ni       3.55188299      15.83514354       1.70764975       0.60000000       0.59462023      -0.13397104      -0.53651482      -5.78634143
Ni       5.28378177      14.07951619       1.71681963       0.60000000       0.11280753      -0.06111944      -0.41990691      -5.77383465
Ni       5.27740732      15.83519337      -0.11059646       0.60000000       0.03988401      -0.02334870      -0.82631326      -5.12498750
Ni       3.55424297      14.07375708       3.51150347       0.60000000       0.64953750      -0.19111156      -0.28694618      -5.73796487
Ni       3.54836206      15.82774417       5.27155536       0.60000000       0.50012159      -0.28561968      -0.26751071      -5.71426076
Ni       5.28587448      14.07905588       5.28190186       0.60000000       0.15075888      -0.06532609      -0.06352358      -5.70850724
Ni       5.27975216      15.83214178       3.51166405       0.60000000       0.01938514      -0.19213131      -0.25819132      -5.72191077
Ni       3.55452739      14.07387170       7.03607112       0.60000000       0.62766790      -0.19774796      -0.15486276      -5.70795870
Ni       3.55260512      15.81785323       8.79399885       0.60000000       0.57076705      -0.46431613      -0.16226420      -5.71278667
Ni       5.28641509      14.07790281       8.80034151       0.60000000       0.17502974      -0.11791702      -0.01447796      -5.70800006
Ni       5.28360507      15.82229242       7.03960174       0.60000000       0.10428868      -0.36569846      -0.07010686      -5.70721608
Ni       3.55485958      14.07346809      10.55473818       0.60000000       0.63019192      -0.22454631      -0.09155633      -5.72205073
Ni       4.12872441      16.39410281      11.15148180       0.60000000       0.46407503      -0.57136524       0.16166854      -5.71443903
Ni       5.86872419      14.66026465      11.14502870       0.60000000       0.11729072      -0.17456123       0.01354787      -5.70954251
Ni       5.87319881      16.39177452       9.39052512       0.60000000       0.22455871      -0.62992942       0.08655995      -5.72128576
Ni       4.12414565      14.66306442      12.90656361       0.60000000       0.36764178      -0.10445985       0.09870758      -5.71205443
Ni       4.11955264      16.39788961      14.67948520       0.60000000       0.30155265      -0.51374024       0.36403072      -5.72881079
Ni       5.86747597      14.66139182      14.67016856       0.60000000       0.06501870      -0.13791387       0.17658655      -5.72032732
Ni       5.87273480      16.39243964      12.91005682       0.60000000       0.19837898      -0.62922353       0.18127227      -5.71384466
Ni       4.11571310      14.66821342      16.47474747       0.60000000       0.19635651       0.00253958       0.49753296      -5.76378989
Ni       4.11755557      16.40711302      18.31155415       0.60000000       0.13899784      -0.51081061       1.00932717      -5.17157787
Ni       5.87225122      14.66871822      18.29674949       0.60000000       0.10787040      -0.04782898       0.83184004      -5.11472046
Ni       5.87281525      16.39465752      16.47950613       0.60000000       0.20750102      -0.60417956       0.55451536      -5.79250741
Ni       3.53163393      17.59467904      -0.12038598       0.60000000       0.30337751       0.07099400      -1.07008505      -5.22914138
Ni       3.53914819      19.35423338       1.71679940       0.60000000       0.33665428       0.01219767      -0.45459089      -5.74091274
Ni       5.28356531      17.59436112       1.72352533       0.60000000       0.09878159       0.02926379      -0.36994490      -5.73709345
Ni       5.27654609      19.33458128      -0.08939576       0.60000000       0.07264436      -0.17367013      -0.58547801      -5.36928506
Ni       3.54663622      17.60563418       3.51119891       0.60000000       0.48212215       0.10919922      -0.30475843      -5.71760690
Ni       3.56209282      19.39434972       5.29537939       0.60000000       0.47402701       0.22718921      -0.12106507      -5.75890648
Ni       5.25728929      17.51903236       5.25429863       0.60000000       0.05539344      -0.23341760      -0.13015151      -5.70280081
Ni       5.30478595      19.38795983       3.53860393       0.60000000       0.21181923       0.12831014      -0.00085726      -5.74298608
Ni       3.52044769      17.52136766       7.00836657       0.60000000       0.44401044      -0.13834298      -0.21660453      -5.70248950
Ni       4.22188480      19.56859316       7.73745332       0.60000000       0.21909508       0.20699310       0.18989986      -5.37632848
Ni       5.90626370      18.01710068       7.66416006       0.60000000       0.05973484      -0.39339373      -0.02419954      -5.67707890
Ni       5.97329386      19.56845386       5.97393456       0.60000000       0.08129506       0.29183590       0.04441284      -5.38404743
Ni       4.16633023      18.01119375       9.42543281       0.60000000       0.31621289      -0.44380277       0.02809280      -5.65368801
Ni       4.22427594      19.55363455      11.25729217       0.60000000       0.17639679       0.37799320       0.14546776      -5.51507813
Ni       5.91676700      18.01283898      11.19355085       0.60000000       0.17299610      -0.43658406       0.11068945      -5.64163655
Ni       5.97217496      19.54965262       9.49120057       0.60000000      -0.03902026       0.38599074      -0.08866332      -5.50557387
Ni       4.16663607      18.01544621      12.95822633       0.60000000       0.34552926      -0.34142339       0.24157691      -5.63135588
Ni       4.20999121      19.54456253      14.78103263       0.60000000      -0.11208705       0.19606327       0.21560223      -5.54175580
Ni       5.91650426      18.00930730      14.71872430       0.60000000       0.15081534      -0.42910954       0.28804374      -5.68097377
Ni       5.97378226      19.55019026      13.01137810       0.60000000      -0.03306466       0.40058070      -0.01217738      -5.51263398
Ni       4.15681539      17.99720158      16.50545964       0.60000000       0.13521960      -0.52192861       0.49831289      -5.72433084
Ni       4.17207966      19.44763749      18.43804894       0.60000000      -0.20195824       0.06900148       0.91076833      -5.28335474
Ni       5.91825244      18.01410949      18.36845190       0.60000000      -0.05926581      -0.87300026       1.08092642      -5.11867782
Ni       5.96407674      19.53886671      16.57663840       0.60000000      -0.19040751       0.17319310       0.37453026      -5.58804226
Ni       7.01852460      -0.02516994      -0.06544734       0.60000000       0.18667710      -0.11898891      -0.14265814      -5.59422970
Ni       6.97478432       1.88900165       1.67391116       0.60000000      -0.04671375       0.15476799      -0.27317536      -5.73135579
Ni       8.66287494       0.31080630       1.58949616       0.60000000       0.35637271      -0.05554187      -0.05757874      -5.63297874
Ni       8.74130520       1.91446326      -0.10035836       0.60000000       0.09776503       0.32722935      -0.38572538      -5.49682909
Ni       6.89534875       0.30870430       3.37283396       0.60000000       0.24882782      -0.10605933       0.09098656      -5.59168649
Ni       6.97509108       1.91335337       5.21622777       0.60000000      -0.19027649       0.31920686      -0.25083107      -5.66431248
Ni       8.68883252       0.39428471       5.17122280       0.60000000       0.13157396      -0.33279359       0.08951807      -5.53167284
Ni       8.73398522       1.91563416       3.45220490       0.60000000      -0.18759519       0.33502239      -0.33035541      -5.68568808
Ni       6.92938987       0.39387358       6.92979430       0.60000000       0.16441688      -0.35681891       0.10397103      -5.52036399
Ni       6.99025402       1.93247065       8.74956149       0.60000000      -0.09760959       0.43483803      -0.15324304      -5.64735860
Ni       8.69250217       0.39681120       8.69307463       0.60000000       0.09074195      -0.42002523       0.08267124      -5.51062191
Ni       8.74935830       1.93254536       6.99091552       0.60000000      -0.14121014       0.43950564      -0.14551750      -5.65851265
Ni       6.93346352       0.39655327      10.45180054       0.60000000       0.13468617      -0.42876971       0.07049976      -5.50415879
Ni       6.99165262       1.93452087      12.26906329       0.60000000      -0.07128602       0.44200099      -0.11421034      -5.65305209
Ni       8.69263328       0.39707176      12.21134519       0.60000000       0.10451815      -0.41214153       0.09987894      -5.51479316
Ni       8.75108106       1.93398681      10.51028468       0.60000000      -0.11292828       0.44547978      -0.12602490      -5.65840137
Ni       6.93345617       0.39815288      13.97123047       0.60000000       0.15971711      -0.41259432       0.13953424      -5.51667511
Ni       6.99296631       1.93820733      15.80549034       0.60000000      -0.04078255       0.39633948       0.16748106      -5.68440747
Ni       8.69796039       0.40126828      15.74442035       0.60000000       0.20713222      -0.33104950       0.27196065      -5.55340219
Ni       8.74996630       1.93597367      14.03084739       0.60000000      -0.08187212       0.45442992      -0.02369053      -5.66928643
Ni       6.96751081       0.36954560      17.52140640       0.60000000       0.35160151      -0.81083995       0.13446400      -5.55066413
Ni       7.06697266       1.81093253      19.38875250       0.60000000      -0.14200516       0.33516684      -0.01619444      -5.64762431
Ni       8.86076816       0.11141590      19.33900787       0.60000000      -0.25758421       0.07127158      -0.52809644      -5.40573885
Ni       8.76999353       1.88506331      17.67245815       0.60000000       0.24747631       0.50832796       0.17738459      -5.60919976
Ni       7.04137005       3.55935816      -0.03867837       0.60000000      -0.14820720       0.59104854      -0.30782554      -5.45232648
Ni       7.04820146       5.29327403       1.72980632       0.60000000       0.06371270       0.19717433      -0.23506184      -5.76891047
Ni       8.79846447       3.55664735       1.72155199       0.60000000      -0.14893788       0.60917556      -0.38074636      -5.78000563
Ni       8.79588481       5.28169076      -0.10142528       0.60000000      -0.04238271       0.09641446      -0.79337537      -5.08405340
Ni       7.02997528       3.54694936       3.50771079       0.60000000      -0.17942244       0.53534412      -0.29957014      -5.72801119
Ni       7.03937898       5.28522441       5.28131692       0.60000000       0.00472811       0.14360896      -0.05057864      -5.71208280
Ni       8.79216899       3.55110680       5.27446675       0.60000000      -0.18731952       0.56559151      -0.20976827      -5.72458720
Ni       8.79928834       5.28546906       3.51736258       0.60000000      -0.01066447       0.16440548      -0.11598314      -5.73097908
Ni       7.03270254       3.55134023       7.03369021       0.60000000      -0.15491220       0.56251115      -0.19877625      -5.71255618
Ni       7.03990577       5.28604320       8.79985600       0.60000000       0.01861554       0.16664121      -0.02759301      -5.70357150
Ni       8.79420992       3.55446587       8.79468141       0.60000000      -0.13865091       0.63492227      -0.14486456      -5.71711105
Ni       8.79933118       5.28602221       7.04108143       0.60000000      -0.02024479       0.16697250      -0.02092577      -5.71221471
Ni       7.03471134       3.55452624      10.55356173       0.60000000      -0.09407149       0.63893926      -0.15472952      -5.70944828
Ni       7.04008825       5.28637761      12.31815557       0.60000000       0.02990471       0.18050152      -0.01511917      -5.70198339
Ni       8.79446660       3.55476272      12.31293244       0.60000000      -0.12588713       0.64193380      -0.13394475      -5.71674609
Ni       8.79973431       5.28656992      10.55915766       0.60000000      -0.01046070       0.18130833      -0.02003168      -5.70549393
Ni       7.03480546       3.55465597      14.07409998       0.60000000      -0.08133861       0.64445722      -0.06347981      -5.71824384
Ni       7.04179025       5.28682092      15.85829324       0.60000000       0.06112422       0.16283268       0.18728700      -5.75687712
Ni       8.79607548       3.54712322      15.86289318       0.60000000      -0.07106662       0.50445974       0.22914457      -5.78262901
Ni       8.79929481       5.28520671      14.07819064       0.60000000      -0.00272475       0.15355125       0.09371712      -5.73184204
Ni       7.04921071       3.55338337      17.64483007       0.60000000       0.03673549       0.40732467       0.29465723      -5.62124914
Ni       7.63429428       5.87583056      18.28555862       0.60000000       0.04968096       0.10853798       0.74854589      -5.07848582
Ni       9.39509479       4.12886857      18.29164769       0.60000000       0.03282649       0.31012958       0.81326956      -5.09731186
Ni       9.38755030       5.86939654      16.46772878       0.60000000       0.01189876       0.09724528       0.36196968      -5.78667694
Ni       7.03714873       7.03714873      -0.09843393       0.60000000       0.00968478       0.00968465      -0.75601900      -5.07754911
Ni       7.04014979       8.79976266       1.71843134       0.60000000       0.04735498       0.01558510      -0.35181022      -5.78809649
Ni       8.79976265       7.04014979       1.71843135       0.60000000       0.01558502       0.04735553      -0.35181028      -5.78809613
Ni       8.79333329       8.79333330      -0.10565319       0.60000000      -0.03027961      -0.03027967      -0.76122594      -5.12094046
Ni       7.04039272       7.04039270       3.51798024       0.60000000       0.04901566       0.04901596      -0.08969407      -5.73378026
Ni       7.04037786       8.79980108       5.28252614       0.60000000       0.04338523       0.00439343      -0.01922139      -5.72674769
Ni       8.79980109       7.04037786       5.28252613       0.60000000       0.00439332       0.04338519      -0.01922154      -5.72674751
Ni       8.79982672       8.79982672       3.51747297       0.60000000       0.00579587       0.00579581      -0.11557966      -5.74558038
Ni       7.04033624       7.04033624       7.04150862       0.60000000       0.03856963       0.03857195      -0.00139327      -5.71509629
Ni       7.04074809       8.80016956       8.80068757       0.60000000       0.04616642       0.00474935       0.00103886      -5.71429312
Ni       8.80016956       7.04074810       8.80068758       0.60000000       0.00474935       0.04616648       0.00103896      -5.71429354
Ni       8.80020818       8.80020818       7.04200957       0.60000000       0.00726201       0.00726201       0.00605707      -5.72324181
Ni       7.04071104       7.04071103      10.55953870       0.60000000       0.04621111       0.04621166      -0.00612821      -5.70772070
Ni       7.04053385       8.79993484      12.31856454       0.60000000       0.04513856       0.00652185       0.00788914      -5.73208040
Ni       8.79993484       7.04053385      12.31856454       0.60000000       0.00652244       0.04513899       0.00788871      -5.73208040
Ni       8.80004974       8.80004975      10.55911779       0.60000000       0.00658825       0.00658837      -0.00393668      -5.73458147
Ni       7.04024011       7.04024011      14.07781627       0.60000000       0.04597473       0.04597514       0.08192743      -5.73276770
Ni       7.62580822       9.38586250      14.66949148       0.60000000       0.01763904       0.00079026       0.12197985      -5.74849445
Ni       9.38586250       7.62580822      14.66949148       0.60000000       0.00079027       0.01763914       0.12197985      -5.74849480
Ni       9.38597498       9.38597498      12.90415283       0.60000000      -0.00055271      -0.00055270       0.02237727      -5.74200308
Ni       7.62753018       7.62753017      16.46723032       0.60000000       0.02807198       0.02807204       0.35148582      -5.79252964
Ni       7.62852840       9.38904718      18.29219593       0.60000000       0.03360366       0.02972963       0.76512957      -5.10899407
Ni       9.38904718       7.62852840      18.29219594       0.60000000       0.02973028       0.03360379       0.76512963      -5.10899371
Ni       9.38615551       9.38615550      16.46696289       0.60000000       0.00104041       0.00104121       0.35148925      -5.78963792
Ni       7.03348127      10.55357416      -0.10615366       0.60000000      -0.00043086      -0.03601917      -0.76718938      -5.11744896
Ni       7.03983561      12.32020897       1.71913560       0.60000000       0.02827136      -0.00993443      -0.36482796      -5.78467184
Ni       8.79958419      10.55992336       1.71972093       0.60000000       0.00095041      -0.00171879      -0.35090891      -5.79389143
Ni       8.79454653      12.31538163      -0.10389380       0.60000000      -0.03647250      -0.03870919      -0.74841154      -5.11990208
Ni       7.04036561      10.56009562       3.51744235       0.60000000       0.03842781      -0.00168613      -0.12139267      -5.73975456
Ni       7.04077739      12.32064467       5.28283038       0.60000000       0.04285052      -0.01223317      -0.02542954      -5.71943182
Ni       8.80019996      10.56053953       5.28284204       0.60000000       0.00759948       0.00163926      -0.01943690      -5.72946918
Ni       8.80026946      12.32077230       3.51764500       0.60000000       0.00419302      -0.00901720      -0.12111486      -5.73886991
Ni       7.04077496      10.56053696       7.04200113       0.60000000       0.04660568      -0.00096805       0.00392693      -5.71705544
Ni       7.04071773      12.32052563       8.80057487       0.60000000       0.04783067      -0.02158575       0.00058327      -5.72372937
Ni       8.80009064      10.56047582       8.80054597       0.60000000       0.00761267      -0.00043980       0.00155362      -5.73455602
Ni       8.80018262      12.32057331       7.04193993       0.60000000       0.00804189      -0.01994526       0.00367580      -5.73220211
Ni       7.04064266      10.56040383      10.55906964       0.60000000       0.04725999      -0.00211741      -0.00486319      -5.72856915
Ni       7.62613238      12.90592930      11.14477277       0.60000000       0.02119206      -0.04798574      -0.00227741      -5.72534609
Ni       9.38617992      11.14656066      11.14481427       0.60000000       0.00011284      -0.00779457      -0.00331631      -5.73620802
Ni       9.38624557      12.90601862       9.38617670       0.60000000       0.00173478      -0.04758608      -0.00020945      -5.72775894
Ni       7.62590780      11.14629481      12.90410090       0.60000000       0.01908185      -0.00780331       0.02345810      -5.73722732
Ni       7.62589854      12.90589694      14.66906423       0.60000000       0.01090536      -0.03834387       0.12667209      -5.73147845
Ni       9.38605635      11.14641418      14.66901415       0.60000000      -0.00195347      -0.00663260       0.11817752      -5.74198329
Ni       9.38615261      12.90591784      12.90385438       0.60000000       0.00054235      -0.04547205       0.02290903      -5.72225100
Ni       7.62581362      11.14661058      16.46712338       0.60000000       0.00887949       0.00099902       0.35805920      -5.78539389
Ni       7.63129539      12.91214514      18.29124278       0.60000000       0.04150608       0.00749579       0.75859356      -5.11547224
Ni       9.39155889      11.15193761      18.29016470       0.60000000       0.03170722       0.03115722       0.74267155      -5.12174542
Ni       9.38674102      12.90674294      16.46733294       0.60000000       0.00451300      -0.03242527       0.35857782      -5.78685284
Ni       7.03363025      14.07527905      -0.10647629       0.60000000      -0.03424288      -0.07809654      -0.77475834      -5.11470702
Ni       7.03444077      15.83085719       1.71338362       0.60000000      -0.09353471      -0.20031920      -0.45954698      -5.77334893
Ni       8.79936745      14.07984240       1.71841916       0.60000000      -0.02352319      -0.05513453      -0.37965673      -5.78317672
Ni       8.78944287      15.82525239      -0.11271468       0.60000000      -0.14910120      -0.22305927      -0.86302543      -5.12820702
Ni       7.04014800      14.07949663       3.51702210       0.60000000       0.01191500      -0.04928665      -0.15072219      -5.72979671
Ni       7.03871441      15.82240707       5.28043729       0.60000000      -0.01452581      -0.36904991      -0.08415060      -5.72087216
Ni       8.80045215      14.07837241       5.28269239       0.60000000       0.00459802      -0.10447648      -0.02628133      -5.72884172
Ni       8.79831325      15.82226512       3.51516667       0.60000000      -0.04871025      -0.38147855      -0.18744937      -5.73960865
Ni       7.04079599      14.07819874       7.04200432       0.60000000       0.04305599      -0.10400160      -0.00106977      -5.71707183
Ni       7.63066435      16.39244701       7.63202694       0.60000000       0.10749203      -0.59876406       0.08870638      -5.73360270
Ni       9.38660374      14.66031129       7.62796367       0.60000000       0.01273236      -0.17637753       0.01568580      -5.72111696
Ni       9.39072999      16.39265793       5.87270120       0.60000000       0.08528003      -0.59926081       0.08194125      -5.74231482
Ni       7.62648348      14.66022535       9.38644928       0.60000000       0.03419109      -0.17922769       0.01036113      -5.71629888
Ni       7.63144613      16.39174561      11.15008831       0.60000000       0.14876670      -0.63918442       0.13114479      -5.71146971
Ni       9.38651716      14.66007515      11.14504105       0.60000000       0.01730378      -0.18040025       0.01289236      -5.70750511
Ni       9.39158259      16.39181187       9.39145489       0.60000000       0.13317618      -0.63800943       0.13139924      -5.71303999
Ni       7.62635680      14.66013453      12.90422255       0.60000000       0.02908064      -0.17868392       0.04133423      -5.70999300
Ni       7.63241221      16.39211658      14.67464392       0.60000000       0.15908581      -0.65695387       0.26995832      -5.73871720
Ni       9.38703970      14.66120975      14.66981339       0.60000000       0.02661707      -0.15827367       0.15143804      -5.73040283
Ni       9.39216967      16.39256907      12.91004294       0.60000000       0.14441550      -0.63575697       0.16652422      -5.72590452
Ni       7.62694401      14.66225617      16.46898632       0.60000000       0.03476782      -0.13553101       0.40520275      -5.77553439
Ni       7.64102348      16.40841902      18.31222549       0.60000000       0.22054660      -0.46972391       1.02234125      -5.16935042
Ni       9.39382338      14.66834549      18.29628926       0.60000000       0.06541821      -0.08370077       0.81617194      -5.12315080
Ni       9.39460203      16.39608627      16.47915020       0.60000000       0.20196883      -0.57411540       0.55208743      -5.79542464
Ni       7.03395076      17.59364197      -0.10771105       0.60000000       0.00750816       0.04485564      -0.84391147      -5.15499221
Ni       7.06228878      19.37682736       1.74902609       0.60000000       0.14591156       0.03164774      -0.13877213      -5.75400639
Ni       8.77246099      17.50954082       1.69558696       0.60000000      -0.07108701      -0.30552715      -0.45954165      -5.76273710
Ni       8.82724379      19.37236901      -0.06599556       0.60000000       0.12673329       0.03995710      -0.42820492      -5.36837532
Ni       7.01267216      17.51847736       3.48854177       0.60000000      -0.05266618      -0.27825409      -0.21929285      -5.72626120
Ni       7.73261605      19.56934785       4.21433730       0.60000000       0.02916834       0.28275901      -0.01322395      -5.40407048
Ni       9.42421876      18.01715069       4.14555408       0.60000000      -0.01854722      -0.38149673      -0.09239267      -5.70956463
Ni       9.49017478      19.56524209       2.44004650       0.60000000      -0.02559908       0.23645087      -0.06533954      -5.44087064
Ni       7.66339287      18.01792434       5.90539063       0.60000000      -0.00085679      -0.39705113      -0.02821544      -5.69492161
Ni       7.73053344      19.54953008       7.73182799       0.60000000      -0.09563307       0.37540513      -0.10382611      -5.51466185
Ni       9.43446876      18.01330925       7.67570295       0.60000000       0.09513050      -0.45197830       0.09789510      -5.65389812
Ni       9.49124543      19.54974711       5.97328744       0.60000000      -0.10815060       0.37338251      -0.10753255      -5.52202433
Ni       7.67445669      18.01328975       9.43435915       0.60000000       0.11089890      -0.45005766       0.09138440      -5.64923787
Ni       7.73288390      19.54982039      11.25154246       0.60000000      -0.08016297       0.41447991      -0.09347390      -5.51042527
Ni       9.43517278      18.01266135      11.19376914       0.60000000       0.12295125      -0.44624072       0.11802651      -5.66117620
Ni       9.49311952      19.54976038       9.49284876       0.60000000      -0.09379023       0.41582072      -0.09609468      -5.51179475
Ni       7.67494858      18.01240882      12.95303480       0.60000000       0.13590437      -0.44474623       0.15059814      -5.66575903
Ni       7.73152886      19.54971282      14.77663022       0.60000000      -0.09566376       0.37202185       0.06866080      -5.53366208
Ni       9.43730868      18.01105984      14.72024434       0.60000000       0.11716170      -0.43674096       0.28229621      -5.68732446
Ni       9.49373470      19.55027720      13.01111427       0.60000000      -0.08782999       0.39966798      -0.05034655      -5.52009159
Ni       7.67635735      18.00067345      16.50643053       0.60000000       0.09387416      -0.45789981       0.49984497      -5.74682283
Ni       7.68984513      19.45106080      18.44082805       0.60000000      -0.23149887       0.10295268       0.84691405      -5.27440150
Ni       9.45925336      18.02920972      18.37117706       0.60000000       0.12603270      -0.71707833       1.11323225      -5.13149762
Ni       9.48524450      19.54617721      16.57839511       0.60000000      -0.29853356       0.21630536       0.26634616      -5.61193860
Ni      10.48503544       0.37376837      -0.23894031       0.60000000       0.63190782      -0.00467888      -0.25789779      -5.26789947
Ni      10.50284337       1.92550396       1.66744538       0.60000000      -0.12126028       0.38094750      -0.46682778      -5.74781841
Ni      12.22170772       0.40064246       1.60804017       0.60000000       0.29739228      -0.21119317      -0.27074856      -5.61028671
Ni      12.24766340       1.91761195      -0.18479274       0.60000000      -0.12818821       0.71965480      -1.11498761      -5.13003581
Ni      10.45079526       0.39399305       3.40461979       0.60000000       0.15173104      -0.30895001      -0.02204088      -5.54879230
Ni      10.50984163       1.93276335       5.23156176       0.60000000      -0.14672272       0.43814519      -0.17100558      -5.66649425
Ni      12.21311969       0.39641951       5.17551673       0.60000000       0.08020562      -0.39648110       0.04554744      -5.51801062
Ni      12.26935847       1.93572546       3.46641315       0.60000000      -0.12243736       0.43744370      -0.28382647      -5.68606329
Ni      10.45287208       0.39679654       6.93444799       0.60000000       0.08297473      -0.41590068       0.08678851      -5.51404566
Ni      10.51146117       1.93394308       8.75154657       0.60000000      -0.12374961       0.44570488      -0.11923250      -5.65921378
Ni      12.21370158       0.39689467       8.69380376       0.60000000       0.07952379      -0.41544551       0.09266546      -5.50852001
Ni      12.27143099       1.93401729       6.99291486       0.60000000      -0.13575529       0.44595963      -0.12061422      -5.65846413
Ni      10.45345545       0.39689247      10.45251241       0.60000000       0.09267671      -0.41613829       0.09069933      -5.51242852
Ni      10.51192200       1.93402453      12.26942997       0.60000000      -0.09905818       0.44806027      -0.08860726      -5.65851825
Ni      12.21575261       0.39697327      12.21340588       0.60000000       0.09521626      -0.37238830       0.10713661      -5.51798260
Ni      12.27219918       1.93342675      10.51105754       0.60000000      -0.11143188       0.45125547      -0.09676187      -5.64993989
Ni      10.45508371       0.39798901      13.97427021       0.60000000       0.11852607      -0.35458124       0.15860818      -5.53176045
Ni      10.52102858       1.93517572      15.81639133       0.60000000       0.02052499       0.34503591       0.22180656      -5.73956311
Ni      12.21688742       0.38156801      15.74658523       0.60000000       0.01889086      -0.23510422       0.06424637      -5.43713516
Ni      12.28259509       1.92963876      14.04121332       0.60000000       0.00569229       0.38133168       0.09581451      -5.70530361
Ni      10.48601987       0.37272033      17.52444765       0.60000000       0.33604053      -0.30136240       0.10367170      -5.32157640
Ni      11.17824539       2.43446102      18.33156237       0.60000000       0.09587752       0.30953419       1.09215462      -5.17254183
Ni      12.87930025       0.57429194      18.25273922       0.60000000      -0.14365889      -0.04386013       0.43269289      -5.36513494
Ni      12.93398681       2.43708366      16.49138996       0.60000000       0.04288567       0.30008754       0.46644026      -5.75610214
Ni      10.54903977       3.54021538      -0.12016195       0.60000000      -0.23133411       0.50473058      -1.01559103      -5.14501065
Ni      10.55933815       5.28482507       1.71715982       0.60000000      -0.01645754       0.14645363      -0.39323521      -5.77923340
Ni      12.31233286       3.55063530       1.70732335       0.60000000      -0.20590979       0.57515049      -0.55582571      -5.79419988
Ni      12.31320033       5.27825985      -0.11002722       0.60000000      -0.07026945       0.08227608      -0.82051891      -5.12183369
Ni      10.55246153       3.55126902       3.51029857       0.60000000      -0.18245593       0.59323341      -0.29093418      -5.74042821
Ni      10.55962512       5.28596642       5.28201412       0.60000000      -0.02345740       0.16759542      -0.04374893      -5.71830422
Ni      12.31454612       3.55411725       5.27658213       0.60000000      -0.15379451       0.63481891      -0.16986106      -5.72436112
Ni      12.31974830       5.28541608       3.51673889       0.60000000      -0.03384159       0.15512744      -0.15561295      -5.72901106
Ni      10.55445499       3.55439613       7.03593733       0.60000000      -0.14659315       0.63419938      -0.14206076      -5.72009921
Ni      10.56015319       5.28660847       8.80030730       0.60000000      -0.01780903       0.18094935      -0.01507177      -5.70582241
Ni      12.31520768       3.55496012       8.79527178       0.60000000      -0.14924386       0.63901132      -0.13326801      -5.70966935
Ni      12.32029565       5.28661655       7.04167135       0.60000000      -0.02978417       0.17850989      -0.01523201      -5.70472097
Ni      10.55506414       3.55489585      10.55398017       0.60000000      -0.13310316       0.64001924      -0.13787466      -5.71375775
Ni      10.56001017       5.28635039      12.31813004       0.60000000      -0.01246615       0.17737755      -0.00487759      -5.72541970
Ni      12.31600212       3.55420585      12.31401893       0.60000000      -0.10728603       0.60315245      -0.08027121      -5.73789090
Ni      12.32017379       5.28642330      10.55878441       0.60000000      -0.03447761       0.17880650      -0.01505702      -5.71710020
Ni      10.55546576       3.55394635      14.07333457       0.60000000      -0.09113252       0.60113978       0.00880010      -5.75245720
Ni      11.14617257       5.86805312      14.66942227       0.60000000      -0.00365903       0.09941973       0.13334617      -5.73914182
Ni      12.90797348       4.12438272      14.67155917       0.60000000       0.01669748       0.37937498       0.19282064      -5.73253101
Ni      12.90572937       5.86828360      12.90404770       0.60000000      -0.04133537       0.10414848       0.02961181      -5.72191495
Ni      11.15019063       4.12625935      16.47194630       0.60000000       0.05128545       0.38875705       0.43683085      -5.78052169
Ni      11.15044659       5.86987843      18.29416000       0.60000000       0.05368380       0.07423128       0.78606802      -5.11152453
Ni      12.91744358       4.12142995      18.30011029       0.60000000       0.12601773       0.22147813       0.87316930      -5.12361906
Ni      12.90709586       5.86677977      16.46872100       0.60000000      -0.00615330       0.05470617       0.38810182      -5.77592117
Ni      10.55357418       7.03348127      -0.10615367       0.60000000      -0.03601890      -0.00043072      -0.76718986      -5.11744829
Ni      10.55992336       8.79958419       1.71972092       0.60000000      -0.00171849       0.00095008      -0.35090882      -5.79389113
Ni      12.32020896       7.03983560       1.71913559       0.60000000      -0.00993467       0.02827139      -0.36482805      -5.78467190
Ni      12.31538162       8.79454653      -0.10389380       0.60000000      -0.03870909      -0.03647238      -0.74841088      -5.11990198
Ni      10.56009560       7.04036560       3.51744235       0.60000000      -0.00168577       0.03842805      -0.12139277      -5.73975450
Ni      10.56053953       8.80019996       5.28284204       0.60000000       0.00163916       0.00759938      -0.01943673      -5.72946906
Ni      12.32064467       7.04077739       5.28283038       0.60000000      -0.01223343       0.04285029      -0.02542940      -5.71943158
Ni      12.32077230       8.80026945       3.51764500       0.60000000      -0.00901768       0.00419318      -0.12111484      -5.73886967
Ni      10.56053696       7.04077496       7.04200114       0.60000000      -0.00096824       0.04660547       0.00392644      -5.71705544
Ni      10.56047582       8.80009064       8.80054597       0.60000000      -0.00043984       0.00761272       0.00155356      -5.73455620
Ni      12.32052561       7.04071773       8.80057487       0.60000000      -0.02158525       0.04783091       0.00058328      -5.72372907
Ni      12.32057330       8.80018261       7.04193993       0.60000000      -0.01994522       0.00804164       0.00367570      -5.73220247
Ni      10.56040384       7.04064266      10.55906961       0.60000000      -0.00211720       0.04726003      -0.00486294      -5.72856921
Ni      11.14656066       9.38617992      11.14481428       0.60000000      -0.00779454       0.00011279      -0.00331624      -5.73620796
Ni      12.90592930       7.62613238      11.14477276       0.60000000      -0.04798555       0.02119186      -0.00227726      -5.72534615
Ni      12.90601865       9.38624556       9.38617670       0.60000000      -0.04758623       0.00173449      -0.00020961      -5.72775942
Ni      11.14629480       7.62590781      12.90410091       0.60000000      -0.00780350       0.01908175       0.02345789      -5.73722732
Ni      11.14641418       9.38605636      14.66901416       0.60000000      -0.00663196      -0.00195340       0.11817750      -5.74198300
Ni      12.90589694       7.62589854      14.66906424       0.60000000      -0.03834400       0.01090541       0.12667203      -5.73147792
Ni      12.90591783       9.38615261      12.90385437       0.60000000      -0.04547258       0.00054233       0.02290938      -5.72225082
Ni      11.14661057       7.62581363      16.46712339       0.60000000       0.00099941       0.00887930       0.35805941      -5.78539401
Ni      11.15193760       9.39155889      18.29016470       0.60000000       0.03115689       0.03170754       0.74267209      -5.12174583
Ni      12.91214514       7.63129538      18.29124278       0.60000000       0.00749630       0.04150559       0.75859356      -5.11547227
Ni      12.90674293       9.38674102      16.46733294       0.60000000      -0.03242426       0.00451385       0.35857767      -5.78685308
Ni      10.55508139      10.55508140      -0.10345062       0.60000000      -0.03174062      -0.03174070      -0.74191815      -5.12235834
Ni      10.56048350      12.32082942       1.71959658       0.60000000      -0.00285400      -0.00929632      -0.35655117      -5.78630221
Ni      12.32082942      10.56048351       1.71959658       0.60000000      -0.00929606      -0.00285448      -0.35655138      -5.78630203
Ni      12.31806600      12.31806600      -0.10585457       0.60000000      -0.03604773      -0.03604735      -0.77027422      -5.10651218
Ni      10.56061498      10.56061498       3.51764977       0.60000000       0.00209139       0.00209122      -0.11781500      -5.74294496
Ni      10.56076173      12.32077110       5.28258784       0.60000000       0.00073607      -0.01882837      -0.02277461      -5.73798555
Ni      12.32077110      10.56076173       5.28258786       0.60000000      -0.01882843       0.00073603      -0.02277462      -5.73798531
Ni      12.32088639      12.32088639       3.51724903       0.60000000      -0.01756658      -0.01756670      -0.12359209      -5.74448419
Ni      10.56050800      10.56050800       7.04187290       0.60000000       0.00043975       0.00044012       0.00395594      -5.73696661
Ni      11.14666988      12.90604234       7.62762735       0.60000000      -0.00567363      -0.04693154       0.00548132      -5.72776520
Ni      12.90604233      11.14666988       7.62762734       0.60000000      -0.04693108      -0.00567331       0.00548142      -5.72776544
Ni      12.90612486      12.90612487       5.86815521       0.60000000      -0.04579101      -0.04579119      -0.00906310      -5.72526008
Ni      11.14659941      11.14659942       9.38614404       0.60000000      -0.00715662      -0.00715655      -0.00085829      -5.73377341
Ni      11.14650310      12.90591822      11.14467646       0.60000000      -0.00518431      -0.04632039      -0.00354797      -5.71601868
Ni      12.90591822      11.14650309      11.14467646       0.60000000      -0.04632049      -0.00518420      -0.00354779      -5.71601886
Ni      12.90593129      12.90593129       9.38602714       0.60000000      -0.04589955      -0.04589884       0.00154875      -5.70697165
Ni      11.14648370      11.14648370      12.90382539       0.60000000      -0.00729507      -0.00729509       0.01968039      -5.72850692
Ni      11.14685843      12.90631984      14.66920259       0.60000000      -0.00269465      -0.03806722       0.12144287      -5.73868185
Ni      12.90631984      11.14685844      14.66920260       0.60000000      -0.03806739      -0.00269514       0.12144289      -5.73868132
Ni      12.90633154      12.90633154      12.90413499       0.60000000      -0.04063835      -0.04063751       0.02295256      -5.71984500
Ni      11.14708649      11.14708647      16.46698442       0.60000000      -0.00083380      -0.00083374       0.35225245      -5.79299790
Ni      11.15337822      12.91315258      18.29286334       0.60000000       0.03554934       0.00022760       0.76790249      -5.11660750
Ni      12.91315258      11.15337821      18.29286335       0.60000000       0.00022780       0.03554920       0.76790231      -5.11660759
Ni      12.90649764      12.90649760      16.46847290       0.60000000      -0.04395137      -0.04394921       0.35936031      -5.78176385
Ni      10.55665645      14.07674446      -0.10747710       0.60000000      -0.05261898      -0.07529103      -0.78541774      -5.11207600
Ni      10.55689859      15.82040491       1.71479523       0.60000000      -0.05459839      -0.38919321      -0.43508869      -5.78148729
Ni      12.31927061      14.07726880       1.71886085       0.60000000      -0.02547727      -0.09688294      -0.36693761      -5.78321487
Ni      12.31152310      15.81778930      -0.10506025       0.60000000      -0.04158217      -0.30932677      -0.81826210      -5.09493299
Ni      10.56087140      14.07861519       3.51727851       0.60000000      -0.00217107      -0.09948881      -0.13241108      -5.73996896
Ni      11.15151200      16.39271524       4.11338293       0.60000000       0.08336593      -0.60145462      -0.00878820      -5.75167108
Ni      12.90668853      14.66144112       4.10858581       0.60000000      -0.03400793      -0.15449938      -0.09743987      -5.72551066
Ni      12.91003397      16.39958634       2.32374045       0.60000000       0.04243399      -0.50423741      -0.23539692      -5.77675116
Ni      11.14702639      14.66033201       5.86857880       0.60000000       0.00410693      -0.17714742       0.00551448      -5.72460890
Ni      11.15196284      16.39176613       7.63273383       0.60000000       0.12406223      -0.64017683       0.13860905      -5.71256685
Ni      12.90632999      14.66010140       7.62760600       0.60000000      -0.03210791      -0.18203074       0.02267596      -5.69808137
Ni      12.91159223      16.39185906       5.87382319       0.60000000       0.08474360      -0.64302838       0.13330743      -5.70872569
Ni      11.14689813      14.66008294       9.38638923       0.60000000       0.01055576      -0.18102664       0.01574071      -5.70472968
Ni      11.15251990      16.39227896      11.15076025       0.60000000       0.13828807      -0.63451082       0.14288995      -5.71872652
Ni      12.90683704      14.66070164      11.14562464       0.60000000      -0.01874621      -0.16622007       0.02519006      -5.70500308
Ni      12.91189073      16.39213866       9.39210171       0.60000000       0.09363176      -0.63811767       0.14885783      -5.70866084
Ni      11.14734004      14.66073617      12.90464598       0.60000000       0.01775586      -0.16733745       0.04396754      -5.71712005
Ni      11.15443882      16.39541866      14.67630936       0.60000000       0.17745978      -0.59262633       0.29066652      -5.73905158
Ni      12.90685228      14.66127526      14.66922433       0.60000000      -0.02035351      -0.16125163       0.12000473      -5.72457421
Ni      12.91404522      16.39556790      12.91224247       0.60000000       0.15081245      -0.56568724       0.21588665      -5.71698952
Ni      11.14756917      14.66184398      16.46947501       0.60000000       0.01441720      -0.14632052       0.39387724      -5.77809983
Ni      11.15777433      16.40648412      18.30681555       0.60000000       0.23058951      -0.50384188       1.01624250      -5.14413913
Ni      12.91049926      14.66499574      18.28859579       0.60000000       0.02058395      -0.09164327       0.80460823      -5.07990070
Ni      12.90784436      16.39018464      16.46509557       0.60000000       0.12402635      -0.60538459       0.38588774      -5.77479929
Ni      10.52884108      17.51223106      -0.14488695       0.60000000      -0.09595591      -0.30913001      -1.09219301      -5.17318310
Ni      11.22081169      19.57403630       0.66217670       0.60000000      -0.33836621       0.30351040      -0.10476069      -5.32107647
Ni      12.93616984      18.06166954       0.51418730       0.60000000      -0.26801980      -0.50478381      -0.18262917      -5.60409659
Ni      12.84608911      19.83526721      -1.15237155       0.60000000       0.25030631      -0.07066144       0.52623796      -5.40180285
Ni      11.18589725      18.01151732       2.37029579       0.60000000      -0.02649838      -0.34436911      -0.22212768      -5.73890507
Ni      11.25185063      19.54873540       4.21243767       0.60000000      -0.12549341       0.35771531      -0.15805820      -5.53080732
Ni      12.95581048      18.01075400       4.15588742       0.60000000       0.04516683      -0.44794816       0.01890309      -5.66141337
Ni      13.00773466      19.54587551       2.44234945       0.60000000      -0.23413867       0.34227297      -0.27122790      -5.54848289
Ni      11.19504837      18.01262455       5.91730284       0.60000000       0.08907270      -0.44769999       0.08985281      -5.65721202
Ni      11.25354845      19.54978641       7.73425011       0.60000000      -0.10275012       0.41842595      -0.08943436      -5.51108348
Ni      12.95475100      18.01277185       7.67653811       0.60000000       0.06652154      -0.44157833       0.12627870      -5.64888442
Ni      13.01287730      19.55004044       5.97559570       0.60000000      -0.14610423       0.42323428      -0.09462230      -5.50814992
Ni      11.19550836      18.01272522       9.43521012       0.60000000       0.11188386      -0.44520074       0.12051919      -5.65765047
Ni      11.25412420      19.54985805      11.25229115       0.60000000      -0.09251865       0.41805065      -0.08517276      -5.51235282
Ni      12.95649020      18.01413992      11.19593005       0.60000000       0.09684598      -0.43555182       0.15037568      -5.64883327
Ni      13.01308760      19.55016683       9.49376226       0.60000000      -0.13596582       0.42927268      -0.07391053      -5.50344199
Ni      11.19708398      18.01391661      12.95513505       0.60000000       0.13832752      -0.43723238       0.17238551      -5.66479361
Ni      11.25614730      19.55268598      14.78203156       0.60000000      -0.15674578       0.31096920       0.02324590      -5.54743552
Ni      12.97233953      18.03120820      14.73457251       0.60000000       0.15379408      -0.32779464       0.33745259      -5.67875195
Ni      13.01699572      19.55272412      13.01571905       0.60000000      -0.17466855       0.34164590      -0.07642515      -5.52460784
Ni      11.20403963      18.02119908      16.51916985       0.60000000       0.11778310      -0.37935135       0.46698275      -5.74669832
Ni      11.22189918      19.57293612      18.42553907       0.60000000      -0.63186955       0.00636856       0.25707388      -5.26690485
Ni      12.96518655      18.03241051      18.28686614       0.60000000      -0.12060762      -0.31817132       0.38596839      -5.49207658
Ni      13.04352960      19.63606743      16.59708878       0.60000000      -0.38586736       0.05998731       0.06578226      -5.62698561
Ni      14.01645960       0.49628303      -0.25503502       0.60000000       0.21067214      -0.10216983      -0.85698199      -5.26783068
Ni      14.02972572       1.94691893       1.67998362       0.60000000      -0.10642887       0.47065547      -0.49927396      -5.74246579
Ni      15.74083794       0.41238294       1.60688779       0.60000000       0.16912606      -0.04091711      -0.46561813      -5.59368730
Ni      15.78186642       1.93691839      -0.18135345       0.60000000      -0.02215520       0.95931160      -1.07186031      -5.11667870
Ni      13.97501973       0.39789781       3.40951720       0.60000000       0.09238161      -0.34536129      -0.08768895      -5.53015780
Ni      14.03041233       1.93461648       5.23321362       0.60000000      -0.16939847       0.43238884      -0.16806419      -5.66113901
Ni      15.73461529       0.40108136       5.17161385       0.60000000       0.11212060      -0.23208615      -0.10895789      -5.52863437
Ni      15.78965016       1.94065923       3.46790182       0.60000000      -0.13701013       0.50109732      -0.29804733      -5.66924727
Ni      13.97271038       0.39700580       6.93439816       0.60000000       0.02835789      -0.41800684       0.05141173      -5.50601494
Ni      14.02980402       1.93378145       8.75185590       0.60000000      -0.17389859       0.43582511      -0.11116202      -5.63961256
Ni      15.72229282       0.39310392       8.68822587       0.60000000      -0.17631926      -0.37957734      -0.14606673      -5.51318377
Ni      15.77979221       1.93103502       6.98797250       0.60000000      -0.34053838       0.34276012      -0.21212751      -5.62426752
Ni      13.97450903       0.39698951      10.45431300       0.60000000       0.03881944      -0.38575351       0.08431210      -5.50604922
Ni      14.04030353       1.92997278      12.28152408       0.60000000      -0.06037020       0.39160782       0.03537976      -5.68076861
Ni      15.72446637       0.37803779      12.20893511       0.60000000      -0.22018364      -0.20380501      -0.18802437      -5.37942787
Ni      15.78030782       1.93532557      10.52009084       0.60000000      -0.31699181       0.44341886      -0.03173055      -5.65440178
Ni      13.97321216       0.37744804      13.97191403       0.60000000      -0.07552211      -0.27630436      -0.00282790      -5.39135192
Ni      14.68983855       2.42786680      14.69858862       0.60000000      -0.04801528       0.24859452       0.24468586      -5.71552676
Ni      16.38416463       0.55272193      14.65470249       0.60000000      -0.48886904      -0.20343429       0.18289077      -5.76438659
Ni      16.42643853       2.42514793      12.93779515       0.60000000      -0.44570053       0.14340474       0.24292374      -5.70755965
Ni      14.64108276       0.56891607      16.43823449       0.60000000      -0.21469571      -0.05760919       0.17068511      -5.74576068
Ni      14.66914351       2.35281738      18.29731484       0.60000000      -0.06075253      -0.06097985       0.89306349      -5.15356681
Ni      16.41942256       0.60677596      18.28827646       0.60000000      -0.29781857      -0.01338206       0.76475632      -5.43126220
Ni      16.40154443       2.34992828      16.47301165       0.60000000      -0.45651633      -0.07556439       0.54591948      -5.75565565
Ni      14.06585850       3.53847544      -0.12685264       0.60000000      -0.24583563       0.49129719      -1.01953864      -5.16539210
Ni      14.07951619       5.28378176       1.71681962       0.60000000      -0.06111979       0.11280759      -0.41990685      -5.77383518
Ni      15.83514354       3.55188299       1.70764976       0.60000000      -0.13397086       0.59462094      -0.53651547      -5.78634107
Ni      15.83519337       5.27740733      -0.11059646       0.60000000      -0.02334878       0.03988400      -0.82631332      -5.12498719
Ni      14.07375708       3.55424299       3.51150345       0.60000000      -0.19111153       0.64953744      -0.28694624      -5.73796517
Ni      14.07905587       5.28587447       5.28190185       0.60000000      -0.06532654       0.15075913      -0.06352384      -5.70850694
Ni      15.82774417       3.54836206       5.27155537       0.60000000      -0.28561953       0.50012112      -0.26751122      -5.71426111
Ni      15.83214180       5.27975215       3.51166404       0.60000000      -0.19213119       0.01938464      -0.25819176      -5.72191077
Ni      14.07387170       3.55452739       7.03607113       0.60000000      -0.19774751       0.62766838      -0.15486264      -5.70795864
Ni      14.07790281       5.28641509       8.80034151       0.60000000      -0.11791691       0.17503010      -0.01447794      -5.70799935
Ni      15.81785324       3.55260512       8.79399885       0.60000000      -0.46431619       0.57076705      -0.16226456      -5.71278632
Ni      15.82229242       5.28360506       7.03960176       0.60000000      -0.36569801       0.10428949      -0.07010658      -5.70721644
Ni      14.07346807       3.55485959      10.55473819       0.60000000      -0.22454616       0.63019156      -0.09155571      -5.72205085
Ni      14.66026465       5.86872418      11.14502870       0.60000000      -0.17456093       0.11728993       0.01354809      -5.70954275
Ni      16.39410280       4.12872442      11.15148181       0.60000000      -0.57136571       0.46407592       0.16166878      -5.71443903
Ni      16.39177451       5.87319881       9.39052512       0.60000000      -0.62992972       0.22455910       0.08656010      -5.72128576
Ni      14.66306440       4.12414566      12.90656360       0.60000000      -0.10445958       0.36764240       0.09870790      -5.71205455
Ni      14.66139182       5.86747597      14.67016857       0.60000000      -0.13791381       0.06501874       0.17658639      -5.72032714
Ni      16.39788960       4.11955263      14.67948521       0.60000000      -0.51374084       0.30155236       0.36403105      -5.72881109
Ni      16.39243964       5.87273481      12.91005682       0.60000000      -0.62922376       0.19837853       0.18127200      -5.71384472
Ni      14.66821342       4.11571311      16.47474747       0.60000000       0.00253915       0.19635576       0.49753237      -5.76378989
Ni      14.66871821       5.87225122      18.29674947       0.60000000      -0.04782892       0.10787029       0.83184022      -5.11472056
Ni      16.40711301       4.11755556      18.31155416       0.60000000      -0.51081049       0.13899767       1.00932682      -5.17157750
Ni      16.39465750       5.87281525      16.47950613       0.60000000      -0.60417914       0.20750099       0.55451530      -5.79250747
Ni      14.07527905       7.03363024      -0.10647628       0.60000000      -0.07809614      -0.03424297      -0.77475858      -5.11470714
Ni      14.07984242       8.79936745       1.71841916       0.60000000      -0.05513514      -0.02352300      -0.37965649      -5.78317654
Ni      15.83085719       7.03444077       1.71338362       0.60000000      -0.20031901      -0.09353434      -0.45954674      -5.77334887
Ni      15.82525241       8.78944288      -0.11271466       0.60000000      -0.22305973      -0.14910103      -0.86302602      -5.12820724
Ni      14.07949664       7.04014801       3.51702210       0.60000000      -0.04928634       0.01191511      -0.15072186      -5.72979671
Ni      14.07837241       8.80045214       5.28269239       0.60000000      -0.10447630       0.00459772      -0.02628180      -5.72884172
Ni      15.82240708       7.03871444       5.28043728       0.60000000      -0.36905012      -0.01452508      -0.08415036      -5.72087258
Ni      15.82226511       8.79831324       3.51516667       0.60000000      -0.38147902      -0.04871045      -0.18744934      -5.73960853
Ni      14.07819874       7.04079600       7.04200433       0.60000000      -0.10400194       0.04305626      -0.00106981      -5.71707201
Ni      14.66031129       9.38660374       7.62796368       0.60000000      -0.17637730       0.01273210       0.01568594      -5.72111660
Ni      16.39244701       7.63066434       7.63202695       0.60000000      -0.59876555       0.10749015       0.08870645      -5.73360246
Ni      16.39265794       9.39072998       5.87270119       0.60000000      -0.59926069       0.08528026       0.08194137      -5.74231482
Ni      14.66022536       7.62648348       9.38644928       0.60000000      -0.17922716       0.03419119       0.01036086      -5.71629900
Ni      14.66007515       9.38651716      11.14504104       0.60000000      -0.18040025       0.01730340       0.01289236      -5.70750469
Ni      16.39174559       7.63144613      11.15008832       0.60000000      -0.63918376       0.14876680       0.13114485      -5.71146941
Ni      16.39181186       9.39158260       9.39145489       0.60000000      -0.63800925       0.13317612       0.13139889      -5.71304047
Ni      14.66013454       7.62635680      12.90422255       0.60000000      -0.17868410       0.02908055       0.04133427      -5.70999312
Ni      14.66120973       9.38703970      14.66981339       0.60000000      -0.15827379       0.02661768       0.15143844      -5.73040295
Ni      16.39211657       7.63241221      14.67464392       0.60000000      -0.65695369       0.15908569       0.26995844      -5.73871684
Ni      16.39256908       9.39216966      12.91004294       0.60000000      -0.63575685       0.14441593       0.16652387      -5.72590441
Ni      14.66225618       7.62694402      16.46898631       0.60000000      -0.13553134       0.03476734       0.40520298      -5.77553457
Ni      14.66834548       9.39382338      18.29628926       0.60000000      -0.08370092       0.06541883       0.81617182      -5.12315086
Ni      16.40841901       7.64102347      18.31222550       0.60000000      -0.46972376       0.22054678       1.02234161      -5.16935061
Ni      16.39608627       9.39460202      16.47915019       0.60000000      -0.57411611       0.20196939       0.55208725      -5.79542470
Ni      14.07674447      10.55665646      -0.10747709       0.60000000      -0.07529147      -0.05261901      -0.78541780      -5.11207600
Ni      14.07726880      12.31927062       1.71886085       0.60000000      -0.09688312      -0.02547756      -0.36693740      -5.78321493
Ni      15.82040490      10.55689857       1.71479523       0.60000000      -0.38919371      -0.05459835      -0.43508899      -5.78148776
Ni      15.81778931      12.31152311      -0.10506025       0.60000000      -0.30932590      -0.04158216      -0.81826222      -5.09493299
Ni      14.07861519      10.56087138       3.51727851       0.60000000      -0.09948932      -0.00217133      -0.13241094      -5.73996896
Ni      14.66144112      12.90668853       4.10858581       0.60000000      -0.15449953      -0.03400810      -0.09743999      -5.72551107
Ni      16.39271525      11.15151199       4.11338294       0.60000000      -0.60145432       0.08336590      -0.00878789      -5.75167114
Ni      16.39958635      12.91003396       2.32374045       0.60000000      -0.50423753       0.04243395      -0.23539706      -5.77675152
Ni      14.66033201      11.14702639       5.86857879       0.60000000      -0.17714754       0.00410680       0.00551439      -5.72460890
Ni      14.66010140      12.90632998       7.62760600       0.60000000      -0.18203053      -0.03210787       0.02267577      -5.69808137
Ni      16.39176612      11.15196284       7.63273383       0.60000000      -0.64017463       0.12406017       0.13860896      -5.71256727
Ni      16.39185907      12.91159223       5.87382319       0.60000000      -0.64302838       0.08474369       0.13330743      -5.70872611
Ni      14.66008295      11.14689813       9.38638923       0.60000000      -0.18102646       0.01055587       0.01574024      -5.70472932
Ni      14.66070163      12.90683704      11.14562464       0.60000000      -0.16622111      -0.01874642       0.02518826      -5.70500320
Ni      16.39227896      11.15251989      11.15076024       0.60000000      -0.63451123       0.13828789       0.14289075      -5.71872622
Ni      16.39213867      12.91189072       9.39210170       0.60000000      -0.63811731       0.09363250       0.14885780      -5.70866066
Ni      14.66073616      11.14734004      12.90464597       0.60000000      -0.16733842       0.01775405       0.04396706      -5.71712011
Ni      14.66127526      12.90685228      14.66922433       0.60000000      -0.16125295      -0.02035291       0.12000676      -5.72457409
Ni      16.39541867      11.15443881      14.67630938       0.60000000      -0.59262669       0.17745961       0.29066634      -5.73905164
Ni      16.39556789      12.91404523      12.91224248       0.60000000      -0.56567073       0.15081207       0.21588454      -5.71698940
Ni      14.66184397      11.14756919      16.46947502       0.60000000      -0.14632051       0.01441131       0.39387739      -5.77810019
Ni      14.66499573      12.91049925      18.28859579       0.60000000      -0.09164292       0.02058475       0.80460912      -5.07990079
Ni      16.40648412      11.15777435      18.30681554       0.60000000      -0.50384200       0.23059011       1.01624310      -5.14413910
Ni      16.39018465      12.90784436      16.46509556       0.60000000      -0.60538483       0.12402663       0.38588804      -5.77479964
Ni      14.07082245      14.07082245      -0.10021429       0.60000000      -0.10185251      -0.10185272      -0.76750195      -5.07330063
Ni      14.65418470      16.39400921       0.54094674       0.60000000      -0.09631751      -0.38700083      -0.32905105      -5.61400092
Ni      16.39400922      14.65418470       0.54094674       0.60000000      -0.38700053      -0.09631759      -0.32905093      -5.61400086
Ni      16.39360443      16.39360441      -1.19065341       0.60000000      -0.21825740      -0.21825750      -0.23484004      -5.59119827
Ni      14.66005746      14.66005746       2.32764616       0.60000000      -0.15372160      -0.15372169      -0.21260498      -5.75009608
Ni      14.66640755      16.39182083       4.11234371       0.60000000      -0.05638009      -0.64923131       0.04788441      -5.70761216
Ni      16.39182081      14.66640756       4.11234371       0.60000000      -0.64923161      -0.05638017       0.04788399      -5.70761210
Ni      16.39910082      16.39910082       2.33213512       0.60000000      -0.38364270      -0.38364285      -0.26447955      -5.72765434
Ni      14.66035836      14.66035837       5.86908299       0.60000000      -0.17618221      -0.17618202       0.03001520      -5.69304061
Ni      14.66594005      16.39189677       7.63377718       0.60000000      -0.06626246      -0.64783037       0.17440465      -5.69635624
Ni      16.39189676      14.66594005       7.63377718       0.60000000      -0.64783031      -0.06626272       0.17440468      -5.69635606
Ni      16.39208954      16.39208954       5.87976514       0.60000000      -0.58455735      -0.58455545       0.27005184      -5.68700564
Ni      14.66074712      14.66074712       9.38740104       0.60000000      -0.16122238      -0.16122204       0.05138735      -5.69325882
Ni      14.66852431      16.39539320      11.15382999       0.60000000       0.01039801      -0.56304187       0.23538491      -5.69883460
Ni      16.39539319      14.66852433      11.15383000       0.60000000      -0.56304151       0.01039800       0.23538533      -5.69883430
Ni      16.39582993      16.39582993       9.40217389       0.60000000      -0.50204837      -0.50204873       0.40086412      -5.68257815
Ni      14.66207932      14.66207931      12.90597478       0.60000000      -0.12074821      -0.12074460       0.08366625      -5.70171028
Ni      14.67244329      16.40059632      14.67998259       0.60000000       0.06610744      -0.51473451       0.33930597      -5.71760762
Ni      16.40059633      14.67244327      14.67998262       0.60000000      -0.51473457       0.06610734       0.33930582      -5.71760732
Ni      16.40767242      16.40767243      12.92632643       0.60000000      -0.36151952      -0.36151922       0.49616861      -5.69142669
Ni      14.65435248      14.65435249      16.45782026       0.60000000      -0.16638575      -0.16638637       0.26288441      -5.76198912
Ni      14.66199076      16.38819773      18.22560014       0.60000000       0.02968588      -0.55584049       0.32314008      -5.44553435
Ni      16.38819771      14.66199078      18.22560016       0.60000000      -0.55584097       0.02968706       0.32314041      -5.44553453
Ni      16.40780470      16.40780470      16.45942553       0.60000000      -0.28423828      -0.28423837       0.47910845      -5.73774791
Ni      14.63859195      18.13579801      -1.20278506       0.60000000       0.11330990      -0.32282937       0.01079753      -5.63915282
Ni      14.73513390      19.57955498       0.66497234       0.60000000      -0.42815110       0.85461318      -0.15422757      -5.54972160
Ni      16.45350133      18.08298392       0.53733749       0.60000000      -0.41850585      -0.15363242      -0.12179308      -5.71215057
Ni      16.34073844      19.86632532      -1.21899210       0.60000000       0.17685351       0.09592710       0.59140021      -5.51282424
Ni      14.70949939      18.00900904       2.38038721       0.60000000      -0.06495795      -0.35329342      -0.19889553      -5.67622679
Ni      14.76665865      19.55209181       4.21673001       0.60000000      -0.30465704       0.49601883      -0.10475291      -5.50887716
Ni      16.43496491      18.01330717       4.15973861       0.60000000      -0.64447677      -0.13157931       0.11261769      -5.62871993
Ni      16.48872780      19.57816526       2.45430964       0.60000000      -0.76481855       0.82952631      -0.04980429      -5.47832757
Ni      14.70926111      18.01234636       5.91809496       0.60000000      -0.09862216      -0.41443849       0.11873416      -5.64140928
Ni      14.76554091      19.55276723       7.73643101       0.60000000      -0.34397855       0.47100461      -0.01308804      -5.49455917
Ni      16.43456990      18.01458645       7.68503178       0.60000000      -0.68713158      -0.17378548       0.35477701      -5.60405815
Ni      16.47838669      19.57910222       5.99762548       0.60000000      -1.05420470       0.79129350       0.49432978      -5.41150992
Ni      14.71035486      18.01391585       9.43796069       0.60000000      -0.09386325      -0.43057474       0.17772128      -5.63199466
Ni      14.76958919      19.55491288      11.25844939       0.60000000      -0.35767937       0.41284603      -0.02354633      -5.51013988
Ni      16.45421568      18.03598037      11.22365140       0.60000000      -0.60489750      -0.07905076       0.48701748      -5.60484064
Ni      16.47695655      19.57135579       9.51686487       0.60000000      -1.17217278       0.58521676       0.43339035      -5.40858544
Ni      14.72667656      18.03377703      12.97190747       0.60000000       0.02467744      -0.29614985       0.29335701      -5.65030092
Ni      14.80542043      19.63957351      14.81506485       0.60000000      -0.43814316       0.14055754      -0.00182653      -5.57459056
Ni      16.47127830      18.07018443      14.74930794       0.60000000      -0.46707505       0.11570996       0.49323571      -5.65381175
Ni      16.51753782      19.65370884      13.07232742       0.60000000      -1.17308331       0.28024584       0.41474211      -5.49153978
Ni      14.72893944      18.05837333      16.51360274       0.60000000      -0.07644223      -0.11379463       0.30656713      -5.72061366
Ni      14.68633299      19.97104824      18.25188822       0.60000000      -0.23894484       0.09344466       0.15017985      -5.58497995
Ni      16.42347649      18.17162112      18.18643582       0.60000000      -0.06509989      -0.19095752       0.12763236      -5.76464391
Ni      16.45365634      19.94845142      16.47717321       0.60000000      -0.32394958      -0.15298858       0.17213839      -5.70213503
Ni      17.52807729       0.53766613      -0.27250364       0.60000000       0.27802658       0.30518836      -1.22219563      -5.34097503
Ni      17.56026581       1.94206373       1.68028826       0.60000000      -0.05318482       0.60778546      -0.64094895      -5.69856554
Ni      19.30454981       0.43274509       1.57133938       0.60000000      -0.08183847      -0.31267428      -0.14211521      -5.47696185
Ni      19.38740526       1.87303801      -0.19182356       0.60000000       0.19834995       0.57570970      -0.88856637      -5.43298697
Ni      17.49917968       0.43755537       3.38040263       0.60000000       0.22946337      -0.06895901      -0.30342001      -5.53005153
Ni      17.56924575       1.93116886       5.22285808       0.60000000       0.04362144       0.58791196      -0.39198196      -5.61087167
Ni      19.30196632       0.41897835       5.12403919       0.60000000      -0.02353449      -0.54161787       0.13528147      -5.45371014
Ni      19.39612879       1.88439424       3.43497144       0.60000000       0.02696219       0.39788520      -0.21594682      -5.65701640
Ni      17.50225921       0.43625697       6.90277326       0.60000000       0.30605018      -0.13030085      -0.26081577      -5.49308306
Ni      17.49561141       1.90087592       8.72239600       0.60000000      -0.02008314       0.51311225      -0.28843611      -5.62681985
Ni      19.32423456       0.41713253       8.65009301       0.60000000       0.18542609      -0.46616358       0.10978864      -5.46733475
Ni      19.41694936       1.90432244       6.98197105       0.60000000       0.13537785       0.55178583      -0.18025732      -5.71794611
Ni      17.42236780       0.39792853      10.39642080       0.60000000      -0.14969566      -0.23117048      -0.41927981      -5.33340557
Ni      18.04575305       2.45090538      11.22321215       0.60000000      -0.51332420       0.01987988       0.28878361      -5.62852824
Ni      19.52954694       0.62231247      11.29564608       0.60000000       0.46574593      -0.18511569      -0.11073237      -5.46907473
Ni      19.54865540       2.52423290       9.54926361       0.60000000       0.23051742       0.14889482       0.41509527      -5.33300687
Ni      18.04222140       0.52972832      12.96418400       0.60000000      -0.55203438      -0.13069621       0.19914000      -5.72282636
Ni      18.01333250       2.37747676      14.72854887       0.60000000      -0.59152293      -0.03527151       0.49316499      -5.62988335
Ni      19.52604856       0.64440940      14.82638612       0.60000000       0.52328742       0.04948543      -0.05869959      -5.46039110
Ni      19.51082360       2.44450332      13.04318732       0.60000000       0.11303970      -0.30600068       0.29356995      -5.49942619
Ni      18.05424392       0.56124406      16.52980618       0.60000000      -0.39849022       0.00602311       0.37090865      -5.68861300
Ni      18.01594354       2.39177428      18.37002599       0.60000000      -0.99688703      -0.01881645       1.27746153      -5.18278076
Ni      19.41498125       0.62520980      18.48091853       0.60000000       0.29005632       0.20808907       0.68433225      -5.35901867
Ni      19.50228343       2.44557028      16.60015128       0.60000000      -0.10643241      -0.27623910       0.57378268      -5.57421839
Ni      17.59467904       3.53163394      -0.12038597       0.60000000       0.07099380       0.30337721      -1.07008481      -5.22914150
Ni      17.59436111       5.28356532       1.72352533       0.60000000       0.02926357       0.09878153      -0.36994448      -5.73709357
Ni      19.35423339       3.53914819       1.71679940       0.60000000       0.01219704       0.33665359      -0.45459050      -5.74091262
Ni      19.33458127       5.27654610      -0.08939578       0.60000000      -0.17367025       0.07264452      -0.58547777      -5.36928491
Ni      17.60563417       3.54663623       3.51119892       0.60000000       0.10919917       0.48212153      -0.30475909      -5.71760666
Ni      17.51903237       5.25728929       5.25429864       0.60000000      -0.23341711       0.05539364      -0.13015172      -5.70280081
Ni      19.39434973       3.56209282       5.29537939       0.60000000       0.22718982       0.47402656      -0.12106498      -5.75890636
Ni      19.38795985       5.30478594       3.53860393       0.60000000       0.12830934       0.21181931      -0.00085739      -5.74298602
Ni      17.52136768       3.52044769       7.00836657       0.60000000      -0.13834286       0.44400990      -0.21660456      -5.70248950
Ni      18.01710067       5.90626370       7.66416006       0.60000000      -0.39339390       0.05973509      -0.02419943      -5.67707890
Ni      19.56859316       4.22188481       7.73745332       0.60000000       0.20699257       0.21909478       0.18989968      -5.37632872
Ni      19.56845384       5.97329384       5.97393456       0.60000000       0.29183739       0.08129419       0.04441243      -5.38404785
Ni      18.01119374       4.16633021       9.42543283       0.60000000      -0.44380289       0.31621331       0.02809294      -5.65368795
Ni      18.01283898       5.91676699      11.19355092       0.60000000      -0.43658426       0.17299639       0.11069012      -5.64163667
Ni      19.55363451       4.22427593      11.25729218       0.60000000       0.37799287       0.17639719       0.14546780      -5.51507807
Ni      19.54965275       5.97217496       9.49120052       0.60000000       0.38599101      -0.03901999      -0.08866301      -5.50557375
Ni      18.01544628       4.16663604      12.95822630       0.60000000      -0.34142268       0.34552938       0.24157658      -5.63135546
Ni      18.00930739       5.91650425      14.71872432       0.60000000      -0.42911243       0.15081644       0.28804475      -5.68097341
Ni      19.54456250       4.20999122      14.78103264       0.60000000       0.19606513      -0.11209229       0.21560162      -5.54175586
Ni      19.55019024       5.97378226      13.01137809       0.60000000       0.40058115      -0.03306454      -0.01217930      -5.51263374
Ni      17.99720162       4.15681537      16.50545963       0.60000000      -0.52192867       0.13521904       0.49831271      -5.72433126
Ni      18.01410948       5.91825243      18.36845188       0.60000000      -0.87300110      -0.05926701       1.08092630      -5.11867782
Ni      19.44763746       4.17207968      18.43804898       0.60000000       0.06900174      -0.20195785       0.91076803      -5.28335454
Ni      19.53886665       5.96407675      16.57663839       0.60000000       0.17319292      -0.19040793       0.37453002      -5.58804190
Ni      17.59364197       7.03395074      -0.10771104       0.60000000       0.04485518       0.00750780      -0.84391123      -5.15499254
Ni      17.50954083       8.77246100       1.69558696       0.60000000      -0.30552813      -0.07108713      -0.45954180      -5.76273739
Ni      19.37682737       7.06228878       1.74902610       0.60000000       0.03164761       0.14591013      -0.13877235      -5.75400651
Ni      19.37236901       8.82724380      -0.06599557       0.60000000       0.03995749       0.12673336      -0.42820558      -5.36837523
Ni      17.51847736       7.01267217       3.48854178       0.60000000      -0.27825522      -0.05266722      -0.21929346      -5.72626150
Ni      18.01715069       9.42421877       4.14555410       0.60000000      -0.38149667      -0.01854686      -0.09239240      -5.70956475
Ni      19.56934787       7.73261600       4.21433724       0.60000000       0.28276074       0.02916803      -0.01322285      -5.40407069
Ni      19.56524202       9.49017475       2.44004648       0.60000000       0.23644830      -0.02559086      -0.06533659      -5.44087011
Ni      18.01792432       7.66339287       5.90539064       0.60000000      -0.39705163      -0.00085733      -0.02821615      -5.69492191
Ni      18.01330923       9.43446873       7.67570298       0.60000000      -0.45197809       0.09514145       0.09789316      -5.65389818
Ni      19.54953007       7.73053343       7.73182802       0.60000000       0.37540695      -0.09563452      -0.10382521      -5.51466089
Ni      19.54974722       9.49124543       5.97328745       0.60000000       0.37338164      -0.10815041      -0.10753125      -5.52202463
Ni      18.01328974       7.67445671       9.43435914       0.60000000      -0.45005715       0.11089900       0.09138528      -5.64923733
Ni      18.01266138       9.43517284      11.19376913       0.60000000      -0.44624177       0.12295090       0.11802734      -5.66117644
Ni      19.54982043       7.73288388      11.25154246       0.60000000       0.41447949      -0.08016282      -0.09347380      -5.51042479
Ni      19.54976036       9.49311953       9.49284878       0.60000000       0.41581947      -0.09379185      -0.09609655      -5.51179439
Ni      18.01240882       7.67494856      12.95303479       0.60000000      -0.44474563       0.13590415       0.15059823      -5.66575897
Ni      18.01105985       9.43730868      14.72024432       0.60000000      -0.43674064       0.11716218       0.28229642      -5.68732440
Ni      19.54971282       7.73152883      14.77663023       0.60000000       0.37202173      -0.09566408       0.06866072      -5.53366202
Ni      19.55027725       9.49373468      13.01111426       0.60000000       0.39966798      -0.08782967      -0.05034642      -5.52009177
Ni      18.00067347       7.67635734      16.50643052       0.60000000      -0.45789987       0.09387410       0.49984497      -5.74682283
Ni      18.02920976       9.45925335      18.37117706       0.60000000      -0.71707833       0.12603278       1.11323214      -5.13149782
Ni      19.45106079       7.68984514      18.44082805       0.60000000       0.10295328      -0.23149714       0.84691411      -5.27440192
Ni      19.54617726       9.48524449      16.57839512       0.60000000       0.21630558      -0.29853392       0.26634640      -5.61193883
Ni      17.51223107      10.52884108      -0.14488693       0.60000000      -0.30912891      -0.09595582      -1.09219313      -5.17318259
Ni      18.06166955      12.93616979       0.51418730       0.60000000      -0.50478435      -0.26801997      -0.18262997      -5.60409647
Ni      19.57403627      11.22081172       0.66217671       0.60000000       0.30350944      -0.33836728      -0.10476036      -5.32107647
Ni      19.83526721      12.84608912      -1.15237155       0.60000000      -0.07066143       0.25030598       0.52623808      -5.40180276
Ni      18.01151732      11.18589723       2.37029579       0.60000000      -0.34436622      -0.02650048      -0.22212775      -5.73890555
Ni      18.01075403      12.95581046       4.15588740       0.60000000      -0.44794869       0.04516654       0.01890327      -5.66141331
Ni      19.54873538      11.25185065       4.21243772       0.60000000       0.35771537      -0.12549442      -0.15805963      -5.53080755
Ni      19.54587550      13.00773468       2.44234946       0.60000000       0.34227332      -0.23413852      -0.27122718      -5.54848260
Ni      18.01262453      11.19504841       5.91730281       0.60000000      -0.44769990       0.08907170       0.08985417      -5.65721184
Ni      18.01277185      12.95475098       7.67653809       0.60000000      -0.44157872       0.06652055       0.12627897      -5.64888430
Ni      19.54978636      11.25354845       7.73425011       0.60000000       0.41842297      -0.10275228      -0.08943450      -5.51108336
Ni      19.55004042      13.01287729       5.97559567       0.60000000       0.42323387      -0.14610319      -0.09462258      -5.50814998
Ni      18.01272522      11.19550834       9.43521011       0.60000000      -0.44520071       0.11188303       0.12051794      -5.65764999
Ni      18.01413994      12.95649019      11.19593010       0.60000000      -0.43555474       0.09684584       0.15037960      -5.64883250
Ni      19.54985804      11.25412417      11.25229114       0.60000000       0.41805193      -0.09251858      -0.08517326      -5.51235253
Ni      19.55016683      13.01308764       9.49376226       0.60000000       0.42927182      -0.13596393      -0.07391016      -5.50344199
Ni      18.01391659      11.19708398      12.95513508       0.60000000      -0.43723500       0.13833120       0.17238554      -5.66479373
Ni      18.03120820      12.97233954      14.73457248       0.60000000      -0.32779604       0.15379390       0.33745009      -5.67875218
Ni      19.55268593      11.25614731      14.78203157       0.60000000       0.31096897      -0.15674594       0.02324561      -5.54743552
Ni      19.55272408      13.01699576      13.01571902       0.60000000       0.34164578      -0.17466834      -0.07642472      -5.52460778
Ni      18.02119909      11.20403961      16.51916988       0.60000000      -0.37935150       0.11778335       0.46698296      -5.74669826
Ni      18.03241053      12.96518653      18.28686612       0.60000000      -0.31817096      -0.12060834       0.38596916      -5.49207652
Ni      19.57293617      11.22189915      18.42553905       0.60000000       0.00636871      -0.63186955       0.25707385      -5.26690476
Ni      19.63606742      13.04352961      16.59708877       0.60000000       0.05998777      -0.38586694       0.06578104      -5.62698585
Ni      18.13579800      14.63859196      -1.20278504       0.60000000      -0.32282943       0.11330980       0.01079747      -5.63915277
Ni      18.08298392      16.45350135       0.53733749       0.60000000      -0.15363264      -0.41850638      -0.12179293      -5.71215045
Ni      19.57955500      14.73513391       0.66497233       0.60000000       0.85461289      -0.42815071      -0.15422717      -5.54972166
Ni      19.86632532      16.34073845      -1.21899210       0.60000000       0.09592671       0.17685382       0.59140009      -5.51282394
Ni      18.00900904      14.70949941       2.38038722       0.60000000      -0.35329342      -0.06495821      -0.19889575      -5.67622674
Ni      18.01330715      16.43496490       4.15973860       0.60000000      -0.13158014      -0.64447713       0.11261784      -5.62872034
Ni      19.55209186      14.76665866       4.21672998       0.60000000       0.49601883      -0.30465707      -0.10475285      -5.50887722
Ni      19.57816524      16.48872780       2.45430962       0.60000000       0.82952702      -0.76481855      -0.04980475      -5.47832763
Ni      18.01234635      14.70926108       5.91809497       0.60000000      -0.41443634      -0.09862357       0.11873433      -5.64140934
Ni      18.01458646      16.43456991       7.68503179       0.60000000      -0.17378560      -0.68713170       0.35477656      -5.60405815
Ni      19.55276730      14.76554089       7.73643100       0.60000000       0.47100571      -0.34397736      -0.01308826      -5.49455911
Ni      19.57910234      16.47838669       5.99762548       0.60000000       0.79129326      -1.05420518       0.49432969      -5.41151018
Ni      18.01391586      14.71035486       9.43796068       0.60000000      -0.43057454      -0.09386438       0.17772138      -5.63199508
Ni      18.03598035      16.45421569      11.22365139       0.60000000      -0.07905123      -0.60489762       0.48701754      -5.60484064
Ni      19.55491290      14.76958914      11.25844942       0.60000000       0.41284639      -0.35767987      -0.02354655      -5.51013988
Ni      19.57135578      16.47695653       9.51686487       0.60000000       0.58521718      -1.17217326       0.43338987      -5.40858532
Ni      18.03377705      14.72667654      12.97190745       0.60000000      -0.29615161       0.02467501       0.29335704      -5.65030032
Ni      18.07018444      16.47127829      14.74930791       0.60000000       0.11571009      -0.46707553       0.49323601      -5.65381193
Ni      19.63957349      14.80542043      14.81506486       0.60000000       0.14055786      -0.43814319      -0.00182688      -5.57459027
Ni      19.65370883      16.51753783      13.07232746       0.60000000       0.28024527      -1.17308307       0.41474253      -5.49153924
Ni      18.05837334      14.72893944      16.51360273       0.60000000      -0.11379398      -0.07644193       0.30656707      -5.72061396
Ni      18.17162112      16.42347649      18.18643582       0.60000000      -0.19095743      -0.06509942       0.12763242      -5.76464432
Ni      19.97104825      14.68633296      18.25188821       0.60000000       0.09344466      -0.23894481       0.15017980      -5.58497995
Ni      19.94845143      16.45365633      16.47717319       0.60000000      -0.15298912      -0.32394943       0.17213842      -5.70213509
Ni      18.16032161      18.16032160      -1.21844981       0.60000000      -0.15259120      -0.15259148       0.11953197      -5.75075459
Ni      18.11778279      19.71200352       0.66902194       0.60000000      -0.02992602       0.26343337      -0.05371089      -5.48769861
Ni      19.71200348      18.11778279       0.66902194       0.60000000       0.26343459      -0.02992621      -0.05371163      -5.48769873
Ni      19.85249846      19.85249845      -1.22901378       0.60000000      -0.06209925      -0.06209904       0.64200497      -5.36980288
Ni      18.06183493      18.06183491       2.40994691       0.60000000       0.02984908       0.02984927      -0.05342340      -5.57066983
Ni      18.04227863      19.67845601       4.34801729       0.60000000       0.29541031      -0.08893847       0.04127175      -5.41011934
Ni      19.67845600      18.04227860       4.34801732       0.60000000      -0.08893727       0.29540998       0.04127271      -5.41011976
Ni      19.67116354      19.67116370       2.72471549       0.60000000      -0.16093236      -0.16093373      -0.17102006      -5.28602742
Ni      18.04578646      18.04578650       5.97417222       0.60000000      -0.11789732      -0.11789854       0.53059655      -5.51760548
Ni      18.04207778      19.68272111       7.87524919       0.60000000       0.35886055      -0.09355648       0.17625174      -5.38585176
Ni      19.68272106      18.04207776       7.87524921       0.60000000      -0.09355518       0.35886061       0.17625055      -5.38585143
Ni      19.65437009      19.65437007       6.24493840       0.60000000      -0.29994783      -0.29994801       0.05214082      -5.25003874
Ni      18.05944691      18.05944690       9.51150159       0.60000000       0.03109089       0.03109241       0.53064346      -5.49694163
Ni      18.07633916      19.73396010      11.41831024       0.60000000       0.15806168      -0.31509727      -0.04129504      -5.49835223
Ni      19.73396009      18.07633915      11.41831025       0.60000000      -0.31509650       0.15806183      -0.04129451      -5.49835235
Ni      19.69410968      19.69410970       9.80886608       0.60000000      -0.13840276      -0.13840275       0.17483565      -5.42882574
Ni      18.11652796      18.11652798      13.04996196       0.60000000      -0.07838578      -0.07838544       0.40444791      -5.58303720
Ni      18.18300729      19.90453415      14.71340481       0.60000000      -0.37539613      -0.21809383       0.28707725      -5.67609650
Ni      19.90453415      18.18300729      14.71340481       0.60000000      -0.21809389      -0.37539646       0.28707692      -5.67609626
Ni      19.88600782      19.88600781      12.96154044       0.60000000      -0.02587553      -0.02587544       0.21411009      -5.58166796
Ni      18.17767184      18.17767184      16.45010037       0.60000000      -0.10894819      -0.10894810       0.38455203      -5.73132777
Ni      18.14030182      19.90840625      18.20797345       0.60000000      -0.37840444      -0.50252950       0.12062848      -5.63611639
Ni      19.90840625      18.14030184      18.20797346       0.60000000      -0.50253028      -0.37840524       0.12062861      -5.63611639
Ni      19.86583007      19.86583008      16.42113496       0.60000000       0.16517405       0.16517423       0.45624173      -5.60313022
