6912
Lattice="42.288 0.0 0.0 0.0 42.288 0.0 0.0 0.0 42.288" Properties=species:S:1:pos:R:3:initial_magmoms:R:1:energies:R:1:forces:R:3 energy=-50.59109387437107 free_energy=-50.59109387437107 stress="0.03276840218513456 -3.3222867594663025e-06 -3.322286759470827e-06 -3.3222867594663025e-06 0.03276840218513451 -3.322286759473799e-06 -3.322286759470827e-06 -3.322286759473799e-06 0.032768402185134556" pbc="T T T"
Ni      -0.00336587      -0.00336587      -0.00336587       0.60000000      -0.00746747       0.03201733       0.03201733       0.03201733
Ni      -0.00410343       1.75841442       1.75841442       0.60000000      -0.00937985       0.06512642      -0.01336929      -0.01336929
Ni       1.75841442      -0.00410343       1.75841442       0.60000000      -0.00937985      -0.01336929       0.06512642      -0.01336929
Ni       1.75841442       1.75841442      -0.00410343       0.60000000      -0.00937985      -0.01336929      -0.01336929       0.06512642
Ni      -0.00407769      -0.00407769       3.52097337       0.60000000      -0.00721944       0.05211339       0.05211339      -0.02065622
Ni      -0.00498985       1.75760647       5.28290207       0.60000000      -0.00848117       0.07721452      -0.01559787      -0.01238843
Ni       1.75760647      -0.00498985       5.28290207       0.60000000      -0.00848117      -0.01559787       0.07721452      -0.01238843
Ni       1.75754436       1.75754436       3.52018912       0.60000000      -0.00993897      -0.00417897      -0.00417897      -0.00011359
Ni      -0.00487982      -0.00487982       7.04562714       0.60000000      -0.00707955       0.06153590       0.06153590      -0.02506955
Ni      -0.00596077       1.75670263       8.80779971       0.60000000      -0.00856925       0.08910533      -0.01761339      -0.01508105
Ni       1.75670263      -0.00596077       8.80779971       0.60000000      -0.00856925      -0.01761339       0.08910533      -0.01508105
Ni       1.75652179       1.75652179       7.04489503       0.60000000      -0.01033223      -0.00480806      -0.00480806      -0.00024569
Ni      -0.00571246      -0.00571246      10.57065598       0.60000000      -0.00692373       0.07131369       0.07131369      -0.02967489
Ni      -0.00691492       1.75579043      12.33315928       0.60000000      -0.00864491       0.09876481      -0.01908165      -0.01771017
Ni       1.75579043      -0.00691492      12.33315928       0.60000000      -0.00864491      -0.01908165       0.09876481      -0.01771017
Ni       1.75542234       1.75542234      10.57014256       0.60000000      -0.01069776      -0.00534234      -0.00534234      -0.00046198
Ni      -0.00647769      -0.00647769      14.09604265       0.60000000      -0.00677569       0.08039274       0.08039274      -0.03381782
Ni      -0.00771213       1.75499933      15.85890198       0.60000000      -0.00870697       0.10394884      -0.01965284      -0.01981694
Ni       1.75499933      -0.00771213      15.85890198       0.60000000      -0.00870697      -0.01965284       0.10394884      -0.01981694
Ni       1.75439323       1.75439323      14.09594983       0.60000000      -0.01097370      -0.00571421      -0.00571421      -0.00063953
Ni      -0.00706408      -0.00706408      17.62164997       0.60000000      -0.00667123       0.08726911       0.08726911      -0.03669040
Ni      -0.00822346       1.75445664      19.38478712       0.60000000      -0.00875178       0.10307917      -0.01906652      -0.02087108
Ni       1.75445664      -0.00822346      19.38478712       0.60000000      -0.00875178      -0.01906652       0.10307917      -0.02087108
Ni       1.75361119       1.75361119      17.62212174       0.60000000      -0.01110123      -0.00591154      -0.00591154      -0.00073782
Ni      -0.00738609      -0.00738609      21.14724140       0.60000000      -0.00664264       0.09044377       0.09044377      -0.03751116
Ni      -0.00838068       1.75423891      22.91049220       0.60000000      -0.00876950       0.09624287      -0.01724805      -0.02048232
Ni       1.75423891      -0.00838068      22.91049220       0.60000000      -0.00876950      -0.01724805       0.09624287      -0.02048232
Ni       1.75320572       1.75320572      21.14827066       0.60000000      -0.01104915      -0.00594286      -0.00594286      -0.00071783
Ni      -0.00741072      -0.00741072      24.67257245       0.60000000      -0.00670041       0.08920051       0.08920051      -0.03588550
Ni      -0.00818910       1.75435426      26.43575759       0.60000000      -0.00874990       0.08536115      -0.01441450      -0.01863066
Ni       1.75435426      -0.00818910      26.43575759       0.60000000      -0.00874990      -0.01441450       0.08536115      -0.01863066
Ni       1.75321446       1.75321446      24.67399828       0.60000000      -0.01083184      -0.00578186      -0.00578186      -0.00056009
Ni      -0.00715814      -0.00715814      28.19748697       0.60000000      -0.00682708       0.08401778       0.08401778      -0.03203376
Ni      -0.00770898       1.75475493      29.96047893       0.60000000      -0.00869241       0.07317982      -0.01107974      -0.01569324
Ni       1.75475493      -0.00770898      29.96047893       0.60000000      -0.00869241      -0.01107974       0.07317982      -0.01569324
Ni       1.75359349       1.75359349      28.19907954       0.60000000      -0.01050576      -0.00540993      -0.00540993      -0.00031004
Ni      -0.00668560      -0.00668560      31.72195326       0.60000000      -0.00698797       0.07621372       0.07621372      -0.02670170
Ni      -0.00702840       1.75536120      33.48470045       0.60000000      -0.00860633       0.06183480      -0.00784275      -0.01226933
Ni       1.75536120      -0.00702840      33.48470045       0.60000000      -0.00860633      -0.00784275       0.06183480      -0.01226933
Ni       1.75425058       1.75425058      31.72350789       0.60000000      -0.01014326      -0.00486454      -0.00486454      -0.00005569
Ni      -0.00606747      -0.00606747      35.24603691       0.60000000      -0.00714780       0.06722981       0.06722981      -0.02086433
Ni      -0.00624006       1.75608438      37.00854969       0.60000000      -0.00850502       0.05218651      -0.00512611      -0.00889508
Ni       1.75608438      -0.00624006      37.00854969       0.60000000      -0.00850502      -0.00512611       0.05218651      -0.00889508
Ni       1.75507637       1.75507637      35.24742346       0.60000000      -0.00979355      -0.00422560      -0.00422560       0.00012922
Ni      -0.00537809      -0.00537809      38.76984793       0.60000000      -0.00822143       0.05820220       0.05820220      -0.01216206
Ni      -0.00542485       1.75684458      40.53216964       0.60000000      -0.00818315       0.04957045      -0.00037267      -0.06477845
Ni       1.75684458      -0.00542485      40.53216964       0.60000000      -0.00818315      -0.00037267       0.04957045      -0.06477845
Ni       1.75596807       1.75596807      38.77101280       0.60000000      -0.01055253      -0.00350746      -0.00350746       0.00388924
Ni      -0.00407769       3.52097337      -0.00407769       0.60000000      -0.00721944       0.05211339      -0.02065622       0.05211339
Ni      -0.00498985       5.28290207       1.75760647       0.60000000      -0.00848117       0.07721452      -0.01238843      -0.01559787
Ni       1.75754436       3.52018912       1.75754436       0.60000000      -0.00993897      -0.00417897      -0.00011359      -0.00417897
Ni       1.75760647       5.28290207      -0.00498985       0.60000000      -0.00848117      -0.01559787      -0.01238843       0.07721452
Ni      -0.00502778       3.52021256       3.52021256       0.60000000      -0.00730561       0.07803773      -0.01217286      -0.01217286
Ni      -0.00617799       5.28205129       5.28205129       0.60000000      -0.00718219       0.09387605      -0.01472703      -0.01472703
Ni       1.75642573       3.51918764       5.28199960       0.60000000      -0.00892065      -0.00499539      -0.00013631      -0.00019073
Ni       1.75642573       5.28199960       3.51918764       0.60000000      -0.00892065      -0.00499539      -0.00019073      -0.00013631
Ni      -0.00612198       3.51929888       7.04490803       0.60000000      -0.00719462       0.09261711      -0.01406326      -0.01509779
Ni      -0.00750517       5.28102402       8.80703352       0.60000000      -0.00703069       0.11103663      -0.01681187      -0.01830206
Ni       1.75514647       3.51801289       8.80701884       0.60000000      -0.00912406      -0.00573861      -0.00008455      -0.00044991
Ni       1.75499752       5.28085096       7.04388441       0.60000000      -0.00913237      -0.00596446      -0.00017486      -0.00033217
Ni      -0.00727050       3.51828883      10.57013202       0.60000000      -0.00707865       0.10611617      -0.01555061      -0.01825092
Ni      -0.00881385       5.27990752      12.33267981       0.60000000      -0.00688301       0.12568938      -0.01817442      -0.02188299
Ni       1.75385183       3.51678511      12.33274162       0.60000000      -0.00930567      -0.00630889       0.00000262      -0.00066412
Ni       1.75343518       5.27951213      10.56934701       0.60000000      -0.00931248      -0.00689489      -0.00011017      -0.00063164
Ni      -0.00831373       3.51730709      14.09590114       0.60000000      -0.00698546       0.11577034      -0.01626933      -0.02110991
Ni      -0.00987487       5.27887243      15.85892210       0.60000000      -0.00678719       0.13407963      -0.01834539      -0.02480427
Ni       1.75276786       3.51570944      15.85909544       0.60000000      -0.00944247      -0.00664068       0.00006340      -0.00077186
Ni       1.75199165       5.27816782      14.09568776       0.60000000      -0.00947066      -0.00752090      -0.00000007      -0.00083905
Ni      -0.00907074       3.51651634      17.62202752       0.60000000      -0.00694972       0.11883913      -0.01592057      -0.02304086
Ni      -0.01048748       5.27811090      19.38540773       0.60000000      -0.00678579       0.13328136      -0.01705183      -0.02623728
Ni       1.75210147       3.51499004      19.38569479       0.60000000      -0.00949824      -0.00680093      -0.00004018      -0.00075705
Ni       1.75097144       5.27708561      17.62264563       0.60000000      -0.00959611      -0.00781595       0.00004745      -0.00094274
Ni      -0.00941841       3.51605005      21.14813793       0.60000000      -0.00698849       0.11410744      -0.01437040      -0.02341552
Ni      -0.01057167       5.27775009      22.91162985       0.60000000      -0.00688097       0.12322411      -0.01431924      -0.02553913
Ni       1.75194395       3.51473544      22.91199218       0.60000000      -0.00944555      -0.00681287      -0.00034702      -0.00061302
Ni       1.75056136       5.27647616      21.14957869       0.60000000      -0.00962470      -0.00793878      -0.00014851      -0.00090630
Ni      -0.00933256       3.51596413      24.67384547       0.60000000      -0.00708624       0.10290659      -0.01172494      -0.02195453
Ni      -0.01017177       5.27781618      26.43719532       0.60000000      -0.00703135       0.10717136      -0.01054044      -0.02271250
Ni       1.75226419       3.51493967      26.43757687       0.60000000      -0.00929741      -0.00658631      -0.00070666      -0.00035731
Ni       1.75076510       5.27640737      24.67583082       0.60000000      -0.00949721      -0.00794810      -0.00052443      -0.00064917
Ni      -0.00887142       3.51623558      28.19892694       0.60000000      -0.00720784       0.08854350      -0.00841257      -0.01893045
Ni      -0.00940452       5.27825134      29.96197854       0.60000000      -0.00718831       0.08979601      -0.00646796      -0.01842230
Ni       1.75295688       3.51551785      29.96233278       0.60000000      -0.00909268      -0.00610664      -0.00094597      -0.00003246
Ni       1.75146518       5.27682426      28.20108439       0.60000000      -0.00921556      -0.00784786      -0.00083848      -0.00027702
Ni      -0.00813762       3.51678762      31.72337020       0.60000000      -0.00732329       0.07437335      -0.00508068      -0.01501591
Ni      -0.00840995       5.27894913      33.48608619       0.60000000      -0.00732240       0.07440492      -0.00289555      -0.01363872
Ni       1.75388829       3.51634759      33.48638751       0.60000000      -0.00888814      -0.00540827      -0.00097630       0.00024113
Ni       1.75249801       5.27760139      31.72539846       0.60000000      -0.00892263      -0.00733540      -0.00096363       0.00009544
Ni      -0.00724558       3.51751927      35.24730776       0.60000000      -0.00741660       0.06219143      -0.00228525      -0.01099439
Ni      -0.00731998       5.27978946      37.00973285       0.60000000      -0.00742436       0.06189250      -0.00027654      -0.00918920
Ni       1.75492776       3.51730198      37.00997444       0.60000000      -0.00872692      -0.00454421      -0.00081351       0.00047403
Ni       1.75369884       5.27858840      35.24904254       0.60000000      -0.00872900      -0.00630281      -0.00087807       0.00035043
Ni      -0.00629909       3.51833078      38.77092013       0.60000000      -0.00857407       0.05225342      -0.00016106      -0.00374290
Ni      -0.00624006       5.28066600      40.53313132       0.60000000      -0.00719743       0.05721674       0.00608151      -0.07479970
Ni       1.75596807       3.51827323      40.53331796       0.60000000      -0.00839999      -0.00227863       0.00229787      -0.06457867
Ni       1.75492776       5.27964538      38.77231785       0.60000000      -0.01000101      -0.00450121      -0.00059647       0.00482843
Ni      -0.00487982       7.04562714      -0.00487982       0.60000000      -0.00707955       0.06153590      -0.02506955       0.06153590
Ni      -0.00596077       8.80779971       1.75670263       0.60000000      -0.00856925       0.08910533      -0.01508105      -0.01761339
Ni       1.75652179       7.04489503       1.75652179       0.60000000      -0.01033223      -0.00480806      -0.00024569      -0.00480806
Ni       1.75670263       8.80779971      -0.00596077       0.60000000      -0.00856925      -0.01761339      -0.01508105       0.08910533
Ni      -0.00612198       7.04490803       3.51929888       0.60000000      -0.00719462       0.09261711      -0.01509779      -0.01406326
Ni      -0.00750517       8.80703352       5.28102402       0.60000000      -0.00703069       0.11103663      -0.01830206      -0.01681187
Ni       1.75499752       7.04388441       5.28085096       0.60000000      -0.00913237      -0.00596446      -0.00033217      -0.00017486
Ni       1.75514647       8.80701884       3.51801289       0.60000000      -0.00912406      -0.00573861      -0.00044991      -0.00008455
Ni      -0.00758746       7.04396371       7.04396371       0.60000000      -0.00701431       0.11276298      -0.01779939      -0.01779939
Ni      -0.00926886       8.80599301       8.80599301       0.60000000      -0.00678769       0.13467506      -0.02124480      -0.02124480
Ni       1.75320590       7.04257540       8.80590174       0.60000000      -0.00936726      -0.00700585      -0.00034542      -0.00054038
Ni       1.75320590       8.80590174       7.04257540       0.60000000      -0.00936726      -0.00700585      -0.00054038      -0.00034542
Ni      -0.00914984       7.04281652      10.56933018       0.60000000      -0.00681293       0.13233258      -0.01993378      -0.02192817
Ni      -0.01102527       8.80471724      12.33184775       0.60000000      -0.00653649       0.15586476      -0.02307603      -0.02574005
Ni       1.75137714       7.04106653      12.33197012       0.60000000      -0.00955591      -0.00788430      -0.00027964      -0.00084993
Ni       1.75103178       8.80442094      10.56812900       0.60000000      -0.00964907      -0.00788356      -0.00058825      -0.00078954
Ni      -0.01055799       7.04159595      14.09549158       0.60000000      -0.00664068       0.14705615      -0.02083547      -0.02575010
Ni      -0.01241808       8.80339128      15.85858007       0.60000000      -0.00636206       0.16871684      -0.02293333      -0.02941003
Ni       1.74990174       7.03962665      15.85905166       0.60000000      -0.00972767      -0.00838776      -0.00014354      -0.00101805
Ni       1.74903116       8.80273700      14.09496941       0.60000000      -0.00988658      -0.00845518      -0.00050900      -0.00105103
Ni      -0.01152197       7.04052495      17.62222259       0.60000000      -0.00656696       0.15225764      -0.01998148      -0.02835500
Ni      -0.01313866       8.80229616      19.38573256       0.60000000      -0.00634803       0.16826523      -0.02039581      -0.03109921
Ni       1.74911682       7.03857804      19.38657161       0.60000000      -0.00984550      -0.00867184      -0.00013366      -0.00110031
Ni       1.74771700       8.80121859      17.62282448       0.60000000      -0.01009270      -0.00882626      -0.00035196      -0.00120319
Ni      -0.01186636       7.03981773      21.14896787       0.60000000      -0.00662969       0.14563874      -0.01726411      -0.02875867
Ni      -0.01309500       8.80166195      22.91256453       0.60000000      -0.00650259       0.15424873      -0.01577949      -0.02984350
Ni       1.74911248       7.03811451      22.91363329       0.60000000      -0.00977996      -0.00898218      -0.00039746      -0.00095485
Ni       1.74735969       8.80023019      21.15072157       0.60000000      -0.01011625      -0.00948033      -0.00036614      -0.00120459
Ni      -0.01159394       7.03958449      24.67513627       0.60000000      -0.00679765       0.12934196      -0.01305160      -0.02651048
Ni      -0.01239791       8.80157300      26.43849692       0.60000000      -0.00674744       0.13194177      -0.01002802      -0.02568684
Ni       1.74976995       7.03825341      26.43960112       0.60000000      -0.00953156      -0.00906871      -0.00073499      -0.00054963
Ni       1.74788533       8.79993553      24.67762864       0.60000000      -0.00989966      -0.01009791      -0.00060557      -0.00087685
Ni      -0.01082978       7.03981508      28.20041142       0.60000000      -0.00700110       0.10891294      -0.00816970      -0.02209974
Ni      -0.01124961       8.80197409      29.96336725       0.60000000      -0.00699612       0.10862737      -0.00442956      -0.01973238
Ni       1.75088775       7.03888864      29.96436007       0.60000000      -0.00916428      -0.00884668      -0.00091036      -0.00009061
Ni       1.74904952       8.80029517      28.20309226       0.60000000      -0.00956720      -0.01001791      -0.00083221      -0.00031802
Ni      -0.00974401       7.04041301      31.72481382       0.60000000      -0.00718747       0.08966357      -0.00365989      -0.01662936
Ni      -0.00986059       8.80272487      33.48735954       0.60000000      -0.00720200       0.08881953      -0.00007124      -0.01347879
Ni       1.75225763       7.03985310      33.48817307       0.60000000      -0.00887086      -0.00794399      -0.00089365       0.00030231
Ni       1.75058490       8.80114469      31.72726470       0.60000000      -0.00917463      -0.00941176      -0.00086992       0.00018922
Ni      -0.00850336       7.04124175      35.24857066       0.60000000      -0.00733304       0.07388116      -0.00025948      -0.01130858
Ni      -0.00840995       8.80366017      37.01079724       0.60000000      -0.00735261       0.07311855       0.00265004      -0.00810718
Ni       1.75369884       7.04097092      37.01142507       0.60000000      -0.00876101      -0.00633272      -0.00071340       0.00064844
Ni       1.75225763       8.80227286      35.25059283       0.60000000      -0.00891851      -0.00798340      -0.00074667       0.00054074
Ni      -0.00724558       7.04216594      38.77195443       0.60000000      -0.00870056       0.06136279       0.00198986      -0.00263471
Ni      -0.00702840       8.80463602      40.53397527       0.60000000      -0.00707029       0.06570993       0.01162488      -0.08354496
Ni       1.75507637       7.04209602      40.53444311       0.60000000      -0.00849975      -0.00435306       0.00484385      -0.07542309
Ni       1.75388829       8.80348405      38.77352397       0.60000000      -0.01038773      -0.00554609      -0.00046510       0.00570449
Ni      -0.00571246      10.57065598      -0.00571246       0.60000000      -0.00692373       0.07131369      -0.02967489       0.07131369
Ni      -0.00691492      12.33315928       1.75579043       0.60000000      -0.00864491       0.09876481      -0.01771017      -0.01908165
Ni       1.75542234      10.57014256       1.75542234       0.60000000      -0.01069776      -0.00534234      -0.00046198      -0.00534234
Ni       1.75579043      12.33315928      -0.00691492       0.60000000      -0.00864491      -0.01908165      -0.01771017       0.09876481
Ni      -0.00727050      10.57013202       3.51828883       0.60000000      -0.00707865       0.10611617      -0.01825092      -0.01555061
Ni      -0.00881385      12.33267981       5.27990752       0.60000000      -0.00688301       0.12568938      -0.02188299      -0.01817442
Ni       1.75343518      10.56934701       5.27951213       0.60000000      -0.00931248      -0.00689489      -0.00063164      -0.00011017
Ni       1.75385183      12.33274162       3.51678511       0.60000000      -0.00930567      -0.00630889      -0.00066412       0.00000262
Ni      -0.00914984      10.56933018       7.04281652       0.60000000      -0.00681293       0.13233258      -0.02192817      -0.01993378
Ni      -0.01102527      12.33184775       8.80471724       0.60000000      -0.00653649       0.15586476      -0.02574005      -0.02307603
Ni       1.75103178      10.56812900       8.80442094       0.60000000      -0.00964907      -0.00788356      -0.00078954      -0.00058825
Ni       1.75137714      12.33197012       7.04106653       0.60000000      -0.00955591      -0.00788430      -0.00084993      -0.00027964
Ni      -0.01119255      10.56818505      10.56818505       0.60000000      -0.00649870       0.15899579      -0.02479538      -0.02479538
Ni      -0.01326667      12.33056910      12.33056910       0.60000000      -0.00616089       0.18411619      -0.02790304      -0.02790304
Ni       1.74853135      10.56645623      12.33064441       0.60000000      -0.01000913      -0.00828874      -0.00086731      -0.00104026
Ni       1.74853135      12.33064441      10.56645623       0.60000000      -0.01000913      -0.00828874      -0.00104026      -0.00086731
Ni      -0.01304135      10.56676009      14.09460884       0.60000000      -0.00621457       0.18005347      -0.02568659      -0.02923172
Ni      -0.01504777      12.32895174      15.85757581       0.60000000      -0.00588419       0.20215738      -0.02687556      -0.03154221
Ni       1.74655014      10.56457587      15.85835722       0.60000000      -0.01034439      -0.00837657      -0.00079125      -0.00125505
Ni       1.74586735      12.32872415      14.09347778       0.60000000      -0.01050295      -0.00787995      -0.00118065      -0.00129857
Ni      -0.01425829      10.56531601      17.62188796       0.60000000      -0.00607938       0.18822647      -0.02365968      -0.03208849
Ni      -0.01591416      12.32736784      19.38527496       0.60000000      -0.00583991       0.20265824      -0.02199263      -0.03268908
Ni       1.74563153      10.56297688      19.38685803       0.60000000      -0.01047257      -0.00918945      -0.00061244      -0.00136983
Ni       1.74416477      12.32659275      17.62201042       0.60000000      -0.01079657      -0.00817402      -0.00113369      -0.00147772
Ni      -0.01458655      10.56420222      21.14930191       0.60000000      -0.00616578       0.17980587      -0.01873350      -0.03208842
Ni      -0.01573116      12.32624651      22.91273188       0.60000000      -0.00605074       0.18538002      -0.01421932      -0.03025878
Ni       1.74586687      10.56206345      22.91482793       0.60000000      -0.01031934      -0.01048448      -0.00054926      -0.00115563
Ni       1.74385413      12.32490103      21.15087031       0.60000000      -0.01070131      -0.01005781      -0.00078715      -0.00135602
Ni      -0.01406388      10.56365874      24.67601172       0.60000000      -0.00642402       0.15815497      -0.01200016      -0.02863299
Ni      -0.01468370      12.32581909      26.43913142       0.60000000      -0.00640158       0.15795733      -0.00571583      -0.02441466
Ni       1.74699594      10.56195822      26.44130136       0.60000000      -0.00998028      -0.01114409      -0.00066355      -0.00063223
Ni       1.74478405      12.32408714      24.67858517       0.60000000      -0.01044307      -0.01151955      -0.00054793      -0.00094001
Ni      -0.01291163      10.56372924      28.20155667       0.60000000      -0.00673555       0.13160113      -0.00511086      -0.02252218
Ni      -0.01308827      12.32606282      29.96420574       0.60000000      -0.00675975       0.12987733       0.00135996      -0.01681772
Ni       1.74867143      10.56254729      29.96612421       0.60000000      -0.00960297      -0.01069424      -0.00077097       0.00001846
Ni       1.74652909      12.32419899      28.20443292       0.60000000      -0.01002856      -0.01195517      -0.00053642      -0.00024749
Ni      -0.01139389      10.56430002      31.72597069       0.60000000      -0.00701529       0.10736777       0.00042917      -0.01547302
Ni      -0.01124961      12.32679205      33.48818521       0.60000000      -0.00705123       0.10603933       0.00581601      -0.00966399
Ni       1.75058490      10.56359577      33.48971577       0.60000000      -0.00921567      -0.00957696      -0.00070183       0.00049757
Ni       1.74867143      12.32501868      31.72859560       0.60000000      -0.00961227      -0.01110357      -0.00054002       0.00039993
Ni      -0.00974401      10.56518312      35.24958393       0.60000000      -0.00722733       0.08780648       0.00390316      -0.00921022
Ni      -0.00940452      12.32777423      37.01150144       0.60000000      -0.00725936       0.08666330       0.00773863      -0.00430866
Ni       1.75249801      10.56485029      37.01264735       0.60000000      -0.00900517      -0.00763853      -0.00051132       0.00086180
Ni       1.75088775      12.32623443      35.25170586       0.60000000      -0.00923810      -0.00944352      -0.00039331       0.00074668
Ni      -0.00813762      10.56619075      38.77277333       0.60000000      -0.00880011       0.07218784       0.00565107       0.00025549
Ni      -0.00770898      12.32881139      40.53453539       0.60000000      -0.00693559       0.07533597       0.01949659      -0.08891260
Ni       1.75425058      10.56610728      40.53536459       0.60000000      -0.00861563      -0.00694308       0.00871439      -0.08557131
Ni       1.75295688      12.32756309      38.77437803       0.60000000      -0.01077583      -0.00660601      -0.00014115       0.00644657
Ni      -0.00647769      14.09604265      -0.00647769       0.60000000      -0.00677569       0.08039274      -0.03381782       0.08039274
Ni      -0.00771213      15.85890198       1.75499933       0.60000000      -0.00870697       0.10394884      -0.01981694      -0.01965284
Ni       1.75439323      14.09594983       1.75439323       0.60000000      -0.01097370      -0.00571421      -0.00063953      -0.00571421
Ni       1.75499933      15.85890198      -0.00771213       0.60000000      -0.00870697      -0.01965284      -0.01981694       0.10394884
Ni      -0.00831373      14.09590114       3.51730709       0.60000000      -0.00698546       0.11577034      -0.02110991      -0.01626933
Ni      -0.00987487      15.85892210       5.27887243       0.60000000      -0.00678719       0.13407963      -0.02480427      -0.01834539
Ni       1.75199165      14.09568776       5.27816782       0.60000000      -0.00947066      -0.00752090      -0.00083905      -0.00000007
Ni       1.75276786      15.85909544       3.51570944       0.60000000      -0.00944247      -0.00664068      -0.00077186       0.00006340
Ni      -0.01055799      14.09549158       7.04159595       0.60000000      -0.00664068       0.14705615      -0.02575010      -0.02083547
Ni      -0.01241808      15.85858007       8.80339128       0.60000000      -0.00636206       0.16871684      -0.02941003      -0.02293333
Ni       1.74903116      14.09496941       8.80273700       0.60000000      -0.00988658      -0.00845518      -0.00105103      -0.00050900
Ni       1.74990174      15.85905166       7.03962665       0.60000000      -0.00972767      -0.00838776      -0.00101805      -0.00014354
Ni      -0.01304135      14.09460884      10.56676009       0.60000000      -0.00621457       0.18005347      -0.02923172      -0.02568659
Ni      -0.01504777      15.85757581      12.32895174       0.60000000      -0.00588419       0.20215738      -0.03154221      -0.02687556
Ni       1.74586735      14.09347778      12.32872415       0.60000000      -0.01050295      -0.00787995      -0.00129857      -0.00118065
Ni       1.74655014      15.85835722      10.56457587       0.60000000      -0.01034439      -0.00837657      -0.00125505      -0.00079125
Ni      -0.01533553      14.09313051      14.09313051       0.60000000      -0.00581301       0.20718814      -0.02966163      -0.02966163
Ni      -0.01720626      15.85579727      15.85579727       0.60000000      -0.00551443       0.22462951      -0.02887206      -0.02887206
Ni       1.74329392      14.09119484      15.85654995       0.60000000      -0.01097566      -0.00728039      -0.00153262      -0.00158141
Ni       1.74329392      15.85654995      14.09119484       0.60000000      -0.01097566      -0.00728039      -0.00158141      -0.00153262
Ni      -0.01685961      14.09125981      17.62063664       0.60000000      -0.00560147       0.21877353      -0.02549893      -0.03148934
Ni      -0.01829721      15.85362785      19.38363597       0.60000000      -0.00541789       0.22746155      -0.02046694      -0.02782010
Ni       1.74212565      14.08874547      19.38567283       0.60000000      -0.01099167      -0.00885524      -0.00131198      -0.00150106
Ni       1.74108986      15.85375984      17.61967122       0.60000000      -0.01116048      -0.00764848      -0.00166750      -0.00165148
Ni      -0.01722602      14.08952732      21.14855161       0.60000000      -0.00568605       0.20997470      -0.01698987      -0.03000305
Ni      -0.01806659      15.85177931      22.91154538       0.60000000      -0.00563164       0.21069088      -0.00826029      -0.02313792
Ni       1.74256401      14.08697853      22.91454343       0.60000000      -0.01083855      -0.01095706      -0.00072823      -0.00117192
Ni       1.74064512      15.85097976      21.14906032       0.60000000      -0.01111456      -0.00947462      -0.00122197      -0.00137205
Ni      -0.01646409      14.08843171      24.67583614       0.60000000      -0.00601351       0.18555906      -0.00656317      -0.02476638
Ni      -0.01671627      15.85076924      26.43849542       0.60000000      -0.00604237       0.18311936       0.00372743      -0.01540785
Ni       1.74421565      14.08631656      26.44175163       0.60000000      -0.01047832      -0.01246422      -0.00032768      -0.00054280
Ni       1.74188696      15.84921631      24.67764284       0.60000000      -0.01085447      -0.01186690      -0.00040214      -0.00077667
Ni      -0.01489691      14.08815480      28.20180271       0.60000000      -0.00642974       0.15580776       0.00263772      -0.01695789
Ni      -0.01468370      15.85067637      29.96398869       0.60000000      -0.00648815       0.15376008       0.01190637      -0.00698283
Ni       1.74652909      14.08667474      29.96690868       0.60000000      -0.01001323      -0.01256613      -0.00022119       0.00021575
Ni       1.74421565      15.84877832      28.20421339       0.60000000      -0.01042113      -0.01328476       0.00009799      -0.00004691
Ni      -0.01291163      14.08857769      31.72640512       0.60000000      -0.00680766       0.12818874       0.00853305      -0.00907110
Ni      -0.01239791      15.85126674      33.48819066       0.60000000      -0.00686237       0.12655036       0.01522491      -0.00063287
Ni       1.74904952      14.08770829      33.49050538       0.60000000      -0.00958527      -0.01116332      -0.00015551       0.00072455
Ni       1.74699594      15.84939531      31.72873845       0.60000000      -0.00995443      -0.01276538       0.00024314       0.00064432
Ni      -0.01082978      14.08943857      35.25003490       0.60000000      -0.00709285       0.10467884       0.01093283      -0.00321370
Ni      -0.01017177      15.85221407      37.01159321       0.60000000      -0.00713687       0.10253361       0.01502924       0.00284182
Ni       1.75146518      14.08903852      37.01329866       0.60000000      -0.00925457      -0.00892665      -0.00002248       0.00104714
Ni       1.74976995      15.85059730      35.25194501       0.60000000      -0.00950368      -0.01084539       0.00031320       0.00092185
Ni      -0.00887142      14.09047378      38.77316514       0.60000000      -0.00884077       0.08497955       0.01110688       0.00554078
Ni      -0.00818910      15.85324700      40.53465034       0.60000000      -0.00680918       0.08584239       0.02910370      -0.08923311
Ni       1.75359349      14.09037676      40.53586280       0.60000000      -0.00873913      -0.00963789       0.01383558      -0.09346838
Ni       1.75226419      15.85196869      38.77460590       0.60000000      -0.01108403      -0.00751230       0.00041109       0.00690797
Ni      -0.00706408      17.62164997      -0.00706408       0.60000000      -0.00667123       0.08726911      -0.03669040       0.08726911
Ni      -0.00822346      19.38478712       1.75445664       0.60000000      -0.00875178       0.10307917      -0.02087108      -0.01906652
Ni       1.75361119      17.62212174       1.75361119       0.60000000      -0.01110123      -0.00591154      -0.00073782      -0.00591154
Ni       1.75445664      19.38478712      -0.00822346       0.60000000      -0.00875178      -0.01906652      -0.02087108       0.10307917
Ni      -0.00907074      17.62202752       3.51651634       0.60000000      -0.00694972       0.11883913      -0.02304086      -0.01592057
Ni      -0.01048748      19.38540773       5.27811090       0.60000000      -0.00678579       0.13328136      -0.02623728      -0.01705183
Ni       1.75097144      17.62264563       5.27708561       0.60000000      -0.00959611      -0.00781595      -0.00094274       0.00004745
Ni       1.75210147      19.38569479       3.51499004       0.60000000      -0.00949824      -0.00680093      -0.00075705      -0.00004018
Ni      -0.01152197      17.62222259       7.04052495       0.60000000      -0.00656696       0.15225764      -0.02835500      -0.01998148
Ni      -0.01313866      19.38573256       8.80229616       0.60000000      -0.00634803       0.16826523      -0.03109921      -0.02039581
Ni       1.74771700      17.62282448       8.80121859       0.60000000      -0.01009270      -0.00882626      -0.00120319      -0.00035196
Ni       1.74911682      19.38657161       7.03857804       0.60000000      -0.00984550      -0.00867184      -0.00110031      -0.00013366
Ni      -0.01425829      17.62188796      10.56531601       0.60000000      -0.00607938       0.18822647      -0.03208849      -0.02365968
Ni      -0.01591416      19.38527496      12.32736784       0.60000000      -0.00583991       0.20265824      -0.03268908      -0.02199263
Ni       1.74416477      17.62201042      12.32659275       0.60000000      -0.01079657      -0.00817402      -0.00147772      -0.00113369
Ni       1.74563153      19.38685803      10.56297688       0.60000000      -0.01047257      -0.00918945      -0.00136983      -0.00061244
Ni      -0.01685961      17.62063664      14.09125981       0.60000000      -0.00560147       0.21877353      -0.03148934      -0.02549893
Ni      -0.01829721      19.38363597      15.85362785       0.60000000      -0.00541789       0.22746155      -0.02782010      -0.02046694
Ni       1.74108986      17.61967122      15.85375984       0.60000000      -0.01116048      -0.00764848      -0.00165148      -0.00166750
Ni       1.74212565      19.38567283      14.08874547       0.60000000      -0.01099167      -0.00885524      -0.00150106      -0.00131198
Ni      -0.01869139      17.61846381      17.61846381       0.60000000      -0.00531993       0.23384743      -0.02433164      -0.02433164
Ni      -0.01964331      19.38104035      19.38104035       0.60000000      -0.00524615       0.23527543      -0.01534876      -0.01534876
Ni       1.73948966      17.61629676      19.38263261       0.60000000      -0.01131592      -0.00779460      -0.00158613      -0.00157134
Ni       1.73948966      19.38263261      17.61629676       0.60000000      -0.01131592      -0.00779460      -0.00157134      -0.00158613
Ni      -0.01921861      17.61600968      21.14643700       0.60000000      -0.00534945       0.22867986      -0.01125180      -0.01970031
Ni      -0.01953562      19.37839408      22.90896806       0.60000000      -0.00536968       0.22614548       0.00171973      -0.00720261
Ni       1.73986866      17.61327943      22.91198122       0.60000000      -0.01109143      -0.01024726      -0.00082690      -0.00098168
Ni       1.73865106      19.37874420      21.14530828       0.60000000      -0.01125689      -0.00843746      -0.00118684      -0.00117741
Ni      -0.01835582      17.61412883      24.67415454       0.60000000      -0.00565706       0.20814162       0.00368347      -0.01199713
Ni      -0.01806659      19.37659868      26.43636475       0.60000000      -0.00571904       0.20564305       0.01718614       0.00212974
Ni       1.74188696      17.61164896      26.44007549       0.60000000      -0.01079777      -0.01262000       0.00013002      -0.00029921
Ni       1.73986866      19.37567859      24.67438038       0.60000000      -0.01106470      -0.01072200      -0.00023106      -0.00050459
Ni      -0.01646409      17.61327672      28.20068115       0.60000000      -0.00610609       0.18078506       0.01520862      -0.00318149
Ni      -0.01573116      19.37596535      29.96245072       0.60000000      -0.00617695       0.17842646       0.02566236       0.00945928
Ni       1.74478405      17.61149759      29.96599561       0.60000000      -0.01030947      -0.01371351       0.00065174       0.00046085
Ni       1.74256401      19.37431960      28.20188451       0.60000000      -0.01063960      -0.01325418       0.00076720       0.00024061
Ni      -0.01406388      17.61338426      31.72573725       0.60000000      -0.00655361       0.15177782       0.02041648       0.00361824
Ni      -0.01309500      19.37625886      33.48716144       0.60000000      -0.00662496       0.14802152       0.02662409       0.01257413
Ni       1.74788533      17.61234968      33.49004278       0.60000000      -0.00984538      -0.01241056       0.00077125       0.00090494
Ni       1.74586687      19.37447680      31.72724128       0.60000000      -0.01018905      -0.01333189       0.00123433       0.00082016
Ni      -0.01159394      17.61410568      35.24965745       0.60000000      -0.00691796       0.12373724       0.02034218       0.00682538
Ni      -0.01057167      19.37705048      37.01093025       0.60000000      -0.00698250       0.11861351       0.02331005       0.01229314
Ni       1.75076510      17.61364298      37.01306642       0.60000000      -0.00945321      -0.00984489       0.00072665       0.00112862
Ni       1.74911248      19.37549479      35.25101357       0.60000000      -0.00969016      -0.01145591       0.00121846       0.00097568
Ni      -0.00933256      17.61507861      38.77295995       0.60000000      -0.00879325       0.09881539       0.01783719       0.01290805
Ni      -0.00838068      19.37798167      40.53423496       0.60000000      -0.00671020       0.09575904       0.03870905      -0.08417008
Ni       1.75321446      17.61497042      40.53575425       0.60000000      -0.00885939      -0.01182700       0.01935326      -0.09764921
Ni       1.75194395      19.37677960      38.77403634       0.60000000      -0.01124625      -0.00792394       0.00105214       0.00692203
Ni      -0.00738609      21.14724140      -0.00738609       0.60000000      -0.00664264       0.09044377      -0.03751116       0.09044377
Ni      -0.00838068      22.91049220       1.75423891       0.60000000      -0.00876950       0.09624287      -0.02048232      -0.01724805
Ni       1.75320572      21.14827066       1.75320572       0.60000000      -0.01104915      -0.00594286      -0.00071783      -0.00594286
Ni       1.75423891      22.91049220      -0.00838068       0.60000000      -0.00876950      -0.01724805      -0.02048232       0.09624287
Ni      -0.00941841      21.14813793       3.51605005       0.60000000      -0.00698849       0.11410744      -0.02341552      -0.01437040
Ni      -0.01057167      22.91162985       5.27775009       0.60000000      -0.00688097       0.12322411      -0.02553913      -0.01431924
Ni       1.75056136      21.14957869       5.27647616       0.60000000      -0.00962470      -0.00793878      -0.00090630      -0.00014851
Ni       1.75194395      22.91199218       3.51473544       0.60000000      -0.00944555      -0.00681287      -0.00061302      -0.00034702
Ni      -0.01186636      21.14896787       7.03981773       0.60000000      -0.00662969       0.14563874      -0.02875867      -0.01726411
Ni      -0.01309500      22.91256453       8.80166195       0.60000000      -0.00650259       0.15424873      -0.02984350      -0.01577949
Ni       1.74735969      21.15072157       8.80023019       0.60000000      -0.01011625      -0.00948033      -0.00120459      -0.00036614
Ni       1.74911248      22.91363329       7.03811451       0.60000000      -0.00977996      -0.00898218      -0.00095485      -0.00039746
Ni      -0.01458655      21.14930191      10.56420222       0.60000000      -0.00616578       0.17980587      -0.03208842      -0.01873350
Ni      -0.01573116      22.91273188      12.32624651       0.60000000      -0.00605074       0.18538002      -0.03025878      -0.01421932
Ni       1.74385413      21.15087031      12.32490103       0.60000000      -0.01070131      -0.01005781      -0.00135602      -0.00078715
Ni       1.74586687      22.91482793      10.56206345       0.60000000      -0.01031934      -0.01048448      -0.00115563      -0.00054926
Ni      -0.01722602      21.14855161      14.08952732       0.60000000      -0.00568605       0.20997470      -0.03000305      -0.01698987
Ni      -0.01806659      22.91154538      15.85177931       0.60000000      -0.00563164       0.21069088      -0.02313792      -0.00826029
Ni       1.74064512      21.14906032      15.85097976       0.60000000      -0.01111456      -0.00947462      -0.00137205      -0.00122197
Ni       1.74256401      22.91454343      14.08697853       0.60000000      -0.01083855      -0.01095706      -0.00117192      -0.00072823
Ni      -0.01921861      21.14643700      17.61600968       0.60000000      -0.00534945       0.22867986      -0.01970031      -0.01125180
Ni      -0.01953562      22.90896806      19.37839408       0.60000000      -0.00536968       0.22614548      -0.00720261       0.00171973
Ni       1.73865106      21.14530828      19.37874420       0.60000000      -0.01125689      -0.00843746      -0.00117741      -0.00118684
Ni       1.73986866      22.91198122      17.61327943       0.60000000      -0.01109143      -0.01024726      -0.00098168      -0.00082690
Ni      -0.01997079      21.14348856      21.14348856       0.60000000      -0.00526386       0.23276636      -0.00218748      -0.00218748
Ni      -0.01964331      22.90582427      22.90582427       0.60000000      -0.00531673       0.23019417       0.01344599       0.01344599
Ni       1.73865106      21.14112079      22.90768487       0.60000000      -0.01122505      -0.00879128      -0.00061240      -0.00065843
Ni       1.73865106      22.90768487      21.14112079       0.60000000      -0.01122505      -0.00879128      -0.00065843      -0.00061240
Ni      -0.01921861      21.14080397      24.67123130       0.60000000      -0.00542580       0.22358570       0.01670051       0.00813025
Ni      -0.01829721      22.90327777      26.43328589       0.60000000      -0.00549018       0.22064097       0.03059379       0.02309148
Ni       1.74064512      21.13823684      26.43631740       0.60000000      -0.01088865      -0.01144643       0.00046380       0.00003983
Ni       1.73948966      22.90349611      24.66983197       0.60000000      -0.01103413      -0.00958800       0.00006460      -0.00005836
Ni      -0.01722602      21.13921328      28.19823757       0.60000000      -0.00578873       0.20294111       0.02952188       0.01632103
Ni      -0.01591416      22.90197926      29.95988638       0.60000000      -0.00589087       0.19686644       0.03804528       0.02728759
Ni       1.74385413      21.13725057      29.96321984       0.60000000      -0.01049404      -0.01302190       0.00140801       0.00067936
Ni       1.74212565      22.90100319      28.19793056       0.60000000      -0.01070906      -0.01151100       0.00115381       0.00053462
Ni      -0.01458655      21.13882525      31.72392494       0.60000000      -0.00626454       0.17351867       0.03300739       0.01966579
Ni      -0.01313866      22.90181599      33.48525239       0.60000000      -0.00639297       0.16414069       0.03637957       0.02583819
Ni       1.74735969      21.13767805      33.48816942       0.60000000      -0.01000887      -0.01222872       0.00169251       0.00094283
Ni       1.74563153      22.90041881      31.72429996       0.60000000      -0.01028768      -0.01199566       0.00188129       0.00088413
Ni      -0.01186636      21.13925501      35.24840515       0.60000000      -0.00671523       0.14096536       0.02982250       0.01849647
Ni      -0.01048748      22.90230547      37.00960229       0.60000000      -0.00683056       0.13053523       0.03022560       0.02137409
Ni       1.75056136      21.13875410      37.01185663       0.60000000      -0.00956935      -0.00983678       0.00147082       0.00100973
Ni       1.74911682      22.90101778      35.24901134       0.60000000      -0.00977718      -0.01062370       0.00189590       0.00083257
Ni      -0.00941841      21.14004149      38.77212936       0.60000000      -0.00865534       0.11092500       0.02434139       0.02072292
Ni      -0.00822346      22.90301395      40.53334442       0.60000000      -0.00666222       0.10249382       0.04590222      -0.07508308
Ni       1.75320572      21.13992840      40.53499335       0.60000000      -0.00895154      -0.01303502       0.02382566      -0.09733005
Ni       1.75210147      22.90202991      38.77273466       0.60000000      -0.01122113      -0.00757880       0.00150238       0.00642588
Ni      -0.00741072      24.67257245      -0.00741072       0.60000000      -0.00670041       0.08920051      -0.03588550       0.08920051
Ni      -0.00818910      26.43575759       1.75435426       0.60000000      -0.00874990       0.08536115      -0.01863066      -0.01441450
Ni       1.75321446      24.67399828       1.75321446       0.60000000      -0.01083184      -0.00578186      -0.00056009      -0.00578186
Ni       1.75435426      26.43575759      -0.00818910       0.60000000      -0.00874990      -0.01441450      -0.01863066       0.08536115
Ni      -0.00933256      24.67384547       3.51596413       0.60000000      -0.00708624       0.10290659      -0.02195453      -0.01172494
Ni      -0.01017177      26.43719532       5.27781618       0.60000000      -0.00703135       0.10717136      -0.02271250      -0.01054044
Ni       1.75076510      24.67583082       5.27640737       0.60000000      -0.00949721      -0.00794810      -0.00064917      -0.00052443
Ni       1.75226419      26.43757687       3.51493967       0.60000000      -0.00929741      -0.00658631      -0.00035731      -0.00070666
Ni      -0.01159394      24.67513627       7.03958449       0.60000000      -0.00679765       0.12934196      -0.02651048      -0.01305160
Ni      -0.01239791      26.43849692       8.80157300       0.60000000      -0.00674744       0.13194177      -0.02568684      -0.01002802
Ni       1.74788533      24.67762864       8.79993553       0.60000000      -0.00989966      -0.01009791      -0.00087685      -0.00060557
Ni       1.74976995      26.43960112       7.03825341       0.60000000      -0.00953156      -0.00906871      -0.00054963      -0.00073499
Ni      -0.01406388      24.67601172      10.56365874       0.60000000      -0.00642402       0.15815497      -0.02863299      -0.01200016
Ni      -0.01468370      26.43913142      12.32581909       0.60000000      -0.00640158       0.15795733      -0.02441466      -0.00571583
Ni       1.74478405      24.67858517      12.32408714       0.60000000      -0.01044307      -0.01151955      -0.00094001      -0.00054793
Ni       1.74699594      26.44130136      10.56195822       0.60000000      -0.00998028      -0.01114409      -0.00063223      -0.00066355
Ni      -0.01646409      24.67583614      14.08843171       0.60000000      -0.00601351       0.18555906      -0.02476638      -0.00656317
Ni      -0.01671627      26.43849542      15.85076924       0.60000000      -0.00604237       0.18311936      -0.01540785       0.00372743
Ni       1.74188696      24.67764284      15.84921631       0.60000000      -0.01085447      -0.01186690      -0.00077667      -0.00040214
Ni       1.74421565      26.44175163      14.08631656       0.60000000      -0.01047832      -0.01246422      -0.00054280      -0.00032768
Ni      -0.01835582      24.67415454      17.61412883       0.60000000      -0.00565706       0.20814162      -0.01199713       0.00368347
Ni      -0.01806659      26.43636475      19.37659868       0.60000000      -0.00571904       0.20564305       0.00212974       0.01718614
Ni       1.73986866      24.67438038      19.37567859       0.60000000      -0.01106470      -0.01072200      -0.00050459      -0.00023106
Ni       1.74188696      26.44007549      17.61164896       0.60000000      -0.01079777      -0.01262000      -0.00029921       0.00013002
Ni      -0.01921861      24.67123130      21.14080397       0.60000000      -0.00542580       0.22358570       0.00813025       0.01670051
Ni      -0.01829721      26.43328589      22.90327777       0.60000000      -0.00549018       0.22064097       0.02309148       0.03059379
Ni       1.73948966      24.66983197      22.90349611       0.60000000      -0.01103413      -0.00958800      -0.00005836       0.00006460
Ni       1.74064512      26.43631740      21.13823684       0.60000000      -0.01088865      -0.01144643       0.00003983       0.00046380
Ni      -0.01869139      24.66809830      24.66809830       0.60000000      -0.00537802       0.22715991       0.02828452       0.02828452
Ni      -0.01720626      26.43037181      26.43037181       0.60000000      -0.00549233       0.21984418       0.03888300       0.03888300
Ni       1.74108986      24.66595088      26.43186226       0.60000000      -0.01083037      -0.00990300       0.00073165       0.00051849
Ni       1.74108986      26.43186226      24.66595088       0.60000000      -0.01083037      -0.00990300       0.00051849       0.00073165
Ni      -0.01685961      24.66584640      28.19522323       0.60000000      -0.00560161       0.21366796       0.04026281       0.03417906
Ni      -0.01504777      26.42851367      29.95713775       0.60000000      -0.00580552       0.20015959       0.04439622       0.03970409
Ni       1.74416477      24.66398527      29.95940295       0.60000000      -0.01045644      -0.01088188       0.00166778       0.00083217
Ni       1.74329392      26.42854315      28.19389826       0.60000000      -0.01054838      -0.00964372       0.00123778       0.00092331
Ni      -0.01425829      24.66487116      31.72144311       0.60000000      -0.00606142       0.18515210       0.04168815       0.03331833
Ni      -0.01241808      26.42782843      33.48301722       0.60000000      -0.00629299       0.16827123       0.04106922       0.03469915
Ni       1.74771700      24.66374460      33.48535049       0.60000000      -0.00999043      -0.01051156       0.00206480       0.00081519
Ni       1.74655014      26.42712935      31.72091070       0.60000000      -0.01011885      -0.00974659       0.00187944       0.00084621
Ni      -0.01152197      24.66486809      35.24656573       0.60000000      -0.00656171       0.15047101       0.03621336       0.02804536
Ni      -0.00987487      26.42789780      37.00794746       0.60000000      -0.00675043       0.13409158       0.03360649       0.02743087
Ni       1.75097144      24.66438032      37.00994034       0.60000000      -0.00957835      -0.00871266       0.00179712       0.00067978
Ni       1.74990174      26.42710282      35.24652783       0.60000000      -0.00968308      -0.00884041       0.00190651       0.00052187
Ni      -0.00907074      24.66533415      38.77084532       0.60000000      -0.00847272       0.11769031       0.02872713       0.02680041
Ni      -0.00771213      26.42827400      40.53217664       0.60000000      -0.00668585       0.10365795       0.04880801      -0.06431262
Ni       1.75361119      24.66522668      40.53373723       0.60000000      -0.00898682      -0.01323404       0.02590504      -0.09275753
Ni       1.75276786      26.42764922      38.77103522       0.60000000      -0.01100617      -0.00664802       0.00148227       0.00556836
Ni      -0.00715814      28.19748697      -0.00715814       0.60000000      -0.00682708       0.08401778      -0.03203376       0.08401778
Ni      -0.00770898      29.96047893       1.75475493       0.60000000      -0.00869241       0.07317982      -0.01569324      -0.01107974
Ni       1.75359349      28.19907954       1.75359349       0.60000000      -0.01050576      -0.00540993      -0.00031004      -0.00540993
Ni       1.75475493      29.96047893      -0.00770898       0.60000000      -0.00869241      -0.01107974      -0.01569324       0.07317982
Ni      -0.00887142      28.19892694       3.51623558       0.60000000      -0.00720784       0.08854350      -0.01893045      -0.00841257
Ni      -0.00940452      29.96197854       5.27825134       0.60000000      -0.00718831       0.08979601      -0.01842230      -0.00646796
Ni       1.75146518      28.20108439       5.27682426       0.60000000      -0.00921556      -0.00784786      -0.00027702      -0.00083848
Ni       1.75295688      29.96233278       3.51551785       0.60000000      -0.00909268      -0.00610664      -0.00003246      -0.00094597
Ni      -0.01082978      28.20041142       7.03981508       0.60000000      -0.00700110       0.10891294      -0.02209974      -0.00816970
Ni      -0.01124961      29.96336725       8.80197409       0.60000000      -0.00699612       0.10862737      -0.01973238      -0.00442956
Ni       1.74904952      28.20309226       8.80029517       0.60000000      -0.00956720      -0.01001791      -0.00031802      -0.00083221
Ni       1.75088775      29.96436007       7.03888864       0.60000000      -0.00916428      -0.00884668      -0.00009061      -0.00091036
Ni      -0.01291163      28.20155667      10.56372924       0.60000000      -0.00673555       0.13160113      -0.02252218      -0.00511086
Ni      -0.01308827      29.96420574      12.32606282       0.60000000      -0.00675975       0.12987733      -0.01681772       0.00135996
Ni       1.74652909      28.20443292      12.32419899       0.60000000      -0.01002856      -0.01195517      -0.00024749      -0.00053642
Ni       1.74867143      29.96612421      10.56254729       0.60000000      -0.00960297      -0.01069424       0.00001846      -0.00077097
Ni      -0.01489691      28.20180271      14.08815480       0.60000000      -0.00642974       0.15580776      -0.01695789       0.00263772
Ni      -0.01468370      29.96398869      15.85067637       0.60000000      -0.00648815       0.15376008      -0.00698283       0.01190637
Ni       1.74421565      28.20421339      15.84877832       0.60000000      -0.01042113      -0.01328476      -0.00004691       0.00009799
Ni       1.74652909      29.96690868      14.08667474       0.60000000      -0.01001323      -0.01256613       0.00021575      -0.00022119
Ni      -0.01646409      28.20068115      17.61327672       0.60000000      -0.00610609       0.18078506      -0.00318149       0.01520862
Ni      -0.01573116      29.96245072      19.37596535       0.60000000      -0.00617695       0.17842646       0.00945928       0.02566236
Ni       1.74256401      28.20188451      19.37431960       0.60000000      -0.01063960      -0.01325418       0.00024061       0.00076720
Ni       1.74478405      29.96599561      17.61149759       0.60000000      -0.01030947      -0.01371351       0.00046085       0.00065174
Ni      -0.01722602      28.19823757      21.13921328       0.60000000      -0.00578873       0.20294111       0.01632103       0.02952188
Ni      -0.01591416      29.95988638      22.90197926       0.60000000      -0.00589087       0.19686644       0.02728759       0.03804528
Ni       1.74212565      28.19793056      22.90100319       0.60000000      -0.01070906      -0.01151100       0.00053462       0.00115381
Ni       1.74385413      29.96321984      21.13725057       0.60000000      -0.01049404      -0.01302190       0.00067936       0.00140801
Ni      -0.01685961      28.19522323      24.66584640       0.60000000      -0.00560161       0.21366796       0.03417906       0.04026281
Ni      -0.01504777      29.95713775      26.42851367       0.60000000      -0.00580552       0.20015959       0.03970409       0.04439622
Ni       1.74329392      28.19389826      26.42854315       0.60000000      -0.01054838      -0.00964372       0.00092331       0.00123778
Ni       1.74416477      29.95940295      24.66398527       0.60000000      -0.01045644      -0.01088188       0.00083217       0.00166778
Ni      -0.01533553      28.19269161      28.19269161       0.60000000      -0.00570878       0.20565233       0.04370019       0.04370019
Ni      -0.01326667      29.95506886      29.95506886       0.60000000      -0.00601038       0.18540762       0.04338445       0.04338445
Ni       1.74586735      28.19127809      29.95603172       0.60000000      -0.01019811      -0.00884160       0.00143637       0.00103630
Ni       1.74586735      29.95603172      28.19127809       0.60000000      -0.01019811      -0.00884160       0.00103630       0.00143637
Ni      -0.01304135      28.19124555      31.71909430       0.60000000      -0.00608773       0.18083846       0.04369142       0.04016095
Ni      -0.01102527      29.95397714      33.48110765       0.60000000      -0.00639474       0.15837383       0.03986085       0.03722974
Ni       1.74903116      28.19032262      33.48255503       0.60000000      -0.00977177      -0.00838540       0.00169619       0.00058934
Ni       1.74853135      29.95409090      31.71827908       0.60000000      -0.00981684      -0.00787067       0.00124656       0.00082350
Ni      -0.01055799      28.19076900      35.24466464       0.60000000      -0.00654634       0.14841188       0.03764322       0.03283583
Ni      -0.00881385      29.95361541      37.00638770       0.60000000      -0.00678699       0.12791576       0.03285606       0.02932642
Ni       1.75199165      28.19036104      37.00788098       0.60000000      -0.00942957      -0.00724696       0.00148940       0.00027551
Ni       1.75137714      29.95343156      35.24433515       0.60000000      -0.00943962      -0.00721214       0.00124501       0.00022770
Ni      -0.00831373      28.19082997      38.76942402       0.60000000      -0.00831303       0.11677603       0.02983849       0.02968546
Ni      -0.00691492      29.95361624      40.53098509       0.60000000      -0.00678229       0.09852247       0.04710113      -0.05400166
Ni       1.75439323      28.19074025      40.53229685       0.60000000      -0.00895090      -0.01282940       0.02512838      -0.08503986
Ni       1.75385183      29.95342405      38.76938057       0.60000000      -0.01065859      -0.00564723       0.00102334       0.00465222
Ni      -0.00668560      31.72195326      -0.00668560       0.60000000      -0.00698797       0.07621372      -0.02670170       0.07621372
Ni      -0.00702840      33.48470045       1.75536120       0.60000000      -0.00860633       0.06183480      -0.01226933      -0.00784275
Ni       1.75425058      31.72350789       1.75425058       0.60000000      -0.01014326      -0.00486454      -0.00005569      -0.00486454
Ni       1.75536120      33.48470045      -0.00702840       0.60000000      -0.00860633      -0.00784275      -0.01226933       0.06183480
Ni      -0.00813762      31.72337020       3.51678762       0.60000000      -0.00732329       0.07437335      -0.01501591      -0.00508068
Ni      -0.00840995      33.48608619       5.27894913       0.60000000      -0.00732240       0.07440492      -0.01363872      -0.00289555
Ni       1.75249801      31.72539846       5.27760139       0.60000000      -0.00892263      -0.00733540       0.00009544      -0.00096363
Ni       1.75388829      33.48638751       3.51634759       0.60000000      -0.00888814      -0.00540827       0.00024113      -0.00097630
Ni      -0.00974401      31.72481382       7.04041301       0.60000000      -0.00718747       0.08966357      -0.01662936      -0.00365989
Ni      -0.00986059      33.48735954       8.80272487       0.60000000      -0.00720200       0.08881953      -0.01347879      -0.00007124
Ni       1.75058490      31.72726470       8.80114469       0.60000000      -0.00917463      -0.00941176       0.00018922      -0.00086992
Ni       1.75225763      33.48817307       7.03985310       0.60000000      -0.00887086      -0.00794399       0.00030231      -0.00089365
Ni      -0.01139389      31.72597069      10.56430002       0.60000000      -0.00701529       0.10736777      -0.01547302       0.00042917
Ni      -0.01124961      33.48818521      12.32679205       0.60000000      -0.00705123       0.10603933      -0.00966399       0.00581601
Ni       1.74867143      31.72859560      12.32501868       0.60000000      -0.00961227      -0.01110357       0.00039993      -0.00054002
Ni       1.75058490      33.48971577      10.56359577       0.60000000      -0.00921567      -0.00957696       0.00049757      -0.00070183
Ni      -0.01291163      31.72640512      14.08857769       0.60000000      -0.00680766       0.12818874      -0.00907110       0.00853305
Ni      -0.01239791      33.48819066      15.85126674       0.60000000      -0.00686237       0.12655036      -0.00063287       0.01522491
Ni       1.74699594      31.72873845      15.84939531       0.60000000      -0.00995443      -0.01276538       0.00064432       0.00024314
Ni       1.74904952      33.49050538      14.08770829       0.60000000      -0.00958527      -0.01116332       0.00072455      -0.00015551
Ni      -0.01406388      31.72573725      17.61338426       0.60000000      -0.00655361       0.15177782       0.00361824       0.02041648
Ni      -0.01309500      33.48716144      19.37625886       0.60000000      -0.00662496       0.14802152       0.01257413       0.02662409
Ni       1.74586687      31.72724128      19.37447680       0.60000000      -0.01018905      -0.01333189       0.00082016       0.00123433
Ni       1.74788533      33.49004278      17.61234968       0.60000000      -0.00984538      -0.01241056       0.00090494       0.00077125
Ni      -0.01458655      31.72392494      21.13882525       0.60000000      -0.00626454       0.17351867       0.01966579       0.03300739
Ni      -0.01313866      33.48525239      22.90181599       0.60000000      -0.00639297       0.16414069       0.02583819       0.03637957
Ni       1.74563153      31.72429996      22.90041881       0.60000000      -0.01028768      -0.01199566       0.00088413       0.00188129
Ni       1.74735969      33.48816942      21.13767805       0.60000000      -0.01000887      -0.01222872       0.00094283       0.00169251
Ni      -0.01425829      31.72144311      24.66487116       0.60000000      -0.00606142       0.18515210       0.03331833       0.04168815
Ni      -0.01241808      33.48301722      26.42782843       0.60000000      -0.00629299       0.16827123       0.03469915       0.04106922
Ni       1.74655014      31.72091070      26.42712935       0.60000000      -0.01011885      -0.00974659       0.00084621       0.00187944
Ni       1.74771700      33.48535049      24.66374460       0.60000000      -0.00999043      -0.01051156       0.00081519       0.00206480
Ni      -0.01304135      31.71909430      28.19124555       0.60000000      -0.00608773       0.18083846       0.04016095       0.04369142
Ni      -0.01102527      33.48110765      29.95397714       0.60000000      -0.00639474       0.15837383       0.03722974       0.03986085
Ni       1.74853135      31.71827908      29.95409090       0.60000000      -0.00981684      -0.00787067       0.00082350       0.00124656
Ni       1.74903116      33.48255503      28.19032262       0.60000000      -0.00977177      -0.00838540       0.00058934       0.00169619
Ni      -0.01119255      31.71747339      31.71747339       0.60000000      -0.00633798       0.16196575       0.03973081       0.03973081
Ni      -0.00926886      33.47985294      33.47985294       0.60000000      -0.00664096       0.13819383       0.03450525       0.03450525
Ni       1.75103178      31.71687203      33.48058009       0.60000000      -0.00943652      -0.00707822       0.00082459       0.00044684
Ni       1.75103178      33.48058009      31.71687203       0.60000000      -0.00943652      -0.00707822       0.00044684       0.00082459
Ni      -0.00914984      31.71663814      35.24315180       0.60000000      -0.00667989       0.13548874       0.03457573       0.03262032
Ni      -0.00750517      33.47917958      37.00518908       0.60000000      -0.00691937       0.11415544       0.02904747       0.02766949
Ni       1.75343518      31.71635635      37.00619123       0.60000000      -0.00920085      -0.00608600       0.00078064       0.00003464
Ni       1.75320590      33.47952554      35.24285188       0.60000000      -0.00915426      -0.00623116       0.00042961       0.00012547
Ni      -0.00727050      31.71631758      38.76816076       0.60000000      -0.00821467       0.10846803       0.02787668       0.02927448
Ni      -0.00596077      33.47885922      40.52995630       0.60000000      -0.00692720       0.08839679       0.04197035      -0.04529648
Ni       1.75542234      31.71625378      40.53097400       0.60000000      -0.00885690      -0.01224557       0.02215760      -0.07559136
Ni       1.75514647      33.47905776      38.76806371       0.60000000      -0.01025838      -0.00491405       0.00042474       0.00392065
Ni      -0.00606747      35.24603691      -0.00606747       0.60000000      -0.00714780       0.06722981      -0.02086433       0.06722981
Ni      -0.00624006      37.00854969       1.75608438       0.60000000      -0.00850502       0.05218651      -0.00889508      -0.00512611
Ni       1.75507637      35.24742346       1.75507637       0.60000000      -0.00979355      -0.00422560       0.00012922      -0.00422560
Ni       1.75608438      37.00854969      -0.00624006       0.60000000      -0.00850502      -0.00512611      -0.00889508       0.05218651
Ni      -0.00724558      35.24730776       3.51751927       0.60000000      -0.00741660       0.06219143      -0.01099439      -0.00228525
Ni      -0.00731998      37.00973285       5.27978946       0.60000000      -0.00742436       0.06189250      -0.00918920      -0.00027654
Ni       1.75369884      35.24904254       5.27858840       0.60000000      -0.00872900      -0.00630281       0.00035043      -0.00087807
Ni       1.75492776      37.00997444       3.51730198       0.60000000      -0.00872692      -0.00454421       0.00047403      -0.00081351
Ni      -0.00850336      35.24857066       7.04124175       0.60000000      -0.00733304       0.07388116      -0.01130858      -0.00025948
Ni      -0.00840995      37.01079724       8.80366017       0.60000000      -0.00735261       0.07311855      -0.00810718       0.00265004
Ni       1.75225763      35.25059283       8.80227286       0.60000000      -0.00891851      -0.00798340       0.00054074      -0.00074667
Ni       1.75369884      37.01142507       7.04097092       0.60000000      -0.00876101      -0.00633272       0.00064844      -0.00071340
Ni      -0.00974401      35.24958393      10.56518312       0.60000000      -0.00722733       0.08780648      -0.00921022       0.00390316
Ni      -0.00940452      37.01150144      12.32777423       0.60000000      -0.00725936       0.08666330      -0.00430866       0.00773863
Ni       1.75088775      35.25170586      12.32623443       0.60000000      -0.00923810      -0.00944352       0.00074668      -0.00039331
Ni       1.75249801      37.01264735      10.56485029       0.60000000      -0.00900517      -0.00763853       0.00086180      -0.00051132
Ni      -0.01082978      35.25003490      14.08943857       0.60000000      -0.00709285       0.10467884      -0.00321370       0.01093283
Ni      -0.01017177      37.01159321      15.85221407       0.60000000      -0.00713687       0.10253361       0.00284182       0.01502924
Ni       1.74976995      35.25194501      15.85059730       0.60000000      -0.00950368      -0.01084539       0.00092185       0.00031320
Ni       1.75146518      37.01329866      14.08903852       0.60000000      -0.00925457      -0.00892665       0.00104714      -0.00002248
Ni      -0.01159394      35.24965745      17.61410568       0.60000000      -0.00691796       0.12373724       0.00682538       0.02034218
Ni      -0.01057167      37.01093025      19.37705048       0.60000000      -0.00698250       0.11861351       0.01229314       0.02331005
Ni       1.74911248      35.25101357      19.37549479       0.60000000      -0.00969016      -0.01145591       0.00097568       0.00121846
Ni       1.75076510      37.01306642      17.61364298       0.60000000      -0.00945321      -0.00984489       0.00112862       0.00072665
Ni      -0.01186636      35.24840515      21.13925501       0.60000000      -0.00671523       0.14096536       0.01849647       0.02982250
Ni      -0.01048748      37.00960229      22.90230547       0.60000000      -0.00683056       0.13053523       0.02137409       0.03022560
Ni       1.74911682      35.24901134      22.90101778       0.60000000      -0.00977718      -0.01062370       0.00083257       0.00189590
Ni       1.75056136      37.01185663      21.13875410       0.60000000      -0.00956935      -0.00983678       0.00100973       0.00147082
Ni      -0.01152197      35.24656573      24.66486809       0.60000000      -0.00656171       0.15047101       0.02804536       0.03621336
Ni      -0.00987487      37.00794746      26.42789780       0.60000000      -0.00675043       0.13409158       0.02743087       0.03360649
Ni       1.74990174      35.24652783      26.42710282       0.60000000      -0.00968308      -0.00884041       0.00052187       0.00190651
Ni       1.75097144      37.00994034      24.66438032       0.60000000      -0.00957835      -0.00871266       0.00067978       0.00179712
Ni      -0.01055799      35.24466464      28.19076900       0.60000000      -0.00654634       0.14841188       0.03283583       0.03764322
Ni      -0.00881385      37.00638770      29.95361541       0.60000000      -0.00678699       0.12791576       0.02932642       0.03285606
Ni       1.75137714      35.24433515      29.95343156       0.60000000      -0.00943962      -0.00721214       0.00022770       0.00124501
Ni       1.75199165      37.00788098      28.19036104       0.60000000      -0.00942957      -0.00724696       0.00027551       0.00148940
Ni      -0.00914984      35.24315180      31.71663814       0.60000000      -0.00667989       0.13548874       0.03262032       0.03457573
Ni      -0.00750517      37.00518908      33.47917958       0.60000000      -0.00691937       0.11415544       0.02766949       0.02904747
Ni       1.75320590      35.24285188      33.47952554       0.60000000      -0.00915426      -0.00623116       0.00012547       0.00042961
Ni       1.75343518      37.00619123      31.71635635       0.60000000      -0.00920085      -0.00608600       0.00003464       0.00078064
Ni      -0.00758746      35.24216241      35.24216241       0.60000000      -0.00689189       0.11614551       0.02899382       0.02899382
Ni      -0.00617799      37.00438006      37.00438006       0.60000000      -0.00708909       0.09679420       0.02395125       0.02395125
Ni       1.75499752      35.24200685      37.00504030       0.60000000      -0.00895721      -0.00535165       0.00014834      -0.00000101
Ni       1.75499752      37.00504030      35.24200685       0.60000000      -0.00895721      -0.00535165      -0.00000101       0.00014834
Ni      -0.00612198      35.24158385      38.76719300       0.60000000      -0.00816835       0.09528320       0.02401130       0.02650371
Ni      -0.00498985      37.00385845      40.52915405       0.60000000      -0.00708571       0.07573983       0.03525990      -0.03834300
Ni       1.75652179      35.24154647      40.52991971       0.60000000      -0.00872790      -0.01157601       0.01821625      -0.06564167
Ni       1.75642573      37.00431885      38.76713081       0.60000000      -0.00987870      -0.00434282       0.00006102       0.00337540
Ni      -0.00537809      38.76984793      -0.00537809       0.60000000      -0.00822143       0.05820220      -0.01216206       0.05820220
Ni      -0.00542485      40.53216964       1.75684458       0.60000000      -0.00818315       0.04957045      -0.06477845      -0.00037267
Ni       1.75596807      38.77101280       1.75596807       0.60000000      -0.01055253      -0.00350746       0.00388924      -0.00350746
Ni       1.75684458      40.53216964      -0.00542485       0.60000000      -0.00818315      -0.00037267      -0.06477845       0.04957045
Ni      -0.00629909      38.77092013       3.51833078       0.60000000      -0.00857407       0.05225342      -0.00374290      -0.00016106
Ni      -0.00624006      40.53313132       5.28066600       0.60000000      -0.00719743       0.05721674      -0.07479970       0.00608151
Ni       1.75492776      38.77231785       5.27964538       0.60000000      -0.01000101      -0.00450121       0.00482843      -0.00059647
Ni       1.75596807      40.53331796       3.51827323       0.60000000      -0.00839999      -0.00227863      -0.06457867       0.00229787
Ni      -0.00724558      38.77195443       7.04216594       0.60000000      -0.00870056       0.06136279      -0.00263471       0.00198986
Ni      -0.00702840      40.53397527       8.80463602       0.60000000      -0.00707029       0.06570993      -0.08354496       0.01162488
Ni       1.75388829      38.77352397       8.80348405       0.60000000      -0.01038773      -0.00554609       0.00570449      -0.00046510
Ni       1.75507637      40.53444311       7.04209602       0.60000000      -0.00849975      -0.00435306      -0.07542309       0.00484385
Ni      -0.00813762      38.77277333      10.56619075       0.60000000      -0.00880011       0.07218784       0.00025549       0.00565107
Ni      -0.00770898      40.53453539      12.32881139       0.60000000      -0.00693559       0.07533597      -0.08891260       0.01949659
Ni       1.75295688      38.77437803      12.32756309       0.60000000      -0.01077583      -0.00660601       0.00644657      -0.00014115
Ni       1.75425058      40.53536459      10.56610728       0.60000000      -0.00861563      -0.00694308      -0.08557131       0.00871439
Ni      -0.00887142      38.77316514      14.09047378       0.60000000      -0.00884077       0.08497955       0.00554078       0.01110688
Ni      -0.00818910      40.53465034      15.85324700       0.60000000      -0.00680918       0.08584239      -0.08923311       0.02910370
Ni       1.75226419      38.77460590      15.85196869       0.60000000      -0.01108403      -0.00751230       0.00690797       0.00041109
Ni       1.75359349      40.53586280      14.09037676       0.60000000      -0.00873913      -0.00963789      -0.09346838       0.01383558
Ni      -0.00933256      38.77295995      17.61507861       0.60000000      -0.00879325       0.09881539       0.01290805       0.01783719
Ni      -0.00838068      40.53423496      19.37798167       0.60000000      -0.00671020       0.09575904      -0.08417008       0.03870905
Ni       1.75194395      38.77403634      19.37677960       0.60000000      -0.01124625      -0.00792394       0.00692203       0.00105214
Ni       1.75321446      40.53575425      17.61497042       0.60000000      -0.00885939      -0.01182700      -0.09764921       0.01935326
Ni      -0.00941841      38.77212936      21.14004149       0.60000000      -0.00865534       0.11092500       0.02072292       0.02434139
Ni      -0.00822346      40.53334442      22.90301395       0.60000000      -0.00666222       0.10249382      -0.07508308       0.04590222
Ni       1.75210147      38.77273466      22.90202991       0.60000000      -0.01122113      -0.00757880       0.00642588       0.00150238
Ni       1.75320572      40.53499335      21.13992840       0.60000000      -0.00895154      -0.01303502      -0.09733005       0.02382566
Ni      -0.00907074      38.77084532      24.66533415       0.60000000      -0.00847272       0.11769031       0.02680041       0.02872713
Ni      -0.00771213      40.53217664      26.42827400       0.60000000      -0.00668585       0.10365795      -0.06431262       0.04880801
Ni       1.75276786      38.77103522      26.42764922       0.60000000      -0.01100617      -0.00664802       0.00556836       0.00148227
Ni       1.75361119      40.53373723      24.66522668       0.60000000      -0.00898682      -0.01323404      -0.09275753       0.02590504
Ni      -0.00831373      38.76942402      28.19082997       0.60000000      -0.00831303       0.11677603       0.02968546       0.02983849
Ni      -0.00691492      40.53098509      29.95361624       0.60000000      -0.00678229       0.09852247      -0.05400166       0.04710113
Ni       1.75385183      38.76938057      29.95342405       0.60000000      -0.01065859      -0.00564723       0.00465222       0.00102334
Ni       1.75439323      40.53229685      28.19074025       0.60000000      -0.00895090      -0.01282940      -0.08503986       0.02512838
Ni      -0.00727050      38.76816076      31.71631758       0.60000000      -0.00821467       0.10846803       0.02927448       0.02787668
Ni      -0.00596077      40.52995630      33.47885922       0.60000000      -0.00692720       0.08839679      -0.04529648       0.04197035
Ni       1.75514647      38.76806371      33.47905776       0.60000000      -0.01025838      -0.00491405       0.00392065       0.00042474
Ni       1.75542234      40.53097400      31.71625378       0.60000000      -0.00885690      -0.01224557      -0.07559136       0.02215760
Ni      -0.00612198      38.76719300      35.24158385       0.60000000      -0.00816835       0.09528320       0.02650371       0.02401130
Ni      -0.00498985      40.52915405      37.00385845       0.60000000      -0.00708571       0.07573983      -0.03834300       0.03525990
Ni       1.75642573      38.76713081      37.00431885       0.60000000      -0.00987870      -0.00434282       0.00337540       0.00006102
Ni       1.75652179      40.52991971      35.24154647       0.60000000      -0.00872790      -0.01157601      -0.06564167       0.01821625
Ni      -0.00502778      38.76650626      38.76650626       0.60000000      -0.00906153       0.08028671       0.02264936       0.02264936
Ni      -0.00410343      40.52855432      40.52855432       0.60000000      -0.00706309       0.05860631      -0.02548746      -0.02548746
Ni       1.75754436      38.76648974      40.52913450       0.60000000      -0.00952325      -0.01070540       0.01749659      -0.05599536
Ni       1.75754436      40.52913450      38.76648974       0.60000000      -0.00952325      -0.01070540      -0.05599536       0.01749659
Ni       3.52097337      -0.00407769      -0.00407769       0.60000000      -0.00721944      -0.02065622       0.05211339       0.05211339
Ni       3.52018912       1.75754436       1.75754436       0.60000000      -0.00993897      -0.00011359      -0.00417897      -0.00417897
Ni       5.28290207      -0.00498985       1.75760647       0.60000000      -0.00848117      -0.01238843       0.07721452      -0.01559787
Ni       5.28290207       1.75760647      -0.00498985       0.60000000      -0.00848117      -0.01238843      -0.01559787       0.07721452
Ni       3.52021256      -0.00502778       3.52021256       0.60000000      -0.00730561      -0.01217286       0.07803773      -0.01217286
Ni       3.51918764       1.75642573       5.28199960       0.60000000      -0.00892065      -0.00013631      -0.00499539      -0.00019073
Ni       5.28205129      -0.00617799       5.28205129       0.60000000      -0.00718219      -0.01472703       0.09387605      -0.01472703
Ni       5.28199960       1.75642573       3.51918764       0.60000000      -0.00892065      -0.00019073      -0.00499539      -0.00013631
Ni       3.51929888      -0.00612198       7.04490803       0.60000000      -0.00719462      -0.01406326       0.09261711      -0.01509779
Ni       3.51801289       1.75514647       8.80701884       0.60000000      -0.00912406      -0.00008455      -0.00573861      -0.00044991
Ni       5.28102402      -0.00750517       8.80703352       0.60000000      -0.00703069      -0.01681187       0.11103663      -0.01830206
Ni       5.28085096       1.75499752       7.04388441       0.60000000      -0.00913237      -0.00017486      -0.00596446      -0.00033217
Ni       3.51828883      -0.00727050      10.57013202       0.60000000      -0.00707865      -0.01555061       0.10611617      -0.01825092
Ni       3.51678511       1.75385183      12.33274162       0.60000000      -0.00930567       0.00000262      -0.00630889      -0.00066412
Ni       5.27990752      -0.00881385      12.33267981       0.60000000      -0.00688301      -0.01817442       0.12568938      -0.02188299
Ni       5.27951213       1.75343518      10.56934701       0.60000000      -0.00931248      -0.00011017      -0.00689489      -0.00063164
Ni       3.51730709      -0.00831373      14.09590114       0.60000000      -0.00698546      -0.01626933       0.11577034      -0.02110991
Ni       3.51570944       1.75276786      15.85909544       0.60000000      -0.00944247       0.00006340      -0.00664068      -0.00077186
Ni       5.27887243      -0.00987487      15.85892210       0.60000000      -0.00678719      -0.01834539       0.13407963      -0.02480427
Ni       5.27816782       1.75199165      14.09568776       0.60000000      -0.00947066      -0.00000007      -0.00752090      -0.00083905
Ni       3.51651634      -0.00907074      17.62202752       0.60000000      -0.00694972      -0.01592057       0.11883913      -0.02304086
Ni       3.51499004       1.75210147      19.38569479       0.60000000      -0.00949824      -0.00004018      -0.00680093      -0.00075705
Ni       5.27811090      -0.01048748      19.38540773       0.60000000      -0.00678579      -0.01705183       0.13328136      -0.02623728
Ni       5.27708561       1.75097144      17.62264563       0.60000000      -0.00959611       0.00004745      -0.00781595      -0.00094274
Ni       3.51605005      -0.00941841      21.14813793       0.60000000      -0.00698849      -0.01437040       0.11410744      -0.02341552
Ni       3.51473544       1.75194395      22.91199218       0.60000000      -0.00944555      -0.00034702      -0.00681287      -0.00061302
Ni       5.27775009      -0.01057167      22.91162985       0.60000000      -0.00688097      -0.01431924       0.12322411      -0.02553913
Ni       5.27647616       1.75056136      21.14957869       0.60000000      -0.00962470      -0.00014851      -0.00793878      -0.00090630
Ni       3.51596413      -0.00933256      24.67384547       0.60000000      -0.00708624      -0.01172494       0.10290659      -0.02195453
Ni       3.51493967       1.75226419      26.43757687       0.60000000      -0.00929741      -0.00070666      -0.00658631      -0.00035731
Ni       5.27781618      -0.01017177      26.43719532       0.60000000      -0.00703135      -0.01054044       0.10717136      -0.02271250
Ni       5.27640737       1.75076510      24.67583082       0.60000000      -0.00949721      -0.00052443      -0.00794810      -0.00064917
Ni       3.51623558      -0.00887142      28.19892694       0.60000000      -0.00720784      -0.00841257       0.08854350      -0.01893045
Ni       3.51551785       1.75295688      29.96233278       0.60000000      -0.00909268      -0.00094597      -0.00610664      -0.00003246
Ni       5.27825134      -0.00940452      29.96197854       0.60000000      -0.00718831      -0.00646796       0.08979601      -0.01842230
Ni       5.27682426       1.75146518      28.20108439       0.60000000      -0.00921556      -0.00083848      -0.00784786      -0.00027702
Ni       3.51678762      -0.00813762      31.72337020       0.60000000      -0.00732329      -0.00508068       0.07437335      -0.01501591
Ni       3.51634759       1.75388829      33.48638751       0.60000000      -0.00888814      -0.00097630      -0.00540827       0.00024113
Ni       5.27894913      -0.00840995      33.48608619       0.60000000      -0.00732240      -0.00289555       0.07440492      -0.01363872
Ni       5.27760139       1.75249801      31.72539846       0.60000000      -0.00892263      -0.00096363      -0.00733540       0.00009544
Ni       3.51751927      -0.00724558      35.24730776       0.60000000      -0.00741660      -0.00228525       0.06219143      -0.01099439
Ni       3.51730198       1.75492776      37.00997444       0.60000000      -0.00872692      -0.00081351      -0.00454421       0.00047403
Ni       5.27978946      -0.00731998      37.00973285       0.60000000      -0.00742436      -0.00027654       0.06189250      -0.00918920
Ni       5.27858840       1.75369884      35.24904254       0.60000000      -0.00872900      -0.00087807      -0.00630281       0.00035043
Ni       3.51833078      -0.00629909      38.77092013       0.60000000      -0.00857407      -0.00016106       0.05225342      -0.00374290
Ni       3.51827323       1.75596807      40.53331796       0.60000000      -0.00839999       0.00229787      -0.00227863      -0.06457867
Ni       5.28066600      -0.00624006      40.53313132       0.60000000      -0.00719743       0.00608151       0.05721674      -0.07479970
Ni       5.27964538       1.75492776      38.77231785       0.60000000      -0.01000101      -0.00059647      -0.00450121       0.00482843
Ni       3.52021256       3.52021256      -0.00502778       0.60000000      -0.00730561      -0.01217286      -0.01217286       0.07803773
Ni       3.51918764       5.28199960       1.75642573       0.60000000      -0.00892065      -0.00013631      -0.00019073      -0.00499539
Ni       5.28199960       3.51918764       1.75642573       0.60000000      -0.00892065      -0.00019073      -0.00013631      -0.00499539
Ni       5.28205129       5.28205129      -0.00617799       0.60000000      -0.00718219      -0.01472703      -0.01472703       0.09387605
Ni       3.51914910       3.51914910       3.51914910       0.60000000      -0.00743629      -0.00022855      -0.00022855      -0.00022855
Ni       3.51776639       5.28075828       5.28075828       0.60000000      -0.00738942       0.00223296       0.00092993       0.00092993
Ni       5.28075828       3.51776639       5.28075828       0.60000000      -0.00738942       0.00092993       0.00223296       0.00092993
Ni       5.28075828       5.28075828       3.51776639       0.60000000      -0.00738942       0.00092993       0.00092993       0.00223296
Ni       3.51783047       3.51783047       7.04385712       0.60000000      -0.00738960       0.00105012       0.00105012      -0.00050100
Ni       3.51604567       5.27920764       8.80585481       0.60000000      -0.00733412       0.00606869       0.00260713       0.00258690
Ni       5.27920764       3.51604567       8.80585481       0.60000000      -0.00733412       0.00260713       0.00606869       0.00258690
Ni       5.27945891       5.27945891       7.04276839       0.60000000      -0.00723826       0.00051003       0.00051003       0.00003029
Ni       3.51634524       3.51634524      10.56935458       0.60000000      -0.00736833       0.00346486       0.00346486      -0.00086007
Ni       3.51423386       5.27750839      12.33204788       0.60000000      -0.00726911       0.01014731       0.00632096       0.00238067
Ni       5.27750839       3.51423386      12.33204788       0.60000000      -0.00726911       0.00632096       0.01014731       0.00238067
Ni       5.27816411       5.27816411      10.56913713       0.60000000      -0.00731784      -0.00071309      -0.00071309      -0.00171968
Ni       3.51492323       3.51492323      14.09576122       0.60000000      -0.00739412       0.00537163       0.00537163      -0.00092673
Ni       3.51272013       5.27600534      15.85933568       0.60000000      -0.00725451       0.01072432       0.00902281      -0.00212001
Ni       5.27600534       3.51272013      15.85933568       0.60000000      -0.00725451       0.00902281       0.01072432      -0.00212001
Ni       5.27670021       5.27670021      14.09607244       0.60000000      -0.00735612      -0.00109782      -0.00109782      -0.00164721
Ni       3.51386146       3.51386146      17.62280217       0.60000000      -0.00746386       0.00553199       0.00553199      -0.00065151
Ni       3.51185449       5.27504411      19.38706734       0.60000000      -0.00733282       0.00885973       0.00788435      -0.00898968
Ni       5.27504411       3.51185449      19.38706734       0.60000000      -0.00733282       0.00788435       0.00885973      -0.00898968
Ni       5.27526992       5.27526992      17.62234417       0.60000000      -0.00740057      -0.00121756      -0.00121756       0.00132252
Ni       3.51335916       3.51335916      21.14980227       0.60000000      -0.00751477       0.00396044       0.00396044      -0.00027261
Ni       3.51174259       5.27476922      22.91425098       0.60000000      -0.00749623       0.00939162       0.00534008      -0.01104252
Ni       5.27476922       3.51174259      22.91425098       0.60000000      -0.00749623       0.00534008       0.00939162      -0.01104252
Ni       5.27428667       5.27428667      21.14846998       0.60000000      -0.00742274      -0.00000549      -0.00000549       0.00421339
Ni       3.51344469       3.51344469      24.67608194       0.60000000      -0.00756699       0.00325233       0.00325233      -0.00000422
Ni       3.51228585       5.27513105      26.44022528       0.60000000      -0.00757260       0.01171326       0.00616647      -0.00824932
Ni       5.27513105       3.51228585      26.44022528       0.60000000      -0.00757260       0.00616647       0.01171326      -0.00824932
Ni       5.27451137       5.27451137      24.67570425       0.60000000      -0.00750624       0.00018696       0.00018696       0.00167508
Ni       3.51402506       3.51402506      28.20132485       0.60000000      -0.00766307       0.00584284       0.00584284       0.00031885
Ni       3.51330138       5.27597966      29.96491041       0.60000000      -0.00760398       0.01649722       0.00997957      -0.00836875
Ni       5.27597966       3.51330138      29.96491041       0.60000000      -0.00760398       0.00997957       0.01649722      -0.00836875
Ni       5.27642743       5.27642743      28.20139098       0.60000000      -0.00768757      -0.00302257      -0.00302257       0.00227974
Ni       3.51495214       3.51495214      31.72560520       0.60000000      -0.00770186       0.00762584       0.00762584       0.00075495
Ni       3.51458977       5.27712903      33.48861674       0.60000000      -0.00763936       0.01798454       0.00996571      -0.00975751
Ni       5.27712903       3.51458977      33.48861674       0.60000000      -0.00763936       0.00996571       0.01798454      -0.00975751
Ni       5.27841836       5.27841836      31.72490549       0.60000000      -0.00784598      -0.00378794      -0.00378794       0.00429107
Ni       3.51606654       3.51606654      35.24920796       0.60000000      -0.00769785       0.00645060       0.00645060       0.00099387
Ni       3.51596988       5.27839894      37.01176291       0.60000000      -0.00776254       0.01352746       0.00522287      -0.00769508
Ni       5.27839894       3.51596988      37.01176291       0.60000000      -0.00776254       0.00522287       0.01352746      -0.00769508
Ni       5.27951107       5.27951107      35.24828536       0.60000000      -0.00778008      -0.00359639      -0.00359639       0.00635404
Ni       3.51722737       3.51722737      38.77244430       0.60000000      -0.00890320      -0.00104236      -0.00104236       0.00516555
Ni       3.51730198       5.27964538      40.53469207       0.60000000      -0.00735507       0.00086148       0.00277365      -0.07698498
Ni       5.27964538       3.51730198      40.53469207       0.60000000      -0.00735507       0.00277365       0.00086148      -0.07698498
Ni       5.27839894       5.27839894      38.77419197       0.60000000      -0.00922376       0.00578495       0.00578495      -0.00715663
Ni       3.51929888       7.04490803      -0.00612198       0.60000000      -0.00719462      -0.01406326      -0.01509779       0.09261711
Ni       3.51801289       8.80701884       1.75514647       0.60000000      -0.00912406      -0.00008455      -0.00044991      -0.00573861
Ni       5.28085096       7.04388441       1.75499752       0.60000000      -0.00913237      -0.00017486      -0.00033217      -0.00596446
Ni       5.28102402       8.80703352      -0.00750517       0.60000000      -0.00703069      -0.01681187      -0.01830206       0.11103663
Ni       3.51783047       7.04385712       3.51783047       0.60000000      -0.00738960       0.00105012      -0.00050100       0.00105012
Ni       3.51604567       8.80585481       5.27920764       0.60000000      -0.00733412       0.00606869       0.00258690       0.00260713
Ni       5.27945891       7.04276839       5.27945891       0.60000000      -0.00723826       0.00051003       0.00003029       0.00051003
Ni       5.27920764       8.80585481       3.51604567       0.60000000      -0.00733412       0.00260713       0.00258690       0.00606869
Ni       3.51593862       7.04241459       7.04241459       0.60000000      -0.00730775       0.00558865       0.00233717       0.00233717
Ni       3.51357038       8.80419396       8.80419396       0.60000000      -0.00721426       0.00936343       0.00336452       0.00336452
Ni       5.27773110       7.04119762       8.80496783       0.60000000      -0.00712884      -0.00026518       0.00016826      -0.00038396
Ni       5.27773110       8.80496783       7.04119762       0.60000000      -0.00712884      -0.00026518      -0.00038396       0.00016826
Ni       3.51374776       7.04060487      10.56810320       0.60000000      -0.00722306       0.01046685       0.00413941       0.00431876
Ni       3.51091438       8.80210650      12.33075322       0.60000000      -0.00713729       0.01263003       0.00482070       0.00316214
Ni       5.27620524       7.04002970      12.33244252       0.60000000      -0.00723313      -0.00271355      -0.00261142      -0.00435137
Ni       5.27533373       8.80292430      10.56721550       0.60000000      -0.00719464      -0.00173734      -0.00160884      -0.00224987
Ni       3.51167777       7.03870461      14.09526283       0.60000000      -0.00715347       0.01342672       0.00837614       0.00184653
Ni       3.50879450       8.80003178      15.85912902       0.60000000      -0.00704554       0.00991838       0.00700679      -0.00493621
Ni       5.27462713       7.03887264      15.85944793       0.60000000      -0.00735163      -0.00445916      -0.00463755      -0.00383195
Ni       5.27329079       8.80175066      14.09510029       0.60000000      -0.00735585      -0.00640303      -0.00723949      -0.00703287
Ni       3.51028344       7.03718674      17.62355627       0.60000000      -0.00712747       0.01038338       0.00962056      -0.00876647
Ni       3.50781775       8.79855246      19.38834311       0.60000000      -0.00710101       0.00679924       0.00779055      -0.01749119
Ni       5.27303542       7.03739218      19.38462021       0.60000000      -0.00735919      -0.00252433      -0.00372122       0.00395404
Ni       5.27118672       8.80043296      17.62183100       0.60000000      -0.00737614      -0.00555720      -0.00716391      -0.00264498
Ni       3.50984576       7.03639362      21.15179391       0.60000000      -0.00728946       0.00965723       0.00764326      -0.01834566
Ni       3.50802787       8.79796256      22.91669171       0.60000000      -0.00730922       0.00981491       0.00732912      -0.02565199
Ni       5.27276656       7.03618865      22.91063916       0.60000000      -0.00735215      -0.00088693      -0.00012708       0.00581190
Ni       5.27032069       8.79881281      21.14770484       0.60000000      -0.00734042      -0.00232007      -0.00412453       0.00342048
Ni       3.51028488       7.03638432      24.67880634       0.60000000      -0.00749056       0.01294773       0.00670016      -0.01964880
Ni       3.50912754       8.79823678      26.44313515       0.60000000      -0.00748426       0.01524123       0.00837142      -0.02701367
Ni       5.27414646       7.03742234      26.43746468       0.60000000      -0.00741987      -0.00111023      -0.00193260       0.00359331
Ni       5.27157156       8.79844367      24.67339325       0.60000000      -0.00745420      -0.00136606      -0.00123652       0.00604433
Ni       3.51136668       7.03703620      28.20417458       0.60000000      -0.00746819       0.01586955       0.00814109      -0.01681029
Ni       3.51077641       8.79918092      29.96767821       0.60000000      -0.00740922       0.01686638       0.00740529      -0.02240470
Ni       5.27708226       7.04009192      29.96191460       0.60000000      -0.00754347      -0.00488287      -0.00498378       0.00644366
Ni       5.27378388       8.80040011      28.19932997       0.60000000      -0.00744805      -0.00027784      -0.00301509       0.00314799
Ni       3.51283694       7.03814623      31.72815237       0.60000000      -0.00748286       0.02019273       0.00976139      -0.01714923
Ni       3.51267688       8.80053245      33.49091454       0.60000000      -0.00750570       0.01996833       0.00594498      -0.01861914
Ni       5.27907488       7.04153252      33.48556549       0.60000000      -0.00758044      -0.00538714      -0.00512255       0.00900104
Ni       5.27712004       8.80198393      31.72385226       0.60000000      -0.00755194      -0.00453442      -0.00337245       0.00603199
Ni       3.51446497       7.03949175      35.25126999       0.60000000      -0.00761346       0.01990679       0.00706046      -0.01398188
Ni       3.51458977       8.80203342      37.01352113       0.60000000      -0.00770664       0.01582098       0.00336769      -0.01118389
Ni       5.27931737       7.04132911      37.01126898       0.60000000      -0.00766565      -0.00399465      -0.00433428       0.00411242
Ni       5.27862639       8.80250415      35.24916049       0.60000000      -0.00753622      -0.00419113      -0.00229657       0.00556958
Ni       3.51606654       7.04087748      38.77401891       0.60000000      -0.00926725       0.00634252      -0.00110144      -0.00156575
Ni       3.51634759       8.80348405      40.53598327       0.60000000      -0.00724921      -0.00117136       0.00626624      -0.08958668
Ni       5.27858840       7.04097092      40.53631463       0.60000000      -0.00705094       0.00110591       0.00370456      -0.09112249
Ni       5.27712903       8.80203342      38.77606039       0.60000000      -0.00943518       0.00861192       0.00355601      -0.00886573
Ni       3.51828883      10.57013202      -0.00727050       0.60000000      -0.00707865      -0.01555061      -0.01825092       0.10611617
Ni       3.51678511      12.33274162       1.75385183       0.60000000      -0.00930567       0.00000262      -0.00066412      -0.00630889
Ni       5.27951213      10.56934701       1.75343518       0.60000000      -0.00931248      -0.00011017      -0.00063164      -0.00689489
Ni       5.27990752      12.33267981      -0.00881385       0.60000000      -0.00688301      -0.01817442      -0.02188299       0.12568938
Ni       3.51634524      10.56935458       3.51634524       0.60000000      -0.00736833       0.00346486      -0.00086007       0.00346486
Ni       3.51423386      12.33204788       5.27750839       0.60000000      -0.00726911       0.01014731       0.00238067       0.00632096
Ni       5.27816411      10.56913713       5.27816411       0.60000000      -0.00731784      -0.00071309      -0.00171968      -0.00071309
Ni       5.27750839      12.33204788       3.51423386       0.60000000      -0.00726911       0.00632096       0.00238067       0.01014731
Ni       3.51374776      10.56810320       7.04060487       0.60000000      -0.00722306       0.01046685       0.00431876       0.00413941
Ni       3.51091438      12.33075322       8.80210650       0.60000000      -0.00713729       0.01263003       0.00316214       0.00482070
Ni       5.27533373      10.56721550       8.80292430       0.60000000      -0.00719464      -0.00173734      -0.00224987      -0.00160884
Ni       5.27620524      12.33244252       7.04002970       0.60000000      -0.00723313      -0.00271355      -0.00435137      -0.00261142
Ni       3.51062909      10.56621195      10.56621195       0.60000000      -0.00710802       0.01093561       0.00245901       0.00245901
Ni       3.50723037      12.32859407      12.32859407       0.60000000      -0.00693445       0.00541122      -0.00412959      -0.00412959
Ni       5.27207649      10.56430500      12.32885524       0.60000000      -0.00731859      -0.00584540      -0.00415750      -0.00355161
Ni       5.27207649      12.32885524      10.56430500       0.60000000      -0.00731859      -0.00584540      -0.00355161      -0.00415750
Ni       3.50766339      10.56382061      14.09394544       0.60000000      -0.00700178       0.00762547       0.00103440      -0.00467614
Ni       3.50429067      12.32581307      15.85767496       0.60000000      -0.00692811       0.00050890      -0.00434338      -0.01527660
Ni       5.26860091      10.56240620      15.85664840       0.60000000      -0.00725934      -0.00582121      -0.00626101      -0.00495280
Ni       5.26677334      12.32461795      14.08946899       0.60000000      -0.00724209      -0.00451402      -0.00048300       0.00096365
Ni       3.50583938      10.56157284      17.62359987       0.60000000      -0.00698354       0.00286356       0.00294539      -0.01489231
Ni       3.50314019      12.32333758      19.38833808       0.60000000      -0.00713980       0.00426500       0.00524107      -0.02170496
Ni       5.26694953      10.56093828      19.38465567       0.60000000      -0.00726362      -0.00122444      -0.00247631      -0.00107740
Ni       5.26296937      12.32246480      17.61864348       0.60000000      -0.00714076       0.00449328       0.00300191       0.00082571
Ni       3.50557741      10.56014380      21.15336239       0.60000000      -0.00718489       0.00593389       0.00806068      -0.02480736
Ni       3.50379840      12.32195859      22.91810667       0.60000000      -0.00720436       0.00565533       0.00882709      -0.03293434
Ni       5.26804631      10.56038738      22.91117883       0.60000000      -0.00735301      -0.00056193      -0.00189307       0.00117888
Ni       5.26418818      12.32247247      21.14800885       0.60000000      -0.00736034      -0.00038921      -0.00077740      -0.00194151
Ni       3.50658445      10.55977357      24.68133286       0.60000000      -0.00732238       0.01019092       0.00798838      -0.03195014
Ni       3.50565872      12.32184211      26.44530000       0.60000000      -0.00738397       0.01197275       0.00886409      -0.03566937
Ni       5.27061888      10.56120841      26.43608246       0.60000000      -0.00747800      -0.00071860      -0.00283514       0.00509964
Ni       5.26635786      12.32283512      24.67380913       0.60000000      -0.00726990       0.00099833      -0.00216911       0.00393861
Ni       3.50838463      10.56034720      28.20690210       0.60000000      -0.00748360       0.01603379       0.00800288      -0.03089510
Ni       3.50812872      12.32273525      29.96987277       0.60000000      -0.00753221       0.01743974       0.00536853      -0.02842354
Ni       5.27345571      10.56193254      29.96240105       0.60000000      -0.00741697       0.00109699      -0.00059656       0.00073124
Ni       5.26989376      12.32296940      28.19987079       0.60000000      -0.00744817       0.00189109      -0.00104313       0.00295735
Ni       3.51057299      10.56157782      31.73055193       0.60000000      -0.00745067       0.01723158       0.00360853      -0.02190693
Ni       3.51077641      12.32423086      33.49272815       0.60000000      -0.00753026       0.01806714       0.00047454      -0.01813311
Ni       5.27669983      10.56247863      33.48772639       0.60000000      -0.00760513      -0.00236481       0.00157824       0.00315088
Ni       5.27351837      12.32260464      31.72644830       0.60000000      -0.00748670       0.00137438       0.00278495      -0.00011481
Ni       3.51283694      10.56313487      35.25314102       0.60000000      -0.00759533       0.01881273       0.00282042      -0.01462985
Ni       3.51330138      12.32593561      37.01486636       0.60000000      -0.00772730       0.01620673       0.00151728      -0.01080130
Ni       5.27794612      10.56394233      37.01308788       0.60000000      -0.00778534      -0.00373817      -0.00230726       0.00387660
Ni       5.27660344      12.32450891      35.25114714       0.60000000      -0.00752740      -0.00168806      -0.00015691       0.00303105
Ni       3.51495214      10.56473474      38.77538780       0.60000000      -0.00950961       0.00648474      -0.00077671      -0.00115241
Ni       3.51551785      12.32756309      40.53693899       0.60000000      -0.00714958      -0.00364916       0.01152958      -0.10068030
Ni       5.27760139      10.56485029      40.53775073       0.60000000      -0.00690542      -0.00146949       0.00853286      -0.10542952
Ni       5.27597966      12.32593561      38.77754464       0.60000000      -0.00972205       0.00908645       0.00191156      -0.01032651
Ni       3.51730709      14.09590114      -0.00831373       0.60000000      -0.00698546      -0.01626933      -0.02110991       0.11577034
Ni       3.51570944      15.85909544       1.75276786       0.60000000      -0.00944247       0.00006340      -0.00077186      -0.00664068
Ni       5.27816782      14.09568776       1.75199165       0.60000000      -0.00947066      -0.00000007      -0.00083905      -0.00752090
Ni       5.27887243      15.85892210      -0.00987487       0.60000000      -0.00678719      -0.01834539      -0.02480427       0.13407963
Ni       3.51492323      14.09576122       3.51492323       0.60000000      -0.00739412       0.00537163      -0.00092673       0.00537163
Ni       3.51272013      15.85933568       5.27600534       0.60000000      -0.00725451       0.01072432      -0.00212001       0.00902281
Ni       5.27670021      14.09607244       5.27670021       0.60000000      -0.00735612      -0.00109782      -0.00164721      -0.00109782
Ni       5.27600534      15.85933568       3.51272013       0.60000000      -0.00725451       0.00902281      -0.00212001       0.01072432
Ni       3.51167777      14.09526283       7.03870461       0.60000000      -0.00715347       0.01342672       0.00184653       0.00837614
Ni       3.50879450      15.85912902       8.80003178       0.60000000      -0.00704554       0.00991838      -0.00493621       0.00700679
Ni       5.27329079      14.09510029       8.80175066       0.60000000      -0.00735585      -0.00640303      -0.00703287      -0.00723949
Ni       5.27462713      15.85944793       7.03887264       0.60000000      -0.00735163      -0.00445916      -0.00383195      -0.00463755
Ni       3.50766339      14.09394544      10.56382061       0.60000000      -0.00700178       0.00762547      -0.00467614       0.00103440
Ni       3.50429067      15.85767496      12.32581307       0.60000000      -0.00692811       0.00050890      -0.01527660      -0.00434338
Ni       5.26677334      14.08946899      12.32461795       0.60000000      -0.00724209      -0.00451402       0.00096365      -0.00048300
Ni       5.26860091      15.85664840      10.56240620       0.60000000      -0.00725934      -0.00582121      -0.00495280      -0.00626101
Ni       3.50368557      14.09137498      14.09137498       0.60000000      -0.00685105      -0.00106404      -0.01214807      -0.01214807
Ni       3.50042197      15.85439373      15.85439373       0.60000000      -0.00709564       0.00610949      -0.01031933      -0.01031933
Ni       5.26056361      14.08538269      15.85091546       0.60000000      -0.00713656       0.00724863       0.00680339       0.00746575
Ni       5.26056361      15.85091546      14.08538269       0.60000000      -0.00713656       0.00724863       0.00746575       0.00680339
Ni       3.50119317      14.08802843      17.62166759       0.60000000      -0.00715414       0.00597501      -0.00103124      -0.01792629
Ni       3.49873233      15.85032365      19.38547926       0.60000000      -0.00694073       0.00552196      -0.00258887      -0.02361633
Ni       5.26055408      14.08461782      19.38218877       0.60000000      -0.00730540      -0.00019468       0.00128072      -0.00313510
Ni       5.25812682      15.84864991      17.61476902       0.60000000      -0.00725601      -0.00053725       0.00009300      -0.00075474
Ni       3.50099600      14.08527426      21.15281734       0.60000000      -0.00705736       0.00428427       0.00605326      -0.03042517
Ni       3.49962409      15.84735389      22.91658987       0.60000000      -0.00715361       0.00921413       0.01045217      -0.03425879
Ni       5.26204118      14.08488866      22.91043220       0.60000000      -0.00722813       0.00226027      -0.00102394       0.00232291
Ni       5.25838829      15.84683238      21.14440580       0.60000000      -0.00713614       0.00180759       0.00364065       0.00319517
Ni       3.50265847      14.08399865      24.68210864       0.60000000      -0.00729468       0.00866124       0.01140495      -0.03696327
Ni       3.50226630      15.84630471      26.44510292       0.60000000      -0.00734195       0.01333793       0.01215937      -0.03372558
Ni       5.26558600      14.08494005      26.43755069       0.60000000      -0.00725604       0.00297900      -0.00090526       0.00250570
Ni       5.26134886      15.84742951      24.67390569       0.60000000      -0.00713544       0.00251828      -0.00261083      -0.00044240
Ni       3.50534003      14.08419778      28.20832350       0.60000000      -0.00748340       0.01597505       0.00886072      -0.03232785
Ni       3.50565872      15.84687943      29.97033731       0.60000000      -0.00753410       0.02082602       0.00814741      -0.02612452
Ni       5.27015687      14.08424763      29.96455620       0.60000000      -0.00748506       0.00183681       0.00038716       0.00011609
Ni       5.26631362      15.84683111      28.20203404       0.60000000      -0.00736217       0.00288833      -0.00015476      -0.00081516
Ni       3.50838463      14.08541845      31.73197335       0.60000000      -0.00756267       0.01932905       0.00254222      -0.02295630
Ni       3.50912754      15.84839784      33.49329621       0.60000000      -0.00754544       0.02093071       0.00315567      -0.01771059
Ni       5.27409652      14.08466416      33.48969377       0.60000000      -0.00747115       0.00147718       0.00432691       0.00069412
Ni       5.27117182      15.84657348      31.72825182       0.60000000      -0.00745614       0.00184076       0.00160920      -0.00232332
Ni       3.51136668      14.08712818      35.25426657       0.60000000      -0.00758857       0.01924744       0.00176912      -0.01400412
Ni       3.51228585      15.85023291      37.01532714       0.60000000      -0.00771072       0.01831295       0.00167634      -0.01167096
Ni       5.27674571      14.08734169      37.01407245       0.60000000      -0.00781682      -0.00298121      -0.00013468       0.00324168
Ni       5.27533055      15.84843346      35.25156001       0.60000000      -0.00749965      -0.00156067       0.00045990       0.00373865
Ni       3.51402506      14.08889850      38.77619828       0.60000000      -0.00967246       0.00688122      -0.00019321      -0.00109708
Ni       3.51493967      15.85196869      40.53728137       0.60000000      -0.00705308      -0.00600711       0.01811261      -0.10821745
Ni       5.27682426      14.08903852      40.53865773       0.60000000      -0.00674642      -0.00448155       0.01559924      -0.11686051
Ni       5.27513105      15.85023291      38.77817234       0.60000000      -0.00983630       0.00966362       0.00184395      -0.01210959
Ni       3.51651634      17.62202752      -0.00907074       0.60000000      -0.00694972      -0.01592057      -0.02304086       0.11883913
Ni       3.51499004      19.38569479       1.75210147       0.60000000      -0.00949824      -0.00004018      -0.00075705      -0.00680093
Ni       5.27708561      17.62264563       1.75097144       0.60000000      -0.00959611       0.00004745      -0.00094274      -0.00781595
Ni       5.27811090      19.38540773      -0.01048748       0.60000000      -0.00678579      -0.01705183      -0.02623728       0.13328136
Ni       3.51386146      17.62280217       3.51386146       0.60000000      -0.00746386       0.00553199      -0.00065151       0.00553199
Ni       3.51185449      19.38706734       5.27504411       0.60000000      -0.00733282       0.00885973      -0.00898968       0.00788435
Ni       5.27526992      17.62234417       5.27526992       0.60000000      -0.00740057      -0.00121756       0.00132252      -0.00121756
Ni       5.27504411      19.38706734       3.51185449       0.60000000      -0.00733282       0.00788435      -0.00898968       0.00885973
Ni       3.51028344      17.62355627       7.03718674       0.60000000      -0.00712747       0.01038338      -0.00876647       0.00962056
Ni       3.50781775      19.38834311       8.79855246       0.60000000      -0.00710101       0.00679924      -0.01749119       0.00779055
Ni       5.27118672      17.62183100       8.80043296       0.60000000      -0.00737614      -0.00555720      -0.00264498      -0.00716391
Ni       5.27303542      19.38462021       7.03739218       0.60000000      -0.00735919      -0.00252433       0.00395404      -0.00372122
Ni       3.50583938      17.62359987      10.56157284       0.60000000      -0.00698354       0.00286356      -0.01489231       0.00294539
Ni       3.50314019      19.38833808      12.32333758       0.60000000      -0.00713980       0.00426500      -0.02170496       0.00524107
Ni       5.26296937      17.61864348      12.32246480       0.60000000      -0.00714076       0.00449328       0.00082571       0.00300191
Ni       5.26694953      19.38465567      10.56093828       0.60000000      -0.00726362      -0.00122444      -0.00107740      -0.00247631
Ni       3.50119317      17.62166759      14.08802843       0.60000000      -0.00715414       0.00597501      -0.01792629      -0.00103124
Ni       3.49873233      19.38547926      15.85032365       0.60000000      -0.00694073       0.00552196      -0.02361633      -0.00258887
Ni       5.25812682      17.61476902      15.84864991       0.60000000      -0.00725601      -0.00053725      -0.00075474       0.00009300
Ni       5.26055408      19.38218877      14.08461782       0.60000000      -0.00730540      -0.00019468      -0.00313510       0.00128072
Ni       3.49782954      17.61736239      17.61736239       0.60000000      -0.00683053       0.00502395      -0.01355737      -0.01355737
Ni       3.49617717      19.38007210      19.38007210       0.60000000      -0.00703298       0.01362301      -0.00855668      -0.00855668
Ni       5.25508346      17.61109142      19.37732433       0.60000000      -0.00703161       0.00700021       0.00448894       0.00478317
Ni       5.25508346      19.37732433      17.61109142       0.60000000      -0.00703161       0.00700021       0.00478317       0.00448894
Ni       3.49716161      17.61260411      21.14876253       0.60000000      -0.00708004       0.01257503       0.00270415      -0.02330134
Ni       3.49662304      19.37489443      22.91140104       0.60000000      -0.00695015       0.01501651       0.00428496      -0.02264016
Ni       5.25812672      17.60968048      22.90756540       0.60000000      -0.00709685      -0.00213775       0.00121188       0.00114690
Ni       5.25530802      19.37482771      21.14127970       0.60000000      -0.00706408      -0.00113281      -0.00228110      -0.00347763
Ni       3.49915270      17.60962096      24.67944780       0.60000000      -0.00713275       0.01313843       0.01162190      -0.03298144
Ni       3.49962409      19.37216914      26.44140513       0.60000000      -0.00717352       0.02114200       0.01428619      -0.02541142
Ni       5.26188930      17.60952488      26.43767244       0.60000000      -0.00717553       0.00573388       0.00016663      -0.00057265
Ni       5.25805215      19.37222674      24.67061799       0.60000000      -0.00709183       0.00699055       0.00413941       0.00394531
Ni       3.50265847      17.60894350      28.20705349       0.60000000      -0.00735786       0.02025126       0.01295962      -0.02703752
Ni       3.50379840      19.37196670      29.96811478       0.60000000      -0.00730154       0.02375707       0.01300458      -0.02244409
Ni       5.26808768      17.60953084      29.96558373       0.60000000      -0.00740777       0.00125851      -0.00069424      -0.00286383
Ni       5.26439072      19.37237098      28.20113772       0.60000000      -0.00718189       0.00037963      -0.00075250      -0.00465102
Ni       3.50658445      17.60990939      31.73146869       0.60000000      -0.00749775       0.02320186       0.00847645      -0.02119221
Ni       3.50802787      19.37326519      33.49199435       0.60000000      -0.00743218       0.02362137       0.00941116      -0.01669260
Ni       5.27280911      17.61050380      33.48974842       0.60000000      -0.00736152       0.00030068       0.00020914       0.00117001
Ni       5.26989781      19.37362567      31.72712175       0.60000000      -0.00732061       0.00219279      -0.00218148      -0.00126857
Ni       3.51028488      17.61164051      35.25406254       0.60000000      -0.00752740       0.02202329       0.00430113      -0.01437787
Ni       3.51174259      19.37507021      37.01455198       0.60000000      -0.00762717       0.01987824       0.00343205      -0.01165378
Ni       5.27605722      17.61181443      37.01387142       0.60000000      -0.00775243      -0.00236449       0.00103954       0.00322663
Ni       5.27469330      19.37420470      35.25087545       0.60000000      -0.00731620      -0.00254241       0.00050260       0.00323614
Ni       3.51344469      17.61347928      38.77611653       0.60000000      -0.00969364       0.00755951       0.00065374      -0.00143567
Ni       3.51473544      19.37677960      40.53682783       0.60000000      -0.00698549      -0.00759396       0.02451159      -0.11068631
Ni       5.27640737      17.61364298      40.53870870       0.60000000      -0.00661398      -0.00710433       0.02373689      -0.12313599
Ni       5.27476922      19.37507021      38.77757861       0.60000000      -0.00979455       0.01021807       0.00308642      -0.01320097
Ni       3.51605005      21.14813793      -0.00941841       0.60000000      -0.00698849      -0.01437040      -0.02341552       0.11410744
Ni       3.51473544      22.91199218       1.75194395       0.60000000      -0.00944555      -0.00034702      -0.00061302      -0.00681287
Ni       5.27647616      21.14957869       1.75056136       0.60000000      -0.00962470      -0.00014851      -0.00090630      -0.00793878
Ni       5.27775009      22.91162985      -0.01057167       0.60000000      -0.00688097      -0.01431924      -0.02553913       0.12322411
Ni       3.51335916      21.14980227       3.51335916       0.60000000      -0.00751477       0.00396044      -0.00027261       0.00396044
Ni       3.51174259      22.91425098       5.27476922       0.60000000      -0.00749623       0.00939162      -0.01104252       0.00534008
Ni       5.27428667      21.14846998       5.27428667       0.60000000      -0.00742274      -0.00000549       0.00421339      -0.00000549
Ni       5.27476922      22.91425098       3.51174259       0.60000000      -0.00749623       0.00534008      -0.01104252       0.00939162
Ni       3.50984576      21.15179391       7.03639362       0.60000000      -0.00728946       0.00965723      -0.01834566       0.00764326
Ni       3.50802787      22.91669171       8.79796256       0.60000000      -0.00730922       0.00981491      -0.02565199       0.00732912
Ni       5.27032069      21.14770484       8.79881281       0.60000000      -0.00734042      -0.00232007       0.00342048      -0.00412453
Ni       5.27276656      22.91063916       7.03618865       0.60000000      -0.00735215      -0.00088693       0.00581190      -0.00012708
Ni       3.50557741      21.15336239      10.56014380       0.60000000      -0.00718489       0.00593389      -0.02480736       0.00806068
Ni       3.50379840      22.91810667      12.32195859       0.60000000      -0.00720436       0.00565533      -0.03293434       0.00882709
Ni       5.26418818      21.14800885      12.32247247       0.60000000      -0.00736034      -0.00038921      -0.00194151      -0.00077740
Ni       5.26804631      22.91117883      10.56038738       0.60000000      -0.00735301      -0.00056193       0.00117888      -0.00189307
Ni       3.50099600      21.15281734      14.08527426       0.60000000      -0.00705736       0.00428427      -0.03042517       0.00605326
Ni       3.49962409      22.91658987      15.84735389       0.60000000      -0.00715361       0.00921413      -0.03425879       0.01045217
Ni       5.25838829      21.14440580      15.84683238       0.60000000      -0.00713614       0.00180759       0.00319517       0.00364065
Ni       5.26204118      22.91043220      14.08488866       0.60000000      -0.00722813       0.00226027       0.00232291      -0.00102394
Ni       3.49716161      21.14876253      17.61260411       0.60000000      -0.00708004       0.01257503      -0.02330134       0.00270415
Ni       3.49662304      22.91140104      19.37489443       0.60000000      -0.00695015       0.01501651      -0.02264016       0.00428496
Ni       5.25530802      21.14127970      19.37482771       0.60000000      -0.00706408      -0.00113281      -0.00347763      -0.00228110
Ni       5.25812672      22.90756540      17.60968048       0.60000000      -0.00709685      -0.00213775       0.00114690       0.00121188
Ni       3.49561127      21.14249237      21.14249237       0.60000000      -0.00686876       0.01583944      -0.00711431      -0.00711431
Ni       3.49617717      22.90472232      22.90472232       0.60000000      -0.00683206       0.02231855      -0.00100345      -0.00100345
Ni       5.25546380      21.13770493      22.90416602       0.60000000      -0.00703717       0.00929533       0.00168922       0.00092858
Ni       5.25546380      22.90416602      21.13770493       0.60000000      -0.00703717       0.00929533       0.00092858       0.00168922
Ni       3.49716161      21.13730211      24.67346053       0.60000000      -0.00693996       0.02193979       0.00950683      -0.01584993
Ni       3.49873233      22.89994853      26.43510414       0.60000000      -0.00686020       0.02669881       0.00969928      -0.01287330
Ni       5.26088404      21.13544662      26.43392702       0.60000000      -0.00704823      -0.00013525       0.00114716      -0.00042657
Ni       5.25864867      22.90085124      24.66725109       0.60000000      -0.00695509       0.00155110      -0.00142222      -0.00215528
Ni       3.50099600      21.13508490      28.20262798       0.60000000      -0.00710978       0.02573020       0.01402666      -0.02136238
Ni       3.50314019      22.89839729      29.96339779       0.60000000      -0.00698777       0.02475821       0.01462730      -0.01753958
Ni       5.26669833      21.13640374      29.96270831       0.60000000      -0.00712345       0.00282707      -0.00211581      -0.00359660
Ni       5.26387732      22.89911422      28.19599437       0.60000000      -0.00701299       0.00191066      -0.00034428      -0.00088801
Ni       3.50557741      21.13537092      31.72858951       0.60000000      -0.00722233       0.02328256       0.01388929      -0.01790944
Ni       3.50781775      22.89907298      33.48886363       0.60000000      -0.00717041       0.02211816       0.01324031      -0.01352473
Ni       5.27205687      21.13771496      33.48801618       0.60000000      -0.00722608       0.00168873      -0.00325224       0.00069687
Ni       5.26928109      22.90051694      31.72356573       0.60000000      -0.00704567       0.00404465      -0.00272432      -0.00053279
Ni       3.50984576      21.13686295      35.25226324       0.60000000      -0.00739615       0.02272422       0.00794336      -0.01278211
Ni       3.51185449      22.90056281      37.01258604       0.60000000      -0.00746473       0.01815847       0.00510179      -0.00994002
Ni       5.27585264      21.13761058      37.01260645       0.60000000      -0.00755994      -0.00305568       0.00011379       0.00286797
Ni       5.27437516      22.90112164      35.24901113       0.60000000      -0.00711786      -0.00083876      -0.00232792       0.00138026
Ni       3.51335916      21.13857452      38.77501763       0.60000000      -0.00955993       0.00774314       0.00149150      -0.00134875
Ni       3.51499004      22.90202991      40.53562322       0.60000000      -0.00696962      -0.00816075       0.02873280      -0.10774152
Ni       5.27647616      21.13875410      40.53777143       0.60000000      -0.00657765      -0.00865056       0.03055303      -0.12311469
Ni       5.27504411      22.90056281      38.77577566       0.60000000      -0.00957195       0.00972264       0.00489539      -0.01077454
Ni       3.51596413      24.67384547      -0.00933256       0.60000000      -0.00708624      -0.01172494      -0.02195453       0.10290659
Ni       3.51493967      26.43757687       1.75226419       0.60000000      -0.00929741      -0.00070666      -0.00035731      -0.00658631
Ni       5.27640737      24.67583082       1.75076510       0.60000000      -0.00949721      -0.00052443      -0.00064917      -0.00794810
Ni       5.27781618      26.43719532      -0.01017177       0.60000000      -0.00703135      -0.01054044      -0.02271250       0.10717136
Ni       3.51344469      24.67608194       3.51344469       0.60000000      -0.00756699       0.00325233      -0.00000422       0.00325233
Ni       3.51228585      26.44022528       5.27513105       0.60000000      -0.00757260       0.01171326      -0.00824932       0.00616647
Ni       5.27451137      24.67570425       5.27451137       0.60000000      -0.00750624       0.00018696       0.00167508       0.00018696
Ni       5.27513105      26.44022528       3.51228585       0.60000000      -0.00757260       0.00616647      -0.00824932       0.01171326
Ni       3.51028488      24.67880634       7.03638432       0.60000000      -0.00749056       0.01294773      -0.01964880       0.00670016
Ni       3.50912754      26.44313515       8.79823678       0.60000000      -0.00748426       0.01524123      -0.02701367       0.00837142
Ni       5.27157156      24.67339325       8.79844367       0.60000000      -0.00745420      -0.00136606       0.00604433      -0.00123652
Ni       5.27414646      26.43746468       7.03742234       0.60000000      -0.00741987      -0.00111023       0.00359331      -0.00193260
Ni       3.50658445      24.68133286      10.55977357       0.60000000      -0.00732238       0.01019092      -0.03195014       0.00798838
Ni       3.50565872      26.44530000      12.32184211       0.60000000      -0.00738397       0.01197275      -0.03566937       0.00886409
Ni       5.26635786      24.67380913      12.32283512       0.60000000      -0.00726990       0.00099833       0.00393861      -0.00216911
Ni       5.27061888      26.43608246      10.56120841       0.60000000      -0.00747800      -0.00071860       0.00509964      -0.00283514
Ni       3.50265847      24.68210864      14.08399865       0.60000000      -0.00729468       0.00866124      -0.03696327       0.01140495
Ni       3.50226630      26.44510292      15.84630471       0.60000000      -0.00734195       0.01333793      -0.03372558       0.01215937
Ni       5.26134886      24.67390569      15.84742951       0.60000000      -0.00713544       0.00251828      -0.00044240      -0.00261083
Ni       5.26558600      26.43755069      14.08494005       0.60000000      -0.00725604       0.00297900       0.00250570      -0.00090526
Ni       3.49915270      24.67944780      17.60962096       0.60000000      -0.00713275       0.01313843      -0.03298144       0.01162190
Ni       3.49962409      26.44140513      19.37216914       0.60000000      -0.00717352       0.02114200      -0.02541142       0.01428619
Ni       5.25805215      24.67061799      19.37222674       0.60000000      -0.00709183       0.00699055       0.00394531       0.00413941
Ni       5.26188930      26.43767244      17.60952488       0.60000000      -0.00717553       0.00573388      -0.00057265       0.00016663
Ni       3.49716161      24.67346053      21.13730211       0.60000000      -0.00693996       0.02193979      -0.01584993       0.00950683
Ni       3.49873233      26.43510414      22.89994853       0.60000000      -0.00686020       0.02669881      -0.01287330       0.00969928
Ni       5.25864867      24.66725109      22.90085124       0.60000000      -0.00695509       0.00155110      -0.00215528      -0.00142222
Ni       5.26088404      26.43392702      21.13544662       0.60000000      -0.00704823      -0.00013525      -0.00042657       0.00114716
Ni       3.49782954      24.66691035      24.66691035       0.60000000      -0.00676736       0.02744516       0.00033267       0.00033267
Ni       3.50042197      26.42920448      26.42920448       0.60000000      -0.00670955       0.02787868       0.00038479       0.00038479
Ni       5.26207202      24.66358212      26.42958781       0.60000000      -0.00689199       0.00245662      -0.00004296      -0.00211641
Ni       5.26207202      26.42958781      24.66358212       0.60000000      -0.00689199       0.00245662      -0.00211641      -0.00004296
Ni       3.50119317      24.66291397      28.19655314       0.60000000      -0.00675963       0.02641919       0.00950738      -0.01044295
Ni       3.50429067      26.42619706      29.95805894       0.60000000      -0.00673679       0.02520361       0.00721216      -0.00897208
Ni       5.26732610      24.66275652      29.95733157       0.60000000      -0.00696515       0.00203685      -0.00019543       0.00101817
Ni       5.26607837      26.42615176      28.19131423       0.60000000      -0.00684062       0.00121764       0.00203042       0.00141845
Ni       3.50583938      24.66204400      31.72407103       0.60000000      -0.00694944       0.02370836       0.01387754      -0.01361004
Ni       3.50879450      26.42585881      33.48495605       0.60000000      -0.00696001       0.02164685       0.00998982      -0.01130082
Ni       5.27243511      24.66418149      33.48469067       0.60000000      -0.00701323       0.00064535      -0.00310323      -0.00034898
Ni       5.27113646      26.42627669      31.71886780       0.60000000      -0.00697438      -0.00110445      -0.00152567       0.00138243
Ni       3.51028344      24.66290959      35.24927912       0.60000000      -0.00718568       0.02017119       0.00989755      -0.01062563
Ni       3.51272013      26.42667823      37.01000857       0.60000000      -0.00728583       0.01557007       0.00553976      -0.00882178
Ni       5.27596172      24.66411694      37.01053639       0.60000000      -0.00732770      -0.00133424      -0.00133303       0.00131109
Ni       5.27524088      26.42752507      35.24595318       0.60000000      -0.00696223      -0.00195006      -0.00353504       0.00058843
Ni       3.51386146      24.66420286      38.77314357       0.60000000      -0.00929636       0.00695328       0.00186168      -0.00038165
Ni       3.51570944      26.42764922      40.53397680       0.60000000      -0.00699853      -0.00807647       0.02942891      -0.10027391
Ni       5.27708561      24.66438032      40.53605451       0.60000000      -0.00664536      -0.00912197       0.03360381      -0.11712327
Ni       5.27600534      26.42667823      38.77329378       0.60000000      -0.00921490       0.00933720       0.00546433      -0.00721804
Ni       3.51623558      28.19892694      -0.00887142       0.60000000      -0.00720784      -0.00841257      -0.01893045       0.08854350
Ni       3.51551785      29.96233278       1.75295688       0.60000000      -0.00909268      -0.00094597      -0.00003246      -0.00610664
Ni       5.27682426      28.20108439       1.75146518       0.60000000      -0.00921556      -0.00083848      -0.00027702      -0.00784786
Ni       5.27825134      29.96197854      -0.00940452       0.60000000      -0.00718831      -0.00646796      -0.01842230       0.08979601
Ni       3.51402506      28.20132485       3.51402506       0.60000000      -0.00766307       0.00584284       0.00031885       0.00584284
Ni       3.51330138      29.96491041       5.27597966       0.60000000      -0.00760398       0.01649722      -0.00836875       0.00997957
Ni       5.27642743      28.20139098       5.27642743       0.60000000      -0.00768757      -0.00302257       0.00227974      -0.00302257
Ni       5.27597966      29.96491041       3.51330138       0.60000000      -0.00760398       0.00997957      -0.00836875       0.01649722
Ni       3.51136668      28.20417458       7.03703620       0.60000000      -0.00746819       0.01586955      -0.01681029       0.00814109
Ni       3.51077641      29.96767821       8.79918092       0.60000000      -0.00740922       0.01686638      -0.02240470       0.00740529
Ni       5.27378388      28.19932997       8.80040011       0.60000000      -0.00744805      -0.00027784       0.00314799      -0.00301509
Ni       5.27708226      29.96191460       7.04009192       0.60000000      -0.00754347      -0.00488287       0.00644366      -0.00498378
Ni       3.50838463      28.20690210      10.56034720       0.60000000      -0.00748360       0.01603379      -0.03089510       0.00800288
Ni       3.50812872      29.96987277      12.32273525       0.60000000      -0.00753221       0.01743974      -0.02842354       0.00536853
Ni       5.26989376      28.19987079      12.32296940       0.60000000      -0.00744817       0.00189109       0.00295735      -0.00104313
Ni       5.27345571      29.96240105      10.56193254       0.60000000      -0.00741697       0.00109699       0.00073124      -0.00059656
Ni       3.50534003      28.20832350      14.08419778       0.60000000      -0.00748340       0.01597505      -0.03232785       0.00886072
Ni       3.50565872      29.97033731      15.84687943       0.60000000      -0.00753410       0.02082602      -0.02612452       0.00814741
Ni       5.26631362      28.20203404      15.84683111       0.60000000      -0.00736217       0.00288833      -0.00081516      -0.00015476
Ni       5.27015687      29.96455620      14.08424763       0.60000000      -0.00748506       0.00183681       0.00011609       0.00038716
Ni       3.50265847      28.20705349      17.60894350       0.60000000      -0.00735786       0.02025126      -0.02703752       0.01295962
Ni       3.50379840      29.96811478      19.37196670       0.60000000      -0.00730154       0.02375707      -0.02244409       0.01300458
Ni       5.26439072      28.20113772      19.37237098       0.60000000      -0.00718189       0.00037963      -0.00465102      -0.00075250
Ni       5.26808768      29.96558373      17.60953084       0.60000000      -0.00740777       0.00125851      -0.00286383      -0.00069424
Ni       3.50099600      28.20262798      21.13508490       0.60000000      -0.00710978       0.02573020      -0.02136238       0.01402666
Ni       3.50314019      29.96339779      22.89839729       0.60000000      -0.00698777       0.02475821      -0.01753958       0.01462730
Ni       5.26387732      28.19599437      22.89911422       0.60000000      -0.00701299       0.00191066      -0.00088801      -0.00034428
Ni       5.26669833      29.96270831      21.13640374       0.60000000      -0.00712345       0.00282707      -0.00359660      -0.00211581
Ni       3.50119317      28.19655314      24.66291397       0.60000000      -0.00675963       0.02641919      -0.01044295       0.00950738
Ni       3.50429067      29.95805894      26.42619706       0.60000000      -0.00673679       0.02520361      -0.00897208       0.00721216
Ni       5.26607837      28.19131423      26.42615176       0.60000000      -0.00684062       0.00121764       0.00141845       0.00203042
Ni       5.26732610      29.95733157      24.66275652       0.60000000      -0.00696515       0.00203685       0.00101817      -0.00019543
Ni       3.50368557      28.19171660      28.19171660       0.60000000      -0.00668201       0.02625037      -0.00133862      -0.00133862
Ni       3.50723037      29.95445745      29.95445745       0.60000000      -0.00674151       0.02370945      -0.00383127      -0.00383127
Ni       5.27009966      28.18870975      29.95314394       0.60000000      -0.00685088      -0.00010648       0.00316519       0.00278041
Ni       5.27009966      29.95314394      28.18870975       0.60000000      -0.00685088      -0.00010648       0.00278041       0.00316519
Ni       3.50766339      28.18968023      31.71980506       0.60000000      -0.00678182       0.02285308       0.00353170      -0.00883444
Ni       3.51091438      29.95314789      33.48179461       0.60000000      -0.00683102       0.01971982       0.00017973      -0.00918970
Ni       5.27442013      28.18964405      33.48070300       0.60000000      -0.00694333      -0.00181482      -0.00186627       0.00118984
Ni       5.27393133      29.95150044      31.71530153       0.60000000      -0.00684966      -0.00260701       0.00344395       0.00422325
Ni       3.51167777      28.18961144      35.24616966       0.60000000      -0.00699068       0.01783271       0.00557547      -0.00969233
Ni       3.51423386      29.95310553      37.00764503       0.60000000      -0.00713677       0.01355761       0.00183693      -0.00862319
Ni       5.27718886      28.19036012      37.00783046       0.60000000      -0.00713753      -0.00162648      -0.00232671       0.00133048
Ni       5.27725897      29.95262536      35.24287479       0.60000000      -0.00691926      -0.00268535      -0.00050225       0.00140928
Ni       3.51492323      28.19021061      38.77104860       0.60000000      -0.00900598       0.00702714       0.00155245      -0.00063793
Ni       3.51678511      29.95342405      40.53231384       0.60000000      -0.00706024      -0.00795086       0.02681835      -0.08991194
Ni       5.27816782      28.19036104      40.53405715       0.60000000      -0.00674091      -0.00916339       0.03205384      -0.10655154
Ni       5.27750839      29.95310553      38.77091956       0.60000000      -0.00885126       0.00986444       0.00185464      -0.00579812
Ni       3.51678762      31.72337020      -0.00813762       0.60000000      -0.00732329      -0.00508068      -0.01501591       0.07437335
Ni       3.51634759      33.48638751       1.75388829       0.60000000      -0.00888814      -0.00097630       0.00024113      -0.00540827
Ni       5.27760139      31.72539846       1.75249801       0.60000000      -0.00892263      -0.00096363       0.00009544      -0.00733540
Ni       5.27894913      33.48608619      -0.00840995       0.60000000      -0.00732240      -0.00289555      -0.01363872       0.07440492
Ni       3.51495214      31.72560520       3.51495214       0.60000000      -0.00770186       0.00762584       0.00075495       0.00762584
Ni       3.51458977      33.48861674       5.27712903       0.60000000      -0.00763936       0.01798454      -0.00975751       0.00996571
Ni       5.27841836      31.72490549       5.27841836       0.60000000      -0.00784598      -0.00378794       0.00429107      -0.00378794
Ni       5.27712903      33.48861674       3.51458977       0.60000000      -0.00763936       0.00996571      -0.00975751       0.01798454
Ni       3.51283694      31.72815237       7.03814623       0.60000000      -0.00748286       0.02019273      -0.01714923       0.00976139
Ni       3.51267688      33.49091454       8.80053245       0.60000000      -0.00750570       0.01996833      -0.01861914       0.00594498
Ni       5.27712004      31.72385226       8.80198393       0.60000000      -0.00755194      -0.00453442       0.00603199      -0.00337245
Ni       5.27907488      33.48556549       7.04153252       0.60000000      -0.00758044      -0.00538714       0.00900104      -0.00512255
Ni       3.51057299      31.73055193      10.56157782       0.60000000      -0.00745067       0.01723158      -0.02190693       0.00360853
Ni       3.51077641      33.49272815      12.32423086       0.60000000      -0.00753026       0.01806714      -0.01813311       0.00047454
Ni       5.27351837      31.72644830      12.32260464       0.60000000      -0.00748670       0.00137438      -0.00011481       0.00278495
Ni       5.27669983      33.48772639      10.56247863       0.60000000      -0.00760513      -0.00236481       0.00315088       0.00157824
Ni       3.50838463      31.73197335      14.08541845       0.60000000      -0.00756267       0.01932905      -0.02295630       0.00254222
Ni       3.50912754      33.49329621      15.84839784       0.60000000      -0.00754544       0.02093071      -0.01771059       0.00315567
Ni       5.27117182      31.72825182      15.84657348       0.60000000      -0.00745614       0.00184076      -0.00232332       0.00160920
Ni       5.27409652      33.48969377      14.08466416       0.60000000      -0.00747115       0.00147718       0.00069412       0.00432691
Ni       3.50658445      31.73146869      17.60990939       0.60000000      -0.00749775       0.02320186      -0.02119221       0.00847645
Ni       3.50802787      33.49199435      19.37326519       0.60000000      -0.00743218       0.02362137      -0.01669260       0.00941116
Ni       5.26989781      31.72712175      19.37362567       0.60000000      -0.00732061       0.00219279      -0.00126857      -0.00218148
Ni       5.27280911      33.48974842      17.61050380       0.60000000      -0.00736152       0.00030068       0.00117001       0.00020914
Ni       3.50557741      31.72858951      21.13537092       0.60000000      -0.00722233       0.02328256      -0.01790944       0.01388929
Ni       3.50781775      33.48886363      22.89907298       0.60000000      -0.00717041       0.02211816      -0.01352473       0.01324031
Ni       5.26928109      31.72356573      22.90051694       0.60000000      -0.00704567       0.00404465      -0.00053279      -0.00272432
Ni       5.27205687      33.48801618      21.13771496       0.60000000      -0.00722608       0.00168873       0.00069687      -0.00325224
Ni       3.50583938      31.72407103      24.66204400       0.60000000      -0.00694944       0.02370836      -0.01361004       0.01387754
Ni       3.50879450      33.48495605      26.42585881       0.60000000      -0.00696001       0.02164685      -0.01130082       0.00998982
Ni       5.27113646      31.71886780      26.42627669       0.60000000      -0.00697438      -0.00110445       0.00138243      -0.00152567
Ni       5.27243511      33.48469067      24.66418149       0.60000000      -0.00701323       0.00064535      -0.00034898      -0.00310323
Ni       3.50766339      31.71980506      28.18968023       0.60000000      -0.00678182       0.02285308      -0.00883444       0.00353170
Ni       3.51091438      33.48179461      29.95314789       0.60000000      -0.00683102       0.01971982      -0.00918970       0.00017973
Ni       5.27393133      31.71530153      29.95150044       0.60000000      -0.00684966      -0.00260701       0.00422325       0.00344395
Ni       5.27442013      33.48070300      28.18964405       0.60000000      -0.00694333      -0.00181482       0.00118984      -0.00186627
Ni       3.51062909      31.71729649      31.71729649       0.60000000      -0.00680896       0.02118307      -0.00606247      -0.00606247
Ni       3.51357038      33.48005060      33.48005060       0.60000000      -0.00694568       0.01988871      -0.00831852      -0.00831852
Ni       5.27740237      31.71417415      33.47771173       0.60000000      -0.00690075      -0.00528294       0.00604166       0.00586240
Ni       5.27740237      33.47771173      31.71417415       0.60000000      -0.00690075      -0.00528294       0.00586240       0.00604166
Ni       3.51374776      31.71639569      35.24389403       0.60000000      -0.00696609       0.01754290      -0.00281672      -0.00972699
Ni       3.51604567      33.47932669      37.00597386       0.60000000      -0.00713305       0.01241416      -0.00244693      -0.00794922
Ni       5.27884355      31.71584917      37.00582130       0.60000000      -0.00708688       0.00029753      -0.00194372      -0.00111506
Ni       5.27938897      33.47749647      35.24086264       0.60000000      -0.00697635      -0.00130322       0.00319326       0.00269504
Ni       3.51634524      31.71625137      38.76926071       0.60000000      -0.00871905       0.00616927       0.00087690      -0.00047471
Ni       3.51801289      33.47905776      40.53093013       0.60000000      -0.00714517      -0.00799197       0.02234595      -0.07830291
Ni       5.27951213      31.71635635      40.53226818       0.60000000      -0.00686929      -0.00932445       0.02728108      -0.09350103
Ni       5.27920764      33.47932669      38.76913583       0.60000000      -0.00855692       0.00780151      -0.00197703      -0.00482596
Ni       3.51751927      35.24730776      -0.00724558       0.60000000      -0.00741660      -0.00228525      -0.01099439       0.06219143
Ni       3.51730198      37.00997444       1.75492776       0.60000000      -0.00872692      -0.00081351       0.00047403      -0.00454421
Ni       5.27858840      35.24904254       1.75369884       0.60000000      -0.00872900      -0.00087807       0.00035043      -0.00630281
Ni       5.27978946      37.00973285      -0.00731998       0.60000000      -0.00742436      -0.00027654      -0.00918920       0.06189250
Ni       3.51606654      35.24920796       3.51606654       0.60000000      -0.00769785       0.00645060       0.00099387       0.00645060
Ni       3.51596988      37.01176291       5.27839894       0.60000000      -0.00776254       0.01352746      -0.00769508       0.00522287
Ni       5.27951107      35.24828536       5.27951107       0.60000000      -0.00778008      -0.00359639       0.00635404      -0.00359639
Ni       5.27839894      37.01176291       3.51596988       0.60000000      -0.00776254       0.00522287      -0.00769508       0.01352746
Ni       3.51446497      35.25126999       7.03949175       0.60000000      -0.00761346       0.01990679      -0.01398188       0.00706046
Ni       3.51458977      37.01352113       8.80203342       0.60000000      -0.00770664       0.01582098      -0.01118389       0.00336769
Ni       5.27862639      35.24916049       8.80250415       0.60000000      -0.00753622      -0.00419113       0.00556958      -0.00229657
Ni       5.27931737      37.01126898       7.04132911       0.60000000      -0.00766565      -0.00399465       0.00411242      -0.00433428
Ni       3.51283694      35.25314102      10.56313487       0.60000000      -0.00759533       0.01881273      -0.01462985       0.00282042
Ni       3.51330138      37.01486636      12.32593561       0.60000000      -0.00772730       0.01620673      -0.01080130       0.00151728
Ni       5.27660344      35.25114714      12.32450891       0.60000000      -0.00752740      -0.00168806       0.00303105      -0.00015691
Ni       5.27794612      37.01308788      10.56394233       0.60000000      -0.00778534      -0.00373817       0.00387660      -0.00230726
Ni       3.51136668      35.25426657      14.08712818       0.60000000      -0.00758857       0.01924744      -0.01400412       0.00176912
Ni       3.51228585      37.01532714      15.85023291       0.60000000      -0.00771072       0.01831295      -0.01167096       0.00167634
Ni       5.27533055      35.25156001      15.84843346       0.60000000      -0.00749965      -0.00156067       0.00373865       0.00045990
Ni       5.27674571      37.01407245      14.08734169       0.60000000      -0.00781682      -0.00298121       0.00324168      -0.00013468
Ni       3.51028488      35.25406254      17.61164051       0.60000000      -0.00752740       0.02202329      -0.01437787       0.00430113
Ni       3.51174259      37.01455198      19.37507021       0.60000000      -0.00762717       0.01987824      -0.01165378       0.00343205
Ni       5.27469330      35.25087545      19.37420470       0.60000000      -0.00731620      -0.00254241       0.00323614       0.00050260
Ni       5.27605722      37.01387142      17.61181443       0.60000000      -0.00775243      -0.00236449       0.00322663       0.00103954
Ni       3.50984576      35.25226324      21.13686295       0.60000000      -0.00739615       0.02272422      -0.01278211       0.00794336
Ni       3.51185449      37.01258604      22.90056281       0.60000000      -0.00746473       0.01815847      -0.00994002       0.00510179
Ni       5.27437516      35.24901113      22.90112164       0.60000000      -0.00711786      -0.00083876       0.00138026      -0.00232792
Ni       5.27585264      37.01260645      21.13761058       0.60000000      -0.00755994      -0.00305568       0.00286797       0.00011379
Ni       3.51028344      35.24927912      24.66290959       0.60000000      -0.00718568       0.02017119      -0.01062563       0.00989755
Ni       3.51272013      37.01000857      26.42667823       0.60000000      -0.00728583       0.01557007      -0.00882178       0.00553976
Ni       5.27524088      35.24595318      26.42752507       0.60000000      -0.00696223      -0.00195006       0.00058843      -0.00353504
Ni       5.27596172      37.01053639      24.66411694       0.60000000      -0.00732770      -0.00133424       0.00131109      -0.00133303
Ni       3.51167777      35.24616966      28.18961144       0.60000000      -0.00699068       0.01783271      -0.00969233       0.00557547
Ni       3.51423386      37.00764503      29.95310553       0.60000000      -0.00713677       0.01355761      -0.00862319       0.00183693
Ni       5.27725897      35.24287479      29.95262536       0.60000000      -0.00691926      -0.00268535       0.00140928      -0.00050225
Ni       5.27718886      37.00783046      28.19036012       0.60000000      -0.00713753      -0.00162648       0.00133048      -0.00232671
Ni       3.51374776      35.24389403      31.71639569       0.60000000      -0.00696609       0.01754290      -0.00972699      -0.00281672
Ni       3.51604567      37.00597386      33.47932669       0.60000000      -0.00713305       0.01241416      -0.00794922      -0.00244693
Ni       5.27938897      35.24086264      33.47749647       0.60000000      -0.00697635      -0.00130322       0.00269504       0.00319326
Ni       5.27884355      37.00582130      31.71584917       0.60000000      -0.00708688       0.00029753      -0.00111506      -0.00194372
Ni       3.51593862      35.24260688      35.24260688       0.60000000      -0.00707938       0.01537890      -0.00704794      -0.00704794
Ni       3.51776639      37.00494712      37.00494712       0.60000000      -0.00728098       0.00940767      -0.00430145      -0.00430145
Ni       5.28059391      35.24115631      37.00426847       0.60000000      -0.00716753      -0.00043995       0.00055249       0.00094021
Ni       5.28059391      37.00426847      35.24115631       0.60000000      -0.00716753      -0.00043995       0.00094021       0.00055249
Ni       3.51783047      35.24194822      38.76797487       0.60000000      -0.00852486       0.00552748       0.00029382      -0.00076049
Ni       3.51918764      37.00431885      40.52989272       0.60000000      -0.00725206      -0.00791538       0.01765713      -0.06678566
Ni       5.28085096      35.24200685      40.53089373       0.60000000      -0.00699975      -0.00941883       0.02152278      -0.07973663
Ni       5.28075828      37.00494712      38.76793901       0.60000000      -0.00848482       0.00414801      -0.00448377      -0.00378559
Ni       3.51833078      38.77092013      -0.00629909       0.60000000      -0.00857407      -0.00016106      -0.00374290       0.05225342
Ni       3.51827323      40.53331796       1.75596807       0.60000000      -0.00839999       0.00229787      -0.06457867      -0.00227863
Ni       5.27964538      38.77231785       1.75492776       0.60000000      -0.01000101      -0.00059647       0.00482843      -0.00450121
Ni       5.28066600      40.53313132      -0.00624006       0.60000000      -0.00719743       0.00608151      -0.07479970       0.05721674
Ni       3.51722737      38.77244430       3.51722737       0.60000000      -0.00890320      -0.00104236       0.00516555      -0.00104236
Ni       3.51730198      40.53469207       5.27964538       0.60000000      -0.00735507       0.00086148      -0.07698498       0.00277365
Ni       5.27839894      38.77419197       5.27839894       0.60000000      -0.00922376       0.00578495      -0.00715663       0.00578495
Ni       5.27964538      40.53469207       3.51730198       0.60000000      -0.00735507       0.00277365      -0.07698498       0.00086148
Ni       3.51606654      38.77401891       7.04087748       0.60000000      -0.00926725       0.00634252      -0.00156575      -0.00110144
Ni       3.51634759      40.53598327       8.80348405       0.60000000      -0.00724921      -0.00117136      -0.08958668       0.00626624
Ni       5.27712903      38.77606039       8.80203342       0.60000000      -0.00943518       0.00861192      -0.00886573       0.00355601
Ni       5.27858840      40.53631463       7.04097092       0.60000000      -0.00705094       0.00110591      -0.09112249       0.00370456
Ni       3.51495214      38.77538780      10.56473474       0.60000000      -0.00950961       0.00648474      -0.00115241      -0.00077671
Ni       3.51551785      40.53693899      12.32756309       0.60000000      -0.00714958      -0.00364916      -0.10068030       0.01152958
Ni       5.27597966      38.77754464      12.32593561       0.60000000      -0.00972205       0.00908645      -0.01032651       0.00191156
Ni       5.27760139      40.53775073      10.56485029       0.60000000      -0.00690542      -0.00146949      -0.10542952       0.00853286
Ni       3.51402506      38.77619828      14.08889850       0.60000000      -0.00967246       0.00688122      -0.00109708      -0.00019321
Ni       3.51493967      40.53728137      15.85196869       0.60000000      -0.00705308      -0.00600711      -0.10821745       0.01811261
Ni       5.27513105      38.77817234      15.85023291       0.60000000      -0.00983630       0.00966362      -0.01210959       0.00184395
Ni       5.27682426      40.53865773      14.08903852       0.60000000      -0.00674642      -0.00448155      -0.11686051       0.01559924
Ni       3.51344469      38.77611653      17.61347928       0.60000000      -0.00969364       0.00755951      -0.00143567       0.00065374
Ni       3.51473544      40.53682783      19.37677960       0.60000000      -0.00698549      -0.00759396      -0.11068631       0.02451159
Ni       5.27476922      38.77757861      19.37507021       0.60000000      -0.00979455       0.01021807      -0.01320097       0.00308642
Ni       5.27640737      40.53870870      17.61364298       0.60000000      -0.00661398      -0.00710433      -0.12313599       0.02373689
Ni       3.51335916      38.77501763      21.13857452       0.60000000      -0.00955993       0.00774314      -0.00134875       0.00149150
Ni       3.51499004      40.53562322      22.90202991       0.60000000      -0.00696962      -0.00816075      -0.10774152       0.02873280
Ni       5.27504411      38.77577566      22.90056281       0.60000000      -0.00957195       0.00972264      -0.01077454       0.00489539
Ni       5.27647616      40.53777143      21.13875410       0.60000000      -0.00657765      -0.00865056      -0.12311469       0.03055303
Ni       3.51386146      38.77314357      24.66420286       0.60000000      -0.00929636       0.00695328      -0.00038165       0.00186168
Ni       3.51570944      40.53397680      26.42764922       0.60000000      -0.00699853      -0.00807647      -0.10027391       0.02942891
Ni       5.27600534      38.77329378      26.42667823       0.60000000      -0.00921490       0.00933720      -0.00721804       0.00546433
Ni       5.27708561      40.53605451      24.66438032       0.60000000      -0.00664536      -0.00912197      -0.11712327       0.03360381
Ni       3.51492323      38.77104860      28.19021061       0.60000000      -0.00900598       0.00702714      -0.00063793       0.00155245
Ni       3.51678511      40.53231384      29.95342405       0.60000000      -0.00706024      -0.00795086      -0.08991194       0.02681835
Ni       5.27750839      38.77091956      29.95310553       0.60000000      -0.00885126       0.00986444      -0.00579812       0.00185464
Ni       5.27816782      40.53405715      28.19036104       0.60000000      -0.00674091      -0.00916339      -0.10655154       0.03205384
Ni       3.51634524      38.76926071      31.71625137       0.60000000      -0.00871905       0.00616927      -0.00047471       0.00087690
Ni       3.51801289      40.53093013      33.47905776       0.60000000      -0.00714517      -0.00799197      -0.07830291       0.02234595
Ni       5.27920764      38.76913583      33.47932669       0.60000000      -0.00855692       0.00780151      -0.00482596      -0.00197703
Ni       5.27951213      40.53226818      31.71635635       0.60000000      -0.00686929      -0.00932445      -0.09350103       0.02728108
Ni       3.51783047      38.76797487      35.24194822       0.60000000      -0.00852486       0.00552748      -0.00076049       0.00029382
Ni       3.51918764      40.52989272      37.00431885       0.60000000      -0.00725206      -0.00791538      -0.06678566       0.01765713
Ni       5.28075828      38.76793901      37.00494712       0.60000000      -0.00848482       0.00414801      -0.00378559      -0.00448377
Ni       5.28085096      40.53089373      35.24200685       0.60000000      -0.00699975      -0.00941883      -0.07973663       0.02152278
Ni       3.51914910      38.76710657      38.76710657       0.60000000      -0.00939286       0.00048037       0.00343337       0.00343337
Ni       3.52018912      40.52913450      40.52913450       0.60000000      -0.00723332      -0.01562796      -0.04902800      -0.04902800
Ni       5.28199960      38.76713081      40.52989272       0.60000000      -0.00834204      -0.00908621       0.02007380      -0.06707038
Ni       5.28199960      40.52989272      38.76713081       0.60000000      -0.00834204      -0.00908621      -0.06707038       0.02007380
Ni       7.04562714      -0.00487982      -0.00487982       0.60000000      -0.00707955      -0.02506955       0.06153590       0.06153590
Ni       7.04489503       1.75652179       1.75652179       0.60000000      -0.01033223      -0.00024569      -0.00480806      -0.00480806
Ni       8.80779971      -0.00596077       1.75670263       0.60000000      -0.00856925      -0.01508105       0.08910533      -0.01761339
Ni       8.80779971       1.75670263      -0.00596077       0.60000000      -0.00856925      -0.01508105      -0.01761339       0.08910533
Ni       7.04490803      -0.00612198       3.51929888       0.60000000      -0.00719462      -0.01509779       0.09261711      -0.01406326
Ni       7.04388441       1.75499752       5.28085096       0.60000000      -0.00913237      -0.00033217      -0.00596446      -0.00017486
Ni       8.80703352      -0.00750517       5.28102402       0.60000000      -0.00703069      -0.01830206       0.11103663      -0.01681187
Ni       8.80701884       1.75514647       3.51801289       0.60000000      -0.00912406      -0.00044991      -0.00573861      -0.00008455
Ni       7.04396371      -0.00758746       7.04396371       0.60000000      -0.00701431      -0.01779939       0.11276298      -0.01779939
Ni       7.04257540       1.75320590       8.80590174       0.60000000      -0.00936726      -0.00034542      -0.00700585      -0.00054038
Ni       8.80599301      -0.00926886       8.80599301       0.60000000      -0.00678769      -0.02124480       0.13467506      -0.02124480
Ni       8.80590174       1.75320590       7.04257540       0.60000000      -0.00936726      -0.00054038      -0.00700585      -0.00034542
Ni       7.04281652      -0.00914984      10.56933018       0.60000000      -0.00681293      -0.01993378       0.13233258      -0.02192817
Ni       7.04106653       1.75137714      12.33197012       0.60000000      -0.00955591      -0.00027964      -0.00788430      -0.00084993
Ni       8.80471724      -0.01102527      12.33184775       0.60000000      -0.00653649      -0.02307603       0.15586476      -0.02574005
Ni       8.80442094       1.75103178      10.56812900       0.60000000      -0.00964907      -0.00058825      -0.00788356      -0.00078954
Ni       7.04159595      -0.01055799      14.09549158       0.60000000      -0.00664068      -0.02083547       0.14705615      -0.02575010
Ni       7.03962665       1.74990174      15.85905166       0.60000000      -0.00972767      -0.00014354      -0.00838776      -0.00101805
Ni       8.80339128      -0.01241808      15.85858007       0.60000000      -0.00636206      -0.02293333       0.16871684      -0.02941003
Ni       8.80273700       1.74903116      14.09496941       0.60000000      -0.00988658      -0.00050900      -0.00845518      -0.00105103
Ni       7.04052495      -0.01152197      17.62222259       0.60000000      -0.00656696      -0.01998148       0.15225764      -0.02835500
Ni       7.03857804       1.74911682      19.38657161       0.60000000      -0.00984550      -0.00013366      -0.00867184      -0.00110031
Ni       8.80229616      -0.01313866      19.38573256       0.60000000      -0.00634803      -0.02039581       0.16826523      -0.03109921
Ni       8.80121859       1.74771700      17.62282448       0.60000000      -0.01009270      -0.00035196      -0.00882626      -0.00120319
Ni       7.03981773      -0.01186636      21.14896787       0.60000000      -0.00662969      -0.01726411       0.14563874      -0.02875867
Ni       7.03811451       1.74911248      22.91363329       0.60000000      -0.00977996      -0.00039746      -0.00898218      -0.00095485
Ni       8.80166195      -0.01309500      22.91256453       0.60000000      -0.00650259      -0.01577949       0.15424873      -0.02984350
Ni       8.80023019       1.74735969      21.15072157       0.60000000      -0.01011625      -0.00036614      -0.00948033      -0.00120459
Ni       7.03958449      -0.01159394      24.67513627       0.60000000      -0.00679765      -0.01305160       0.12934196      -0.02651048
Ni       7.03825341       1.74976995      26.43960112       0.60000000      -0.00953156      -0.00073499      -0.00906871      -0.00054963
Ni       8.80157300      -0.01239791      26.43849692       0.60000000      -0.00674744      -0.01002802       0.13194177      -0.02568684
Ni       8.79993553       1.74788533      24.67762864       0.60000000      -0.00989966      -0.00060557      -0.01009791      -0.00087685
Ni       7.03981508      -0.01082978      28.20041142       0.60000000      -0.00700110      -0.00816970       0.10891294      -0.02209974
Ni       7.03888864       1.75088775      29.96436007       0.60000000      -0.00916428      -0.00091036      -0.00884668      -0.00009061
Ni       8.80197409      -0.01124961      29.96336725       0.60000000      -0.00699612      -0.00442956       0.10862737      -0.01973238
Ni       8.80029517       1.74904952      28.20309226       0.60000000      -0.00956720      -0.00083221      -0.01001791      -0.00031802
Ni       7.04041301      -0.00974401      31.72481382       0.60000000      -0.00718747      -0.00365989       0.08966357      -0.01662936
Ni       7.03985310       1.75225763      33.48817307       0.60000000      -0.00887086      -0.00089365      -0.00794399       0.00030231
Ni       8.80272487      -0.00986059      33.48735954       0.60000000      -0.00720200      -0.00007124       0.08881953      -0.01347879
Ni       8.80114469       1.75058490      31.72726470       0.60000000      -0.00917463      -0.00086992      -0.00941176       0.00018922
Ni       7.04124175      -0.00850336      35.24857066       0.60000000      -0.00733304      -0.00025948       0.07388116      -0.01130858
Ni       7.04097092       1.75369884      37.01142507       0.60000000      -0.00876101      -0.00071340      -0.00633272       0.00064844
Ni       8.80366017      -0.00840995      37.01079724       0.60000000      -0.00735261       0.00265004       0.07311855      -0.00810718
Ni       8.80227286       1.75225763      35.25059283       0.60000000      -0.00891851      -0.00074667      -0.00798340       0.00054074
Ni       7.04216594      -0.00724558      38.77195443       0.60000000      -0.00870056       0.00198986       0.06136279      -0.00263471
Ni       7.04209602       1.75507637      40.53444311       0.60000000      -0.00849975       0.00484385      -0.00435306      -0.07542309
Ni       8.80463602      -0.00702840      40.53397527       0.60000000      -0.00707029       0.01162488       0.06570993      -0.08354496
Ni       8.80348405       1.75388829      38.77352397       0.60000000      -0.01038773      -0.00046510      -0.00554609       0.00570449
Ni       7.04490803       3.51929888      -0.00612198       0.60000000      -0.00719462      -0.01509779      -0.01406326       0.09261711
Ni       7.04388441       5.28085096       1.75499752       0.60000000      -0.00913237      -0.00033217      -0.00017486      -0.00596446
Ni       8.80701884       3.51801289       1.75514647       0.60000000      -0.00912406      -0.00044991      -0.00008455      -0.00573861
Ni       8.80703352       5.28102402      -0.00750517       0.60000000      -0.00703069      -0.01830206      -0.01681187       0.11103663
Ni       7.04385712       3.51783047       3.51783047       0.60000000      -0.00738960      -0.00050100       0.00105012       0.00105012
Ni       7.04276839       5.27945891       5.27945891       0.60000000      -0.00723826       0.00003029       0.00051003       0.00051003
Ni       8.80585481       3.51604567       5.27920764       0.60000000      -0.00733412       0.00258690       0.00606869       0.00260713
Ni       8.80585481       5.27920764       3.51604567       0.60000000      -0.00733412       0.00258690       0.00260713       0.00606869
Ni       7.04241459       3.51593862       7.04241459       0.60000000      -0.00730775       0.00233717       0.00558865       0.00233717
Ni       7.04119762       5.27773110       8.80496783       0.60000000      -0.00712884       0.00016826      -0.00026518      -0.00038396
Ni       8.80419396       3.51357038       8.80419396       0.60000000      -0.00721426       0.00336452       0.00936343       0.00336452
Ni       8.80496783       5.27773110       7.04119762       0.60000000      -0.00712884      -0.00038396      -0.00026518       0.00016826
Ni       7.04060487       3.51374776      10.56810320       0.60000000      -0.00722306       0.00413941       0.01046685       0.00431876
Ni       7.04002970       5.27620524      12.33244252       0.60000000      -0.00723313      -0.00261142      -0.00271355      -0.00435137
Ni       8.80210650       3.51091438      12.33075322       0.60000000      -0.00713729       0.00482070       0.01263003       0.00316214
Ni       8.80292430       5.27533373      10.56721550       0.60000000      -0.00719464      -0.00160884      -0.00173734      -0.00224987
Ni       7.03870461       3.51167777      14.09526283       0.60000000      -0.00715347       0.00837614       0.01342672       0.00184653
Ni       7.03887264       5.27462713      15.85944793       0.60000000      -0.00735163      -0.00463755      -0.00445916      -0.00383195
Ni       8.80003178       3.50879450      15.85912902       0.60000000      -0.00704554       0.00700679       0.00991838      -0.00493621
Ni       8.80175066       5.27329079      14.09510029       0.60000000      -0.00735585      -0.00723949      -0.00640303      -0.00703287
Ni       7.03718674       3.51028344      17.62355627       0.60000000      -0.00712747       0.00962056       0.01038338      -0.00876647
Ni       7.03739218       5.27303542      19.38462021       0.60000000      -0.00735919      -0.00372122      -0.00252433       0.00395404
Ni       8.79855246       3.50781775      19.38834311       0.60000000      -0.00710101       0.00779055       0.00679924      -0.01749119
Ni       8.80043296       5.27118672      17.62183100       0.60000000      -0.00737614      -0.00716391      -0.00555720      -0.00264498
Ni       7.03639362       3.50984576      21.15179391       0.60000000      -0.00728946       0.00764326       0.00965723      -0.01834566
Ni       7.03618865       5.27276656      22.91063916       0.60000000      -0.00735215      -0.00012708      -0.00088693       0.00581190
Ni       8.79796256       3.50802787      22.91669171       0.60000000      -0.00730922       0.00732912       0.00981491      -0.02565199
Ni       8.79881281       5.27032069      21.14770484       0.60000000      -0.00734042      -0.00412453      -0.00232007       0.00342048
Ni       7.03638432       3.51028488      24.67880634       0.60000000      -0.00749056       0.00670016       0.01294773      -0.01964880
Ni       7.03742234       5.27414646      26.43746468       0.60000000      -0.00741987      -0.00193260      -0.00111023       0.00359331
Ni       8.79823678       3.50912754      26.44313515       0.60000000      -0.00748426       0.00837142       0.01524123      -0.02701367
Ni       8.79844367       5.27157156      24.67339325       0.60000000      -0.00745420      -0.00123652      -0.00136606       0.00604433
Ni       7.03703620       3.51136668      28.20417458       0.60000000      -0.00746819       0.00814109       0.01586955      -0.01681029
Ni       7.04009192       5.27708226      29.96191460       0.60000000      -0.00754347      -0.00498378      -0.00488287       0.00644366
Ni       8.79918092       3.51077641      29.96767821       0.60000000      -0.00740922       0.00740529       0.01686638      -0.02240470
Ni       8.80040011       5.27378388      28.19932997       0.60000000      -0.00744805      -0.00301509      -0.00027784       0.00314799
Ni       7.03814623       3.51283694      31.72815237       0.60000000      -0.00748286       0.00976139       0.02019273      -0.01714923
Ni       7.04153252       5.27907488      33.48556549       0.60000000      -0.00758044      -0.00512255      -0.00538714       0.00900104
Ni       8.80053245       3.51267688      33.49091454       0.60000000      -0.00750570       0.00594498       0.01996833      -0.01861914
Ni       8.80198393       5.27712004      31.72385226       0.60000000      -0.00755194      -0.00337245      -0.00453442       0.00603199
Ni       7.03949175       3.51446497      35.25126999       0.60000000      -0.00761346       0.00706046       0.01990679      -0.01398188
Ni       7.04132911       5.27931737      37.01126898       0.60000000      -0.00766565      -0.00433428      -0.00399465       0.00411242
Ni       8.80203342       3.51458977      37.01352113       0.60000000      -0.00770664       0.00336769       0.01582098      -0.01118389
Ni       8.80250415       5.27862639      35.24916049       0.60000000      -0.00753622      -0.00229657      -0.00419113       0.00556958
Ni       7.04087748       3.51606654      38.77401891       0.60000000      -0.00926725      -0.00110144       0.00634252      -0.00156575
Ni       7.04097092       5.27858840      40.53631463       0.60000000      -0.00705094       0.00370456       0.00110591      -0.09112249
Ni       8.80348405       3.51634759      40.53598327       0.60000000      -0.00724921       0.00626624      -0.00117136      -0.08958668
Ni       8.80203342       5.27712903      38.77606039       0.60000000      -0.00943518       0.00355601       0.00861192      -0.00886573
Ni       7.04396371       7.04396371      -0.00758746       0.60000000      -0.00701431      -0.01779939      -0.01779939       0.11276298
Ni       7.04257540       8.80590174       1.75320590       0.60000000      -0.00936726      -0.00034542      -0.00054038      -0.00700585
Ni       8.80590174       7.04257540       1.75320590       0.60000000      -0.00936726      -0.00054038      -0.00034542      -0.00700585
Ni       8.80599301       8.80599301      -0.00926886       0.60000000      -0.00678769      -0.02124480      -0.02124480       0.13467506
Ni       7.04241459       7.04241459       3.51593862       0.60000000      -0.00730775       0.00233717       0.00233717       0.00558865
Ni       7.04119762       8.80496783       5.27773110       0.60000000      -0.00712884       0.00016826      -0.00038396      -0.00026518
Ni       8.80496783       7.04119762       5.27773110       0.60000000      -0.00712884      -0.00038396       0.00016826      -0.00026518
Ni       8.80419396       8.80419396       3.51357038       0.60000000      -0.00721426       0.00336452       0.00336452       0.00936343
Ni       7.04117797       7.04117797       7.04117797       0.60000000      -0.00694571       0.00067978       0.00067978       0.00067978
Ni       7.03919069       8.80307355       8.80307355       0.60000000      -0.00696416      -0.00122645      -0.00131761      -0.00131761
Ni       8.80307355       7.03919069       8.80307355       0.60000000      -0.00696416      -0.00131761      -0.00122645      -0.00131761
Ni       8.80307355       8.80307355       7.03919069       0.60000000      -0.00696416      -0.00131761      -0.00131761      -0.00122645
Ni       7.03966421       7.03966421      10.56783922       0.60000000      -0.00694732      -0.00250506      -0.00250506      -0.00297665
Ni       7.03726532       8.80125449      12.33025834       0.60000000      -0.00709869      -0.00615209      -0.00590962      -0.00652378
Ni       8.80125449       7.03726532      12.33025834       0.60000000      -0.00709869      -0.00590962      -0.00615209      -0.00652378
Ni       8.80053892       8.80053892      10.56484504       0.60000000      -0.00706344      -0.00626371      -0.00626371      -0.00571099
Ni       7.03873070       7.03873070      14.09617907       0.60000000      -0.00712464      -0.00663584      -0.00663584      -0.00911101
Ni       7.03607560       8.80082730      15.85794611       0.60000000      -0.00727015      -0.01183317      -0.01113552      -0.01002055
Ni       8.80082730       7.03607560      15.85794611       0.60000000      -0.00727015      -0.01113552      -0.01183317      -0.01002055
Ni       8.79878456       8.79878456      14.09205586       0.60000000      -0.00729798      -0.00918379      -0.00918379      -0.00834583
Ni       7.03772445       7.03772445      17.62172488       0.60000000      -0.00733497      -0.00883605      -0.00883605      -0.00439885
Ni       7.03447292       8.79983790      19.38250202       0.60000000      -0.00739567      -0.00826542      -0.00958360      -0.00178809
Ni       8.79983790       7.03447292      19.38250202       0.60000000      -0.00739567      -0.00958360      -0.00826542      -0.00178809
Ni       8.79835702       8.79835702      17.61826192       0.60000000      -0.00726649      -0.01210351      -0.01210351      -0.00600780
Ni       7.03582746       7.03582746      21.14462638       0.60000000      -0.00730276      -0.00292195      -0.00292195       0.00875776
Ni       7.03379710       8.79799818      22.90564889       0.60000000      -0.00727520      -0.00325596      -0.00259778       0.00776652
Ni       8.79799818       7.03379710      22.90564889       0.60000000      -0.00727520      -0.00259778      -0.00325596       0.00776652
Ni       8.79750436       8.79750436      21.14151296       0.60000000      -0.00739495      -0.00856248      -0.00856248       0.00257458
Ni       7.03542600       7.03542600      24.67031891       0.60000000      -0.00706968       0.00118310       0.00118310       0.00826428
Ni       7.03531963       8.79915952      26.43064038       0.60000000      -0.00712590       0.00113530      -0.00010308       0.00792032
Ni       8.79915952       7.03531963      26.43064038       0.60000000      -0.00712590      -0.00010308       0.00113530       0.00792032
Ni       8.79651988       8.79651988      24.66430794       0.60000000      -0.00720362       0.00180353       0.00180353       0.00965001
Ni       7.03910290       7.03910290      28.19607245       0.60000000      -0.00713228      -0.00439516      -0.00439516       0.00777523
Ni       7.04033637       8.80306344      29.95591236       0.60000000      -0.00714820      -0.00601141      -0.00516133       0.00908805
Ni       8.80306344       7.04033637      29.95591236       0.60000000      -0.00714820      -0.00516133      -0.00601141       0.00908805
Ni       8.80090736       8.80090736      28.18841802       0.60000000      -0.00709816      -0.00371111      -0.00371111       0.01242961
Ni       7.04245652       7.04245652      31.72036898       0.60000000      -0.00719670      -0.00756821      -0.00756821       0.01180765
Ni       7.04239281       8.80371125      33.48385305       0.60000000      -0.00712896      -0.00505138      -0.00257826       0.00632669
Ni       8.80371125       7.04239281      33.48385305       0.60000000      -0.00712896      -0.00257826      -0.00505138       0.00632669
Ni       8.80429603       8.80429603      31.71719272       0.60000000      -0.00712624      -0.00497384      -0.00497384       0.00766222
Ni       7.04246215       7.04246215      35.24745259       0.60000000      -0.00701256      -0.00501637      -0.00501637       0.00748539
Ni       7.04106868       8.80279010      37.01307348       0.60000000      -0.00746324      -0.00459659      -0.00358065       0.00285782
Ni       8.80279010       7.04106868      37.01307348       0.60000000      -0.00746324      -0.00358065      -0.00459659       0.00285782
Ni       8.80375429       8.80375429      35.24928341       0.60000000      -0.00705966      -0.00319887      -0.00319887       0.00179762
Ni       7.03949175       7.03949175      38.77629677       0.60000000      -0.00934161       0.00716069       0.00716069      -0.00999897
Ni       7.03985310       8.80227286      40.53818830       0.60000000      -0.00682182       0.00152921       0.00502036      -0.10815760
Ni       8.80227286       7.03985310      40.53818830       0.60000000      -0.00682182       0.00502036       0.00152921      -0.10815760
Ni       8.80053245       8.80053245      38.77877011       0.60000000      -0.00966757       0.00814642       0.00814642      -0.01045006
Ni       7.04281652      10.56933018      -0.00914984       0.60000000      -0.00681293      -0.01993378      -0.02192817       0.13233258
Ni       7.04106653      12.33197012       1.75137714       0.60000000      -0.00955591      -0.00027964      -0.00084993      -0.00788430
Ni       8.80442094      10.56812900       1.75103178       0.60000000      -0.00964907      -0.00058825      -0.00078954      -0.00788356
Ni       8.80471724      12.33184775      -0.01102527       0.60000000      -0.00653649      -0.02307603      -0.02574005       0.15586476
Ni       7.04060487      10.56810320       3.51374776       0.60000000      -0.00722306       0.00413941       0.00431876       0.01046685
Ni       7.04002970      12.33244252       5.27620524       0.60000000      -0.00723313      -0.00261142      -0.00435137      -0.00271355
Ni       8.80292430      10.56721550       5.27533373       0.60000000      -0.00719464      -0.00160884      -0.00224987      -0.00173734
Ni       8.80210650      12.33075322       3.51091438       0.60000000      -0.00713729       0.00482070       0.00316214       0.01263003
Ni       7.03966421      10.56783922       7.03966421       0.60000000      -0.00694732      -0.00250506      -0.00297665      -0.00250506
Ni       7.03726532      12.33025834       8.80125449       0.60000000      -0.00709869      -0.00615209      -0.00652378      -0.00590962
Ni       8.80053892      10.56484504       8.80053892       0.60000000      -0.00706344      -0.00626371      -0.00571099      -0.00626371
Ni       8.80125449      12.33025834       7.03726532       0.60000000      -0.00709869      -0.00590962      -0.00652378      -0.00615209
Ni       7.03668969      10.56465152      10.56465152       0.60000000      -0.00718715      -0.00636323      -0.00468408      -0.00468408
Ni       7.03287928      12.32511532      12.32511532       0.60000000      -0.00740971      -0.01309511      -0.00551851      -0.00551851
Ni       8.79716254      10.56094000      12.32564498       0.60000000      -0.00733260      -0.01023858      -0.00761644      -0.00783336
Ni       8.79716254      12.32564498      10.56094000       0.60000000      -0.00733260      -0.01023858      -0.00783336      -0.00761644
Ni       7.03359175      10.56208114      14.09105074       0.60000000      -0.00726579      -0.01174227      -0.00764287      -0.00628345
Ni       7.02661427      12.32152855      15.85025803       0.60000000      -0.00731335      -0.00484675       0.00084106       0.00428488
Ni       8.79471495      10.55956123      15.85159313       0.60000000      -0.00732961      -0.00973637      -0.00630961      -0.00122666
Ni       8.79196469      12.32031148      14.08476838       0.60000000      -0.00730960      -0.01024677      -0.00020955       0.00011832
Ni       7.03088033      10.56138216      17.61783905       0.60000000      -0.00729412      -0.00936700      -0.00693482      -0.00230833
Ni       7.02490140      12.32136126      19.37873532       0.60000000      -0.00730010       0.00242887       0.00162202       0.00214457
Ni       8.79375017      10.55956883      19.37704956       0.60000000      -0.00722522      -0.00711295      -0.00522254       0.00301725
Ni       8.78745379      12.31971419      17.61062061       0.60000000      -0.00731715       0.00324653       0.00143505       0.00643483
Ni       7.03046903      10.56078269      21.14370279       0.60000000      -0.00729878      -0.00433178      -0.00486136      -0.00014539
Ni       7.02793904      12.32286810      22.90524888       0.60000000      -0.00731453      -0.00107590      -0.00283861       0.00243828
Ni       8.79459660      10.55968948      22.90092019       0.60000000      -0.00728496      -0.00514332      -0.00407369       0.00798774
Ni       8.78906095      12.32053776      21.13712733       0.60000000      -0.00723018       0.00197148       0.00228257       0.00573556
Ni       7.03250463      10.56109003      24.66697303       0.60000000      -0.00732123      -0.00292704      -0.00333630       0.00785133
Ni       7.03120644      12.32427952      26.42877661       0.60000000      -0.00716508      -0.00034228      -0.00620635       0.01048935
Ni       8.79638955      10.56104368      26.42368842       0.60000000      -0.00717494       0.00209581      -0.00000300       0.01364931
Ni       8.79349400      12.32326972      24.66160691       0.60000000      -0.00721939      -0.00451148      -0.00381903       0.01021506
Ni       7.03521782      10.56265504      28.19188295       0.60000000      -0.00712237       0.00183375      -0.00321085       0.00820929
Ni       7.03496438      12.32281151      29.95673108       0.60000000      -0.00709329       0.00293121       0.00187964       0.00585472
Ni       8.80154816      10.56402471      29.95031135       0.60000000      -0.00706128      -0.00396727      -0.00401688       0.01408443
Ni       8.79577710      12.32372283      28.18632142       0.60000000      -0.00706154       0.00561749       0.00097319       0.01473186
Ni       7.04010734      10.56312818      31.72000221       0.60000000      -0.00716908      -0.00421481       0.00059127       0.00633853
Ni       7.03938414      12.32281786      33.48586682       0.60000000      -0.00707154      -0.00205638       0.00427891       0.00385730
Ni       8.80350553      10.56390999      33.48392060       0.60000000      -0.00700763      -0.00140576       0.00218157       0.00208672
Ni       8.80069803      12.32275022      31.71785447       0.60000000      -0.00695350      -0.00040247       0.00544139       0.00640655
Ni       7.04120248      10.56386094      35.24953315       0.60000000      -0.00708923      -0.00379683      -0.00190084       0.00317711
Ni       7.03949944      12.32515636      37.01477431       0.60000000      -0.00752702      -0.00301182      -0.00201418       0.00267131
Ni       8.80197931      10.56367244      37.01556874       0.60000000      -0.00756030      -0.00313416      -0.00174793       0.00186717
Ni       8.80223677      12.32416444      35.25077018       0.60000000      -0.00703552      -0.00182745       0.00148090       0.00196970
Ni       7.03814623      10.56313487      38.77845031       0.60000000      -0.00967705       0.00891610       0.00537555      -0.01137895
Ni       7.03888864      12.32623443      40.53970675       0.60000000      -0.00660739      -0.00170869       0.01171898      -0.12369437
Ni       8.80114469      10.56359577      40.54027556       0.60000000      -0.00657032       0.00226840       0.00700143      -0.12750287
Ni       8.79918092      12.32423086      38.78113266       0.60000000      -0.00992966       0.00855829       0.00507032      -0.01193661
Ni       7.04159595      14.09549158      -0.01055799       0.60000000      -0.00664068      -0.02083547      -0.02575010       0.14705615
Ni       7.03962665      15.85905166       1.74990174       0.60000000      -0.00972767      -0.00014354      -0.00101805      -0.00838776
Ni       8.80273700      14.09496941       1.74903116       0.60000000      -0.00988658      -0.00050900      -0.00105103      -0.00845518
Ni       8.80339128      15.85858007      -0.01241808       0.60000000      -0.00636206      -0.02293333      -0.02941003       0.16871684
Ni       7.03870461      14.09526283       3.51167777       0.60000000      -0.00715347       0.00837614       0.00184653       0.01342672
Ni       7.03887264      15.85944793       5.27462713       0.60000000      -0.00735163      -0.00463755      -0.00383195      -0.00445916
Ni       8.80175066      14.09510029       5.27329079       0.60000000      -0.00735585      -0.00723949      -0.00703287      -0.00640303
Ni       8.80003178      15.85912902       3.50879450       0.60000000      -0.00704554       0.00700679      -0.00493621       0.00991838
Ni       7.03873070      14.09617907       7.03873070       0.60000000      -0.00712464      -0.00663584      -0.00911101      -0.00663584
Ni       7.03607560      15.85794611       8.80082730       0.60000000      -0.00727015      -0.01183317      -0.01002055      -0.01113552
Ni       8.79878456      14.09205586       8.79878456       0.60000000      -0.00729798      -0.00918379      -0.00834583      -0.00918379
Ni       8.80082730      15.85794611       7.03607560       0.60000000      -0.00727015      -0.01113552      -0.01002055      -0.01183317
Ni       7.03359175      14.09105074      10.56208114       0.60000000      -0.00726579      -0.01174227      -0.00628345      -0.00764287
Ni       7.02661427      15.85025803      12.32152855       0.60000000      -0.00731335      -0.00484675       0.00428488       0.00084106
Ni       8.79196469      14.08476838      12.32031148       0.60000000      -0.00730960      -0.01024677       0.00011832      -0.00020955
Ni       8.79471495      15.85159313      10.55956123       0.60000000      -0.00732961      -0.00973637      -0.00122666      -0.00630961
Ni       7.02532679      14.08429390      14.08429390       0.60000000      -0.00745521      -0.00534875       0.00381482       0.00381482
Ni       7.01775029      15.84531946      15.84531946       0.60000000      -0.00749412       0.01218669       0.00754948       0.00754948
Ni       8.78302518      14.07990016      15.84389955       0.60000000      -0.00735112       0.00908964       0.00813087       0.00960949
Ni       8.78302518      15.84389955      14.07990016       0.60000000      -0.00735112       0.00908964       0.00960949       0.00813087
Ni       7.01935839      14.08193051      17.61125572       0.60000000      -0.00739335       0.01242756       0.00691097       0.00795247
Ni       7.01820859      15.84501891      19.37418198       0.60000000      -0.00708524      -0.00280015       0.00031457       0.00315293
Ni       8.78193556      14.08099785      19.37165828       0.60000000      -0.00737630       0.01126202       0.00091045       0.00413051
Ni       8.77784118      15.84161328      17.60547324       0.60000000      -0.00742623       0.01164764       0.00284358       0.00408254
Ni       7.02300773      14.08353669      21.14113835       0.60000000      -0.00722222      -0.00316155      -0.00005690      -0.00067022
Ni       7.02108841      15.84568121      22.90325189       0.60000000      -0.00708443       0.00419735       0.00533337       0.00138765
Ni       8.78760813      14.08327902      22.89886324       0.60000000      -0.00715547       0.00242094       0.00341078       0.00545557
Ni       8.78072687      15.84380816      21.13349481       0.60000000      -0.00710223       0.00864773       0.00158967       0.00865229
Ni       7.02599035      14.08527309      24.66706289       0.60000000      -0.00709274       0.00397199      -0.00091005       0.00480005
Ni       7.02552524      15.84677055      26.43089698       0.60000000      -0.00694368       0.00512855      -0.00007964       0.00479445
Ni       8.79209635      14.08548272      26.42437648       0.60000000      -0.00703409       0.00030288      -0.00061791       0.01010843
Ni       8.78685583      15.84564801      24.66156019       0.60000000      -0.00697816       0.00171478       0.00393691       0.00447464
Ni       7.03032206      14.08490556      28.19405496       0.60000000      -0.00708928       0.00452309      -0.00119615       0.00448595
Ni       7.03103610      15.84526418      29.96079251       0.60000000      -0.00694968       0.00602969       0.00475444      -0.00285987
Ni       8.79505895      14.08301038      29.95390328       0.60000000      -0.00691243       0.00821189       0.00780421       0.00456188
Ni       8.79078889      15.84543832      28.19030331       0.60000000      -0.00684748       0.00668528       0.00474498       0.00664828
Ni       7.03536189      14.08270421      31.72313151       0.60000000      -0.00700464       0.00225739       0.00620873       0.00180352
Ni       7.03663745      15.84589814      33.48722089       0.60000000      -0.00685723       0.00052125       0.00288247       0.00340077
Ni       8.80022407      14.08319232      33.48537437       0.60000000      -0.00678303       0.00089862       0.00594230       0.00206339
Ni       8.79577347      15.84384824      31.72145490       0.60000000      -0.00662876       0.00848439       0.01080518      -0.00128510
Ni       7.03919469      14.08532999      35.25039509       0.60000000      -0.00704286      -0.00298646       0.00017275       0.00510421
Ni       7.03828593      15.84840792      37.01537675       0.60000000      -0.00746713      -0.00199878       0.00076341       0.00154729
Ni       8.80019789      14.08557639      37.01730362       0.60000000      -0.00747133      -0.00004479       0.00303146      -0.00225177
Ni       8.79982608      15.84594645      35.25165313       0.60000000      -0.00685660       0.00225254       0.00462218      -0.00057132
Ni       7.03703620      14.08712818      38.77993609       0.60000000      -0.00985698       0.00872006       0.00315356      -0.01342623
Ni       7.03825341      15.85059730      40.54042847       0.60000000      -0.00639247      -0.00530029       0.02087420      -0.13460536
Ni       8.80029517      14.08770829      40.54175103       0.60000000      -0.00628403      -0.00175698       0.01599870      -0.14348092
Ni       8.79823678      15.84839784      38.78240545       0.60000000      -0.01011145       0.00956320       0.00398787      -0.01815648
Ni       7.04052495      17.62222259      -0.01152197       0.60000000      -0.00656696      -0.01998148      -0.02835500       0.15225764
Ni       7.03857804      19.38657161       1.74911682       0.60000000      -0.00984550      -0.00013366      -0.00110031      -0.00867184
Ni       8.80121859      17.62282448       1.74771700       0.60000000      -0.01009270      -0.00035196      -0.00120319      -0.00882626
Ni       8.80229616      19.38573256      -0.01313866       0.60000000      -0.00634803      -0.02039581      -0.03109921       0.16826523
Ni       7.03718674      17.62355627       3.51028344       0.60000000      -0.00712747       0.00962056      -0.00876647       0.01038338
Ni       7.03739218      19.38462021       5.27303542       0.60000000      -0.00735919      -0.00372122       0.00395404      -0.00252433
Ni       8.80043296      17.62183100       5.27118672       0.60000000      -0.00737614      -0.00716391      -0.00264498      -0.00555720
Ni       8.79855246      19.38834311       3.50781775       0.60000000      -0.00710101       0.00779055      -0.01749119       0.00679924
Ni       7.03772445      17.62172488       7.03772445       0.60000000      -0.00733497      -0.00883605      -0.00439885      -0.00883605
Ni       7.03447292      19.38250202       8.79983790       0.60000000      -0.00739567      -0.00826542      -0.00178809      -0.00958360
Ni       8.79835702      17.61826192       8.79835702       0.60000000      -0.00726649      -0.01210351      -0.00600780      -0.01210351
Ni       8.79983790      19.38250202       7.03447292       0.60000000      -0.00739567      -0.00958360      -0.00178809      -0.00826542
Ni       7.03088033      17.61783905      10.56138216       0.60000000      -0.00729412      -0.00936700      -0.00230833      -0.00693482
Ni       7.02490140      19.37873532      12.32136126       0.60000000      -0.00730010       0.00242887       0.00214457       0.00162202
Ni       8.78745379      17.61062061      12.31971419       0.60000000      -0.00731715       0.00324653       0.00643483       0.00143505
Ni       8.79375017      19.37704956      10.55956883       0.60000000      -0.00722522      -0.00711295       0.00301725      -0.00522254
Ni       7.01935839      17.61125572      14.08193051       0.60000000      -0.00739335       0.01242756       0.00795247       0.00691097
Ni       7.01820859      19.37418198      15.84501891       0.60000000      -0.00708524      -0.00280015       0.00315293       0.00031457
Ni       8.77784118      17.60547324      15.84161328       0.60000000      -0.00742623       0.01164764       0.00408254       0.00284358
Ni       8.78193556      19.37165828      14.08099785       0.60000000      -0.00737630       0.01126202       0.00413051       0.00091045
Ni       7.01658368      17.60861630      17.60861630       0.60000000      -0.00705656      -0.00467574       0.00083629       0.00083629
Ni       7.01356864      19.37099211      19.37099211       0.60000000      -0.00706672       0.01402738       0.00692269       0.00692269
Ni       8.77689363      17.60413684      19.36750664       0.60000000      -0.00695166       0.00842179       0.00554672       0.00839628
Ni       8.77689363      19.36750664      17.60413684       0.60000000      -0.00695166       0.00842179       0.00839628       0.00554672
Ni       7.01583530      17.60756980      21.13653606       0.60000000      -0.00705185       0.01061180       0.00489301       0.00735198
Ni       7.01698299      19.37103318      22.90052986       0.60000000      -0.00670229       0.00367093      -0.00068369       0.00111703
Ni       8.78043194      17.60637029      22.89640896       0.60000000      -0.00698888       0.00623815       0.00028492       0.00328186
Ni       8.77656306      19.36693076      21.13033789       0.60000000      -0.00697967       0.00677975       0.00229589       0.00388368
Ni       7.02098099      17.60829073      24.66641512       0.60000000      -0.00678879       0.00397520       0.00175248       0.00249605
Ni       7.02252249      19.37041513      26.43069134       0.60000000      -0.00675568       0.00747898       0.00468094       0.00001708
Ni       8.78634250      17.60692524      26.42560296       0.60000000      -0.00676064       0.00791988       0.00529904       0.00628121
Ni       8.78163107      19.36826875      24.65999749       0.60000000      -0.00670492       0.00914859       0.00420171       0.00608985
Ni       7.02717630      17.60809177      28.19640407       0.60000000      -0.00685985       0.00324544       0.00373455       0.00063644
Ni       7.02995642      19.37199182      29.96067066       0.60000000      -0.00669570       0.00276488       0.00063876      -0.00186783
Ni       8.79163186      17.60678174      29.95731728       0.60000000      -0.00665824       0.01029375       0.00649132      -0.00145393
Ni       8.78868294      19.36893096      28.19110410       0.60000000      -0.00662671       0.00503415       0.00393693       0.00146924
Ni       7.03306613      17.60878134      31.72505126       0.60000000      -0.00674613       0.00518356       0.00272986      -0.00289645
Ni       7.03546479      19.37362354      33.48726297       0.60000000      -0.00666655       0.00379249      -0.00092498       0.00049183
Ni       8.79773448      17.60797271      33.48684319       0.60000000      -0.00659834       0.00512836       0.00463064      -0.00208194
Ni       8.79478949      19.37130585      31.72231751       0.60000000      -0.00648718       0.00791616       0.00139254      -0.00378604
Ni       7.03803584      17.61003525      35.25046820       0.60000000      -0.00685906      -0.00235401       0.00161219       0.00446698
Ni       7.03776579      19.37373308      37.01458251       0.60000000      -0.00731550      -0.00049986       0.00212250       0.00210826
Ni       8.79892423      17.60976674      37.01721378       0.60000000      -0.00737223       0.00348509       0.00285429      -0.00167663
Ni       8.79913915      19.37260297      35.25149464       0.60000000      -0.00664296       0.00195034       0.00085828      -0.00218070
Ni       7.03638432      17.61164051      38.78016197       0.60000000      -0.00990459       0.00922183       0.00355801      -0.01653370
Ni       7.03811451      19.37549479      40.54001561       0.60000000      -0.00626659      -0.00820346       0.03025710      -0.13867384
Ni       8.79993553      17.61234968      40.54209299       0.60000000      -0.00603035      -0.00601165       0.02720655      -0.15273228
Ni       8.79796256      19.37326519      38.78192903       0.60000000      -0.01006815       0.00966845       0.00611390      -0.02022913
Ni       7.03981773      21.14896787      -0.01186636       0.60000000      -0.00662969      -0.01726411      -0.02875867       0.14563874
Ni       7.03811451      22.91363329       1.74911248       0.60000000      -0.00977996      -0.00039746      -0.00095485      -0.00898218
Ni       8.80023019      21.15072157       1.74735969       0.60000000      -0.01011625      -0.00036614      -0.00120459      -0.00948033
Ni       8.80166195      22.91256453      -0.01309500       0.60000000      -0.00650259      -0.01577949      -0.02984350       0.15424873
Ni       7.03639362      21.15179391       3.50984576       0.60000000      -0.00728946       0.00764326      -0.01834566       0.00965723
Ni       7.03618865      22.91063916       5.27276656       0.60000000      -0.00735215      -0.00012708       0.00581190      -0.00088693
Ni       8.79881281      21.14770484       5.27032069       0.60000000      -0.00734042      -0.00412453       0.00342048      -0.00232007
Ni       8.79796256      22.91669171       3.50802787       0.60000000      -0.00730922       0.00732912      -0.02565199       0.00981491
Ni       7.03582746      21.14462638       7.03582746       0.60000000      -0.00730276      -0.00292195       0.00875776      -0.00292195
Ni       7.03379710      22.90564889       8.79799818       0.60000000      -0.00727520      -0.00325596       0.00776652      -0.00259778
Ni       8.79750436      21.14151296       8.79750436       0.60000000      -0.00739495      -0.00856248       0.00257458      -0.00856248
Ni       8.79799818      22.90564889       7.03379710       0.60000000      -0.00727520      -0.00259778       0.00776652      -0.00325596
Ni       7.03046903      21.14370279      10.56078269       0.60000000      -0.00729878      -0.00433178      -0.00014539      -0.00486136
Ni       7.02793904      22.90524888      12.32286810       0.60000000      -0.00731453      -0.00107590       0.00243828      -0.00283861
Ni       8.78906095      21.13712733      12.32053776       0.60000000      -0.00723018       0.00197148       0.00573556       0.00228257
Ni       8.79459660      22.90092019      10.55968948       0.60000000      -0.00728496      -0.00514332       0.00798774      -0.00407369
Ni       7.02300773      21.14113835      14.08353669       0.60000000      -0.00722222      -0.00316155      -0.00067022      -0.00005690
Ni       7.02108841      22.90325189      15.84568121       0.60000000      -0.00708443       0.00419735       0.00138765       0.00533337
Ni       8.78072687      21.13349481      15.84380816       0.60000000      -0.00710223       0.00864773       0.00865229       0.00158967
Ni       8.78760813      22.89886324      14.08327902       0.60000000      -0.00715547       0.00242094       0.00545557       0.00341078
Ni       7.01583530      21.13653606      17.60756980       0.60000000      -0.00705185       0.01061180       0.00735198       0.00489301
Ni       7.01698299      22.90052986      19.37103318       0.60000000      -0.00670229       0.00367093       0.00111703      -0.00068369
Ni       8.77656306      21.13033789      19.36693076       0.60000000      -0.00697967       0.00677975       0.00388368       0.00229589
Ni       8.78043194      22.89640896      17.60637029       0.60000000      -0.00698888       0.00623815       0.00328186       0.00028492
Ni       7.01525868      21.13487883      21.13487883       0.60000000      -0.00670347       0.00414522       0.00084252       0.00084252
Ni       7.01816928      22.89843939      22.89843939       0.60000000      -0.00678665       0.00564227       0.00069533       0.00069533
Ni       8.77831421      21.12967897      22.89365496       0.60000000      -0.00669612       0.01235462       0.00747397       0.00837491
Ni       8.77831421      22.89365496      21.12967897       0.60000000      -0.00669612       0.01235462       0.00837491       0.00747397
Ni       7.01932635      21.13384145      24.66443741       0.60000000      -0.00676183       0.00707738       0.00118808       0.00013225
Ni       7.02394958      22.89721081      26.42774463       0.60000000      -0.00654228       0.00599836       0.00268692       0.00079329
Ni       8.78582021      21.13066078      26.42496930       0.60000000      -0.00654122      -0.00019912       0.00273175      -0.00047352
Ni       8.78325332      22.89345750      24.65847095       0.60000000      -0.00660751       0.00309553       0.00160173      -0.00095892
Ni       7.02621027      21.13410911      28.19422497       0.60000000      -0.00658040       0.00645907       0.00295751       0.00075333
Ni       7.03059483      22.89875965      29.95685693       0.60000000      -0.00650625       0.00350690      -0.00109606      -0.00060772
Ni       8.79267750      21.13288389      29.95555039       0.60000000      -0.00647507       0.00575098       0.00461229       0.00055265
Ni       8.79081505      22.89448356      28.18880859       0.60000000      -0.00645104       0.00414228       0.00438274       0.00187955
Ni       7.03288781      21.13722665      31.72303083       0.60000000      -0.00660770       0.00383895      -0.00499419      -0.00066909
Ni       7.03594410      22.90145159      33.48513185       0.60000000      -0.00655384       0.00234085      -0.00570313      -0.00110449
Ni       8.79806244      21.13628763      33.48610585       0.60000000      -0.00643655       0.00512769      -0.00162474      -0.00320060
Ni       8.79711858      22.89788892      31.71937920       0.60000000      -0.00639966       0.00546076       0.00189321      -0.00121489
Ni       7.03756361      21.13755720      35.24962330       0.60000000      -0.00663333      -0.00022056      -0.00138217       0.00210105
Ni       7.03794004      22.90066077      37.01286504       0.60000000      -0.00707825      -0.00025380      -0.00087577       0.00120895
Ni       8.79916761      21.13641126      37.01596438       0.60000000      -0.00716135       0.00183856       0.00005521      -0.00163056
Ni       8.79992122      22.90051477      35.24988875       0.60000000      -0.00647934       0.00361648      -0.00345654      -0.00380820
Ni       7.03639362      21.13686295      38.77881110       0.60000000      -0.00978067       0.01014946       0.00611778      -0.01597292
Ni       7.03857804      22.90101778      40.53847256       0.60000000      -0.00631102      -0.00983896       0.03648540      -0.13544281
Ni       8.80023019      21.13767805      40.54103993       0.60000000      -0.00598042      -0.00934199       0.03689112      -0.15375158
Ni       8.79855246      22.89907298      38.77959834       0.60000000      -0.00979432       0.01142319       0.00988787      -0.01555794
Ni       7.03958449      24.67513627      -0.01159394       0.60000000      -0.00679765      -0.01305160      -0.02651048       0.12934196
Ni       7.03825341      26.43960112       1.74976995       0.60000000      -0.00953156      -0.00073499      -0.00054963      -0.00906871
Ni       8.79993553      24.67762864       1.74788533       0.60000000      -0.00989966      -0.00060557      -0.00087685      -0.01009791
Ni       8.80157300      26.43849692      -0.01239791       0.60000000      -0.00674744      -0.01002802      -0.02568684       0.13194177
Ni       7.03638432      24.67880634       3.51028488       0.60000000      -0.00749056       0.00670016      -0.01964880       0.01294773
Ni       7.03742234      26.43746468       5.27414646       0.60000000      -0.00741987      -0.00193260       0.00359331      -0.00111023
Ni       8.79844367      24.67339325       5.27157156       0.60000000      -0.00745420      -0.00123652       0.00604433      -0.00136606
Ni       8.79823678      26.44313515       3.50912754       0.60000000      -0.00748426       0.00837142      -0.02701367       0.01524123
Ni       7.03542600      24.67031891       7.03542600       0.60000000      -0.00706968       0.00118310       0.00826428       0.00118310
Ni       7.03531963      26.43064038       8.79915952       0.60000000      -0.00712590       0.00113530       0.00792032      -0.00010308
Ni       8.79651988      24.66430794       8.79651988       0.60000000      -0.00720362       0.00180353       0.00965001       0.00180353
Ni       8.79915952      26.43064038       7.03531963       0.60000000      -0.00712590      -0.00010308       0.00792032       0.00113530
Ni       7.03250463      24.66697303      10.56109003       0.60000000      -0.00732123      -0.00292704       0.00785133      -0.00333630
Ni       7.03120644      26.42877661      12.32427952       0.60000000      -0.00716508      -0.00034228       0.01048935      -0.00620635
Ni       8.79349400      24.66160691      12.32326972       0.60000000      -0.00721939      -0.00451148       0.01021506      -0.00381903
Ni       8.79638955      26.42368842      10.56104368       0.60000000      -0.00717494       0.00209581       0.01364931      -0.00000300
Ni       7.02599035      24.66706289      14.08527309       0.60000000      -0.00709274       0.00397199       0.00480005      -0.00091005
Ni       7.02552524      26.43089698      15.84677055       0.60000000      -0.00694368       0.00512855       0.00479445      -0.00007964
Ni       8.78685583      24.66156019      15.84564801       0.60000000      -0.00697816       0.00171478       0.00447464       0.00393691
Ni       8.79209635      26.42437648      14.08548272       0.60000000      -0.00703409       0.00030288       0.01010843      -0.00061791
Ni       7.02098099      24.66641512      17.60829073       0.60000000      -0.00678879       0.00397520       0.00249605       0.00175248
Ni       7.02252249      26.43069134      19.37041513       0.60000000      -0.00675568       0.00747898       0.00001708       0.00468094
Ni       8.78163107      24.65999749      19.36826875       0.60000000      -0.00670492       0.00914859       0.00608985       0.00420171
Ni       8.78634250      26.42560296      17.60692524       0.60000000      -0.00676064       0.00791988       0.00628121       0.00529904
Ni       7.01932635      24.66443741      21.13384145       0.60000000      -0.00676183       0.00707738       0.00013225       0.00118808
Ni       7.02394958      26.42774463      22.89721081       0.60000000      -0.00654228       0.00599836       0.00079329       0.00268692
Ni       8.78325332      24.65847095      22.89345750       0.60000000      -0.00660751       0.00309553      -0.00095892       0.00160173
Ni       8.78582021      26.42496930      21.13066078       0.60000000      -0.00654122      -0.00019912      -0.00047352       0.00273175
Ni       7.02296434      24.66187745      24.66187745       0.60000000      -0.00657966       0.00628185       0.00220966       0.00220966
Ni       7.02805038      26.42511886      26.42511886       0.60000000      -0.00635872       0.00559446      -0.00078010      -0.00078010
Ni       8.78983232      24.65785762      26.42246341       0.60000000      -0.00658810       0.00337203       0.00050968       0.00170129
Ni       8.78983232      26.42246341      24.65785762       0.60000000      -0.00658810       0.00337203       0.00170129       0.00050968
Ni       7.02914841      24.66076974      28.19044766       0.60000000      -0.00640392       0.00250116       0.00272322      -0.00063758
Ni       7.03389919      26.42426539      29.95267960       0.60000000      -0.00641317       0.00051462       0.00244656       0.00081787
Ni       8.79635750      24.65929984      29.95255536       0.60000000      -0.00628874       0.00297738       0.00092853       0.00078709
Ni       8.79586650      26.42180309      28.18603455       0.60000000      -0.00637661       0.00436961       0.00210315       0.00297131
Ni       7.03452483      24.66282376      31.71903463       0.60000000      -0.00652182       0.00285155      -0.00115281      -0.00016367
Ni       7.03790860      26.42657057      33.48127578       0.60000000      -0.00650154       0.00054925      -0.00218314       0.00012842
Ni       8.80053252      24.66272888      33.48293865       0.60000000      -0.00643831       0.00390499      -0.00289924      -0.00345187
Ni       8.80060423      26.42397128      31.71616453       0.60000000      -0.00629388       0.00400485      -0.00235268      -0.00397424
Ni       7.03824155      24.66477030      35.24734303       0.60000000      -0.00653749       0.00008943      -0.00436947      -0.00006165
Ni       7.03902725      26.42736744      37.01011885       0.60000000      -0.00690560       0.00081951      -0.00312562       0.00028697
Ni       8.80043878      24.66358800      37.01327609       0.60000000      -0.00690766       0.00262897      -0.00276691      -0.00136620
Ni       8.80270519      26.42639296      35.24625900       0.60000000      -0.00649545       0.00065304      -0.00271140      -0.00185182
Ni       7.03718674      24.66290959      38.77618242       0.60000000      -0.00945895       0.01067111       0.00844314      -0.01084139
Ni       7.03962665      26.42710282      40.53625274       0.60000000      -0.00644840      -0.01052595       0.03715982      -0.12586283
Ni       8.80121859      24.66374460      40.53885208       0.60000000      -0.00610854      -0.01144431       0.04101396      -0.14670040
Ni       8.80003178      26.42585881      38.77619334       0.60000000      -0.00933344       0.01367872       0.00832111      -0.00871054
Ni       7.03981508      28.20041142      -0.01082978       0.60000000      -0.00700110      -0.00816970      -0.02209974       0.10891294
Ni       7.03888864      29.96436007       1.75088775       0.60000000      -0.00916428      -0.00091036      -0.00009061      -0.00884668
Ni       8.80029517      28.20309226       1.74904952       0.60000000      -0.00956720      -0.00083221      -0.00031802      -0.01001791
Ni       8.80197409      29.96336725      -0.01124961       0.60000000      -0.00699612      -0.00442956      -0.01973238       0.10862737
Ni       7.03703620      28.20417458       3.51136668       0.60000000      -0.00746819       0.00814109      -0.01681029       0.01586955
Ni       7.04009192      29.96191460       5.27708226       0.60000000      -0.00754347      -0.00498378       0.00644366      -0.00488287
Ni       8.80040011      28.19932997       5.27378388       0.60000000      -0.00744805      -0.00301509       0.00314799      -0.00027784
Ni       8.79918092      29.96767821       3.51077641       0.60000000      -0.00740922       0.00740529      -0.02240470       0.01686638
Ni       7.03910290      28.19607245       7.03910290       0.60000000      -0.00713228      -0.00439516       0.00777523      -0.00439516
Ni       7.04033637      29.95591236       8.80306344       0.60000000      -0.00714820      -0.00601141       0.00908805      -0.00516133
Ni       8.80090736      28.18841802       8.80090736       0.60000000      -0.00709816      -0.00371111       0.01242961      -0.00371111
Ni       8.80306344      29.95591236       7.04033637       0.60000000      -0.00714820      -0.00516133       0.00908805      -0.00601141
Ni       7.03521782      28.19188295      10.56265504       0.60000000      -0.00712237       0.00183375       0.00820929      -0.00321085
Ni       7.03496438      29.95673108      12.32281151       0.60000000      -0.00709329       0.00293121       0.00585472       0.00187964
Ni       8.79577710      28.18632142      12.32372283       0.60000000      -0.00706154       0.00561749       0.01473186       0.00097319
Ni       8.80154816      29.95031135      10.56402471       0.60000000      -0.00706128      -0.00396727       0.01408443      -0.00401688
Ni       7.03032206      28.19405496      14.08490556       0.60000000      -0.00708928       0.00452309       0.00448595      -0.00119615
Ni       7.03103610      29.96079251      15.84526418       0.60000000      -0.00694968       0.00602969      -0.00285987       0.00475444
Ni       8.79078889      28.19030331      15.84543832       0.60000000      -0.00684748       0.00668528       0.00664828       0.00474498
Ni       8.79505895      29.95390328      14.08301038       0.60000000      -0.00691243       0.00821189       0.00456188       0.00780421
Ni       7.02717630      28.19640407      17.60809177       0.60000000      -0.00685985       0.00324544       0.00063644       0.00373455
Ni       7.02995642      29.96067066      19.37199182       0.60000000      -0.00669570       0.00276488      -0.00186783       0.00063876
Ni       8.78868294      28.19110410      19.36893096       0.60000000      -0.00662671       0.00503415       0.00146924       0.00393693
Ni       8.79163186      29.95731728      17.60678174       0.60000000      -0.00665824       0.01029375      -0.00145393       0.00649132
Ni       7.02621027      28.19422497      21.13410911       0.60000000      -0.00658040       0.00645907       0.00075333       0.00295751
Ni       7.03059483      29.95685693      22.89875965       0.60000000      -0.00650625       0.00350690      -0.00060772      -0.00109606
Ni       8.79081505      28.18880859      22.89448356       0.60000000      -0.00645104       0.00414228       0.00187955       0.00438274
Ni       8.79267750      29.95555039      21.13288389       0.60000000      -0.00647507       0.00575098       0.00055265       0.00461229
Ni       7.02914841      28.19044766      24.66076974       0.60000000      -0.00640392       0.00250116      -0.00063758       0.00272322
Ni       7.03389919      29.95267960      26.42426539       0.60000000      -0.00641317       0.00051462       0.00081787       0.00244656
Ni       8.79586650      28.18603455      26.42180309       0.60000000      -0.00637661       0.00436961       0.00297131       0.00210315
Ni       8.79635750      29.95255536      24.65929984       0.60000000      -0.00628874       0.00297738       0.00078709       0.00092853
Ni       7.03334359      28.18791962      28.18791962       0.60000000      -0.00629880       0.00094091      -0.00029950      -0.00029950
Ni       7.03722779      29.95063169      29.95063169       0.60000000      -0.00632589       0.00132093       0.00091063       0.00091063
Ni       8.80049563      28.18611170      29.94998829       0.60000000      -0.00628241       0.00449760      -0.00326702      -0.00244562
Ni       8.80049563      29.94998829      28.18611170       0.60000000      -0.00628241       0.00449760      -0.00244562      -0.00326702
Ni       7.03763967      28.18769492      31.71508602       0.60000000      -0.00643012       0.00004579       0.00187216       0.00156548
Ni       7.04099777      29.95069564      33.47767138       0.60000000      -0.00644750      -0.00279152       0.00229110       0.00291708
Ni       8.80403937      28.18759412      33.47901630       0.60000000      -0.00628253      -0.00012904      -0.00010866      -0.00017659
Ni       8.80418963      29.94986436      31.71338804       0.60000000      -0.00624304       0.00151058      -0.00296585      -0.00190125
Ni       7.04053332      28.18966837      35.24361179       0.60000000      -0.00653598      -0.00219650      -0.00189259       0.00239009
Ni       7.04125805      29.95258161      37.00699525       0.60000000      -0.00688280      -0.00096422      -0.00067637       0.00206089
Ni       8.80310276      28.18925845      37.00976479       0.60000000      -0.00682088       0.00073936      -0.00031769      -0.00049124
Ni       8.80566523      29.95070159      35.24253696       0.60000000      -0.00645893      -0.00177422       0.00265859       0.00203174
Ni       7.03870461      28.18961144      38.77319650       0.60000000      -0.00902352       0.01167790       0.00549321      -0.00671574
Ni       7.04106653      29.95343156      40.53402454       0.60000000      -0.00659160      -0.01100019       0.03276426      -0.11185991
Ni       8.80273700      28.19032262      40.53626087       0.60000000      -0.00630497      -0.01281622       0.03823266      -0.13316882
Ni       8.80210650      29.95314789      38.77298673       0.60000000      -0.00889160       0.01215644       0.00043782      -0.00528512
Ni       7.04041301      31.72481382      -0.00974401       0.60000000      -0.00718747      -0.00365989      -0.01662936       0.08966357
Ni       7.03985310      33.48817307       1.75225763       0.60000000      -0.00887086      -0.00089365       0.00030231      -0.00794399
Ni       8.80114469      31.72726470       1.75058490       0.60000000      -0.00917463      -0.00086992       0.00018922      -0.00941176
Ni       8.80272487      33.48735954      -0.00986059       0.60000000      -0.00720200      -0.00007124      -0.01347879       0.08881953
Ni       7.03814623      31.72815237       3.51283694       0.60000000      -0.00748286       0.00976139      -0.01714923       0.02019273
Ni       7.04153252      33.48556549       5.27907488       0.60000000      -0.00758044      -0.00512255       0.00900104      -0.00538714
Ni       8.80198393      31.72385226       5.27712004       0.60000000      -0.00755194      -0.00337245       0.00603199      -0.00453442
Ni       8.80053245      33.49091454       3.51267688       0.60000000      -0.00750570       0.00594498      -0.01861914       0.01996833
Ni       7.04245652      31.72036898       7.04245652       0.60000000      -0.00719670      -0.00756821       0.01180765      -0.00756821
Ni       7.04239281      33.48385305       8.80371125       0.60000000      -0.00712896      -0.00505138       0.00632669      -0.00257826
Ni       8.80429603      31.71719272       8.80429603       0.60000000      -0.00712624      -0.00497384       0.00766222      -0.00497384
Ni       8.80371125      33.48385305       7.04239281       0.60000000      -0.00712896      -0.00257826       0.00632669      -0.00505138
Ni       7.04010734      31.72000221      10.56312818       0.60000000      -0.00716908      -0.00421481       0.00633853       0.00059127
Ni       7.03938414      33.48586682      12.32281786       0.60000000      -0.00707154      -0.00205638       0.00385730       0.00427891
Ni       8.80069803      31.71785447      12.32275022       0.60000000      -0.00695350      -0.00040247       0.00640655       0.00544139
Ni       8.80350553      33.48392060      10.56390999       0.60000000      -0.00700763      -0.00140576       0.00208672       0.00218157
Ni       7.03536189      31.72313151      14.08270421       0.60000000      -0.00700464       0.00225739       0.00180352       0.00620873
Ni       7.03663745      33.48722089      15.84589814       0.60000000      -0.00685723       0.00052125       0.00340077       0.00288247
Ni       8.79577347      31.72145490      15.84384824       0.60000000      -0.00662876       0.00848439      -0.00128510       0.01080518
Ni       8.80022407      33.48537437      14.08319232       0.60000000      -0.00678303       0.00089862       0.00206339       0.00594230
Ni       7.03306613      31.72505126      17.60878134       0.60000000      -0.00674613       0.00518356      -0.00289645       0.00272986
Ni       7.03546479      33.48726297      19.37362354       0.60000000      -0.00666655       0.00379249       0.00049183      -0.00092498
Ni       8.79478949      31.72231751      19.37130585       0.60000000      -0.00648718       0.00791616      -0.00378604       0.00139254
Ni       8.79773448      33.48684319      17.60797271       0.60000000      -0.00659834       0.00512836      -0.00208194       0.00463064
Ni       7.03288781      31.72303083      21.13722665       0.60000000      -0.00660770       0.00383895      -0.00066909      -0.00499419
Ni       7.03594410      33.48513185      22.90145159       0.60000000      -0.00655384       0.00234085      -0.00110449      -0.00570313
Ni       8.79711858      31.71937920      22.89788892       0.60000000      -0.00639966       0.00546076      -0.00121489       0.00189321
Ni       8.79806244      33.48610585      21.13628763       0.60000000      -0.00643655       0.00512769      -0.00320060      -0.00162474
Ni       7.03452483      31.71903463      24.66282376       0.60000000      -0.00652182       0.00285155      -0.00016367      -0.00115281
Ni       7.03790860      33.48127578      26.42657057       0.60000000      -0.00650154       0.00054925       0.00012842      -0.00218314
Ni       8.80060423      31.71616453      26.42397128       0.60000000      -0.00629388       0.00400485      -0.00397424      -0.00235268
Ni       8.80053252      33.48293865      24.66272888       0.60000000      -0.00643831       0.00390499      -0.00345187      -0.00289924
Ni       7.03763967      31.71508602      28.18769492       0.60000000      -0.00643012       0.00004579       0.00156548       0.00187216
Ni       7.04099777      33.47767138      29.95069564       0.60000000      -0.00644750      -0.00279152       0.00291708       0.00229110
Ni       8.80418963      31.71338804      29.94986436       0.60000000      -0.00624304       0.00151058      -0.00190125      -0.00296585
Ni       8.80403937      33.47901630      28.18759412       0.60000000      -0.00628253      -0.00012904      -0.00017659      -0.00010866
Ni       7.04079485      31.71331821      31.71331821       0.60000000      -0.00632889      -0.00140697       0.00261976       0.00261976
Ni       7.04288696      33.47647403      33.47647403       0.60000000      -0.00647005      -0.00164868       0.00349043       0.00349043
Ni       8.80622574      31.71316676      33.47695006       0.60000000      -0.00635919       0.00087171      -0.00002881       0.00006459
Ni       8.80622574      33.47695006      31.71316676       0.60000000      -0.00635919       0.00087171       0.00006459      -0.00002881
Ni       7.04267389      31.71383423      35.24105888       0.60000000      -0.00659061      -0.00210753       0.00336202       0.00251638
Ni       7.04286201      33.47786782      37.00522890       0.60000000      -0.00692215      -0.00082389       0.00176030      -0.00033906
Ni       8.80512123      31.71474959      37.00677624       0.60000000      -0.00682656      -0.00074707       0.00257632       0.00162171
Ni       8.80622820      33.47716679      35.24134947       0.60000000      -0.00655460       0.00065525       0.00111834      -0.00090129
Ni       7.04060487      31.71639569      38.77075113       0.60000000      -0.00869137       0.01044531      -0.00236887      -0.00608674
Ni       7.04257540      33.47952554      40.53222137       0.60000000      -0.00678411      -0.01136172       0.02613288      -0.09597998
Ni       8.80442094      31.71687203      40.53396925       0.60000000      -0.00652707      -0.01375321       0.03119081      -0.11555083
Ni       8.80419396      33.48005060      38.77067418       0.60000000      -0.00864893       0.00628265      -0.00623043      -0.00417137
Ni       7.04124175      35.24857066      -0.00850336       0.60000000      -0.00733304      -0.00025948      -0.01130858       0.07388116
Ni       7.04097092      37.01142507       1.75369884       0.60000000      -0.00876101      -0.00071340       0.00064844      -0.00633272
Ni       8.80227286      35.25059283       1.75225763       0.60000000      -0.00891851      -0.00074667       0.00054074      -0.00798340
Ni       8.80366017      37.01079724      -0.00840995       0.60000000      -0.00735261       0.00265004      -0.00810718       0.07311855
Ni       7.03949175      35.25126999       3.51446497       0.60000000      -0.00761346       0.00706046      -0.01398188       0.01990679
Ni       7.04132911      37.01126898       5.27931737       0.60000000      -0.00766565      -0.00433428       0.00411242      -0.00399465
Ni       8.80250415      35.24916049       5.27862639       0.60000000      -0.00753622      -0.00229657       0.00556958      -0.00419113
Ni       8.80203342      37.01352113       3.51458977       0.60000000      -0.00770664       0.00336769      -0.01118389       0.01582098
Ni       7.04246215      35.24745259       7.04246215       0.60000000      -0.00701256      -0.00501637       0.00748539      -0.00501637
Ni       7.04106868      37.01307348       8.80279010       0.60000000      -0.00746324      -0.00459659       0.00285782      -0.00358065
Ni       8.80375429      35.24928341       8.80375429       0.60000000      -0.00705966      -0.00319887       0.00179762      -0.00319887
Ni       8.80279010      37.01307348       7.04106868       0.60000000      -0.00746324      -0.00358065       0.00285782      -0.00459659
Ni       7.04120248      35.24953315      10.56386094       0.60000000      -0.00708923      -0.00379683       0.00317711      -0.00190084
Ni       7.03949944      37.01477431      12.32515636       0.60000000      -0.00752702      -0.00301182       0.00267131      -0.00201418
Ni       8.80223677      35.25077018      12.32416444       0.60000000      -0.00703552      -0.00182745       0.00196970       0.00148090
Ni       8.80197931      37.01556874      10.56367244       0.60000000      -0.00756030      -0.00313416       0.00186717      -0.00174793
Ni       7.03919469      35.25039509      14.08532999       0.60000000      -0.00704286      -0.00298646       0.00510421       0.00017275
Ni       7.03828593      37.01537675      15.84840792       0.60000000      -0.00746713      -0.00199878       0.00154729       0.00076341
Ni       8.79982608      35.25165313      15.84594645       0.60000000      -0.00685660       0.00225254      -0.00057132       0.00462218
Ni       8.80019789      37.01730362      14.08557639       0.60000000      -0.00747133      -0.00004479      -0.00225177       0.00303146
Ni       7.03803584      35.25046820      17.61003525       0.60000000      -0.00685906      -0.00235401       0.00446698       0.00161219
Ni       7.03776579      37.01458251      19.37373308       0.60000000      -0.00731550      -0.00049986       0.00210826       0.00212250
Ni       8.79913915      35.25149464      19.37260297       0.60000000      -0.00664296       0.00195034      -0.00218070       0.00085828
Ni       8.79892423      37.01721378      17.60976674       0.60000000      -0.00737223       0.00348509      -0.00167663       0.00285429
Ni       7.03756361      35.24962330      21.13755720       0.60000000      -0.00663333      -0.00022056       0.00210105      -0.00138217
Ni       7.03794004      37.01286504      22.90066077       0.60000000      -0.00707825      -0.00025380       0.00120895      -0.00087577
Ni       8.79992122      35.24988875      22.90051477       0.60000000      -0.00647934       0.00361648      -0.00380820      -0.00345654
Ni       8.79916761      37.01596438      21.13641126       0.60000000      -0.00716135       0.00183856      -0.00163056       0.00005521
Ni       7.03824155      35.24734303      24.66477030       0.60000000      -0.00653749       0.00008943      -0.00006165      -0.00436947
Ni       7.03902725      37.01011885      26.42736744       0.60000000      -0.00690560       0.00081951       0.00028697      -0.00312562
Ni       8.80270519      35.24625900      26.42639296       0.60000000      -0.00649545       0.00065304      -0.00185182      -0.00271140
Ni       8.80043878      37.01327609      24.66358800       0.60000000      -0.00690766       0.00262897      -0.00136620      -0.00276691
Ni       7.04053332      35.24361179      28.18966837       0.60000000      -0.00653598      -0.00219650       0.00239009      -0.00189259
Ni       7.04125805      37.00699525      29.95258161       0.60000000      -0.00688280      -0.00096422       0.00206089      -0.00067637
Ni       8.80566523      35.24253696      29.95070159       0.60000000      -0.00645893      -0.00177422       0.00203174       0.00265859
Ni       8.80310276      37.00976479      28.18925845       0.60000000      -0.00682088       0.00073936      -0.00049124      -0.00031769
Ni       7.04267389      35.24105888      31.71383423       0.60000000      -0.00659061      -0.00210753       0.00251638       0.00336202
Ni       7.04286201      37.00522890      33.47786782       0.60000000      -0.00692215      -0.00082389      -0.00033906       0.00176030
Ni       8.80622820      35.24134947      33.47716679       0.60000000      -0.00655460       0.00065525      -0.00090129       0.00111834
Ni       8.80512123      37.00677624      31.71474959       0.60000000      -0.00682656      -0.00074707       0.00162171       0.00257632
Ni       7.04366796      35.24029153      35.24029153       0.60000000      -0.00666110      -0.00228631       0.00283594       0.00283594
Ni       7.04334536      37.00452355      37.00452355       0.60000000      -0.00708928      -0.00053328       0.00121316       0.00121316
Ni       8.80545737      35.24189672      37.00580970       0.60000000      -0.00686502       0.00017775       0.00002839      -0.00163432
Ni       8.80545737      37.00580970      35.24189672       0.60000000      -0.00686502       0.00017775      -0.00163432       0.00002839
Ni       7.04241459      35.24260688      38.76908285       0.60000000      -0.00849506       0.00482769      -0.00564031      -0.00484912
Ni       7.04388441      37.00504030      40.53089373       0.60000000      -0.00701217      -0.01114824       0.01983102      -0.08035552
Ni       8.80590174      35.24285188      40.53222137       0.60000000      -0.00681794      -0.01382593       0.02362433      -0.09697178
Ni       8.80585481      37.00597386      38.76913583       0.60000000      -0.00854467       0.00038117      -0.00508758      -0.00124429
Ni       7.04216594      38.77195443      -0.00724558       0.60000000      -0.00870056       0.00198986      -0.00263471       0.06136279
Ni       7.04209602      40.53444311       1.75507637       0.60000000      -0.00849975       0.00484385      -0.07542309      -0.00435306
Ni       8.80348405      38.77352397       1.75388829       0.60000000      -0.01038773      -0.00046510       0.00570449      -0.00554609
Ni       8.80463602      40.53397527      -0.00702840       0.60000000      -0.00707029       0.01162488      -0.08354496       0.06570993
Ni       7.04087748      38.77401891       3.51606654       0.60000000      -0.00926725      -0.00110144      -0.00156575       0.00634252
Ni       7.04097092      40.53631463       5.27858840       0.60000000      -0.00705094       0.00370456      -0.09112249       0.00110591
Ni       8.80203342      38.77606039       5.27712903       0.60000000      -0.00943518       0.00355601      -0.00886573       0.00861192
Ni       8.80348405      40.53598327       3.51634759       0.60000000      -0.00724921       0.00626624      -0.08958668      -0.00117136
Ni       7.03949175      38.77629677       7.03949175       0.60000000      -0.00934161       0.00716069      -0.00999897       0.00716069
Ni       7.03985310      40.53818830       8.80227286       0.60000000      -0.00682182       0.00152921      -0.10815760       0.00502036
Ni       8.80053245      38.77877011       8.80053245       0.60000000      -0.00966757       0.00814642      -0.01045006       0.00814642
Ni       8.80227286      40.53818830       7.03985310       0.60000000      -0.00682182       0.00502036      -0.10815760       0.00152921
Ni       7.03814623      38.77845031      10.56313487       0.60000000      -0.00967705       0.00891610      -0.01137895       0.00537555
Ni       7.03888864      40.53970675      12.32623443       0.60000000      -0.00660739      -0.00170869      -0.12369437       0.01171898
Ni       8.79918092      38.78113266      12.32423086       0.60000000      -0.00992966       0.00855829      -0.01193661       0.00507032
Ni       8.80114469      40.54027556      10.56359577       0.60000000      -0.00657032       0.00226840      -0.12750287       0.00700143
Ni       7.03703620      38.77993609      14.08712818       0.60000000      -0.00985698       0.00872006      -0.01342623       0.00315356
Ni       7.03825341      40.54042847      15.85059730       0.60000000      -0.00639247      -0.00530029      -0.13460536       0.02087420
Ni       8.79823678      38.78240545      15.84839784       0.60000000      -0.01011145       0.00956320      -0.01815648       0.00398787
Ni       8.80029517      40.54175103      14.08770829       0.60000000      -0.00628403      -0.00175698      -0.14348092       0.01599870
Ni       7.03638432      38.78016197      17.61164051       0.60000000      -0.00990459       0.00922183      -0.01653370       0.00355801
Ni       7.03811451      40.54001561      19.37549479       0.60000000      -0.00626659      -0.00820346      -0.13867384       0.03025710
Ni       8.79796256      38.78192903      19.37326519       0.60000000      -0.01006815       0.00966845      -0.02022913       0.00611390
Ni       8.79993553      40.54209299      17.61234968       0.60000000      -0.00603035      -0.00601165      -0.15273228       0.02720655
Ni       7.03639362      38.77881110      21.13686295       0.60000000      -0.00978067       0.01014946      -0.01597292       0.00611778
Ni       7.03857804      40.53847256      22.90101778       0.60000000      -0.00631102      -0.00983896      -0.13544281       0.03648540
Ni       8.79855246      38.77959834      22.89907298       0.60000000      -0.00979432       0.01142319      -0.01555794       0.00988787
Ni       8.80023019      40.54103993      21.13767805       0.60000000      -0.00598042      -0.00934199      -0.15375158       0.03689112
Ni       7.03718674      38.77618242      24.66290959       0.60000000      -0.00945895       0.01067111      -0.01084139       0.00844314
Ni       7.03962665      40.53625274      26.42710282       0.60000000      -0.00644840      -0.01052595      -0.12586283       0.03715982
Ni       8.80003178      38.77619334      26.42585881       0.60000000      -0.00933344       0.01367872      -0.00871054       0.00832111
Ni       8.80121859      40.53885208      24.66374460       0.60000000      -0.00610854      -0.01144431      -0.14670040       0.04101396
Ni       7.03870461      38.77319650      28.18961144       0.60000000      -0.00902352       0.01167790      -0.00671574       0.00549321
Ni       7.04106653      40.53402454      29.95343156       0.60000000      -0.00659160      -0.01100019      -0.11185991       0.03276426
Ni       8.80210650      38.77298673      29.95314789       0.60000000      -0.00889160       0.01215644      -0.00528512       0.00043782
Ni       8.80273700      40.53626087      28.19032262       0.60000000      -0.00630497      -0.01281622      -0.13316882       0.03823266
Ni       7.04060487      38.77075113      31.71639569       0.60000000      -0.00869137       0.01044531      -0.00608674      -0.00236887
Ni       7.04257540      40.53222137      33.47952554       0.60000000      -0.00678411      -0.01136172      -0.09597998       0.02613288
Ni       8.80419396      38.77067418      33.48005060       0.60000000      -0.00864893       0.00628265      -0.00417137      -0.00623043
Ni       8.80442094      40.53396925      31.71687203       0.60000000      -0.00652707      -0.01375321      -0.11555083       0.03119081
Ni       7.04241459      38.76908285      35.24260688       0.60000000      -0.00849506       0.00482769      -0.00484912      -0.00564031
Ni       7.04388441      40.53089373      37.00504030       0.60000000      -0.00701217      -0.01114824      -0.08035552       0.01983102
Ni       8.80585481      38.76913583      37.00597386       0.60000000      -0.00854467       0.00038117      -0.00124429      -0.00508758
Ni       8.80590174      40.53222137      35.24285188       0.60000000      -0.00681794      -0.01382593      -0.09697178       0.02362433
Ni       7.04385712      38.76797487      38.76797487       0.60000000      -0.00975600       0.00039735      -0.00032842      -0.00032842
Ni       7.04489503      40.52991971      40.52991971       0.60000000      -0.00707284      -0.02122245      -0.05884489      -0.05884489
Ni       8.80701884      38.76806371      40.53093013       0.60000000      -0.00840252      -0.01285101       0.02169929      -0.07973124
Ni       8.80701884      40.53093013      38.76806371       0.60000000      -0.00840252      -0.01285101      -0.07973124       0.02169929
Ni      10.57065598      -0.00571246      -0.00571246       0.60000000      -0.00692373      -0.02967489       0.07131369       0.07131369
Ni      10.57014256       1.75542234       1.75542234       0.60000000      -0.01069776      -0.00046198      -0.00534234      -0.00534234
Ni      12.33315928      -0.00691492       1.75579043       0.60000000      -0.00864491      -0.01771017       0.09876481      -0.01908165
Ni      12.33315928       1.75579043      -0.00691492       0.60000000      -0.00864491      -0.01771017      -0.01908165       0.09876481
Ni      10.57013202      -0.00727050       3.51828883       0.60000000      -0.00707865      -0.01825092       0.10611617      -0.01555061
Ni      10.56934701       1.75343518       5.27951213       0.60000000      -0.00931248      -0.00063164      -0.00689489      -0.00011017
Ni      12.33267981      -0.00881385       5.27990752       0.60000000      -0.00688301      -0.02188299       0.12568938      -0.01817442
Ni      12.33274162       1.75385183       3.51678511       0.60000000      -0.00930567      -0.00066412      -0.00630889       0.00000262
Ni      10.56933018      -0.00914984       7.04281652       0.60000000      -0.00681293      -0.02192817       0.13233258      -0.01993378
Ni      10.56812900       1.75103178       8.80442094       0.60000000      -0.00964907      -0.00078954      -0.00788356      -0.00058825
Ni      12.33184775      -0.01102527       8.80471724       0.60000000      -0.00653649      -0.02574005       0.15586476      -0.02307603
Ni      12.33197012       1.75137714       7.04106653       0.60000000      -0.00955591      -0.00084993      -0.00788430      -0.00027964
Ni      10.56818505      -0.01119255      10.56818505       0.60000000      -0.00649870      -0.02479538       0.15899579      -0.02479538
Ni      10.56645623       1.74853135      12.33064441       0.60000000      -0.01000913      -0.00086731      -0.00828874      -0.00104026
Ni      12.33056910      -0.01326667      12.33056910       0.60000000      -0.00616089      -0.02790304       0.18411619      -0.02790304
Ni      12.33064441       1.74853135      10.56645623       0.60000000      -0.01000913      -0.00104026      -0.00828874      -0.00086731
Ni      10.56676009      -0.01304135      14.09460884       0.60000000      -0.00621457      -0.02568659       0.18005347      -0.02923172
Ni      10.56457587       1.74655014      15.85835722       0.60000000      -0.01034439      -0.00079125      -0.00837657      -0.00125505
Ni      12.32895174      -0.01504777      15.85757581       0.60000000      -0.00588419      -0.02687556       0.20215738      -0.03154221
Ni      12.32872415       1.74586735      14.09347778       0.60000000      -0.01050295      -0.00118065      -0.00787995      -0.00129857
Ni      10.56531601      -0.01425829      17.62188796       0.60000000      -0.00607938      -0.02365968       0.18822647      -0.03208849
Ni      10.56297688       1.74563153      19.38685803       0.60000000      -0.01047257      -0.00061244      -0.00918945      -0.00136983
Ni      12.32736784      -0.01591416      19.38527496       0.60000000      -0.00583991      -0.02199263       0.20265824      -0.03268908
Ni      12.32659275       1.74416477      17.62201042       0.60000000      -0.01079657      -0.00113369      -0.00817402      -0.00147772
Ni      10.56420222      -0.01458655      21.14930191       0.60000000      -0.00616578      -0.01873350       0.17980587      -0.03208842
Ni      10.56206345       1.74586687      22.91482793       0.60000000      -0.01031934      -0.00054926      -0.01048448      -0.00115563
Ni      12.32624651      -0.01573116      22.91273188       0.60000000      -0.00605074      -0.01421932       0.18538002      -0.03025878
Ni      12.32490103       1.74385413      21.15087031       0.60000000      -0.01070131      -0.00078715      -0.01005781      -0.00135602
Ni      10.56365874      -0.01406388      24.67601172       0.60000000      -0.00642402      -0.01200016       0.15815497      -0.02863299
Ni      10.56195822       1.74699594      26.44130136       0.60000000      -0.00998028      -0.00066355      -0.01114409      -0.00063223
Ni      12.32581909      -0.01468370      26.43913142       0.60000000      -0.00640158      -0.00571583       0.15795733      -0.02441466
Ni      12.32408714       1.74478405      24.67858517       0.60000000      -0.01044307      -0.00054793      -0.01151955      -0.00094001
Ni      10.56372924      -0.01291163      28.20155667       0.60000000      -0.00673555      -0.00511086       0.13160113      -0.02252218
Ni      10.56254729       1.74867143      29.96612421       0.60000000      -0.00960297      -0.00077097      -0.01069424       0.00001846
Ni      12.32606282      -0.01308827      29.96420574       0.60000000      -0.00675975       0.00135996       0.12987733      -0.01681772
Ni      12.32419899       1.74652909      28.20443292       0.60000000      -0.01002856      -0.00053642      -0.01195517      -0.00024749
Ni      10.56430002      -0.01139389      31.72597069       0.60000000      -0.00701529       0.00042917       0.10736777      -0.01547302
Ni      10.56359577       1.75058490      33.48971577       0.60000000      -0.00921567      -0.00070183      -0.00957696       0.00049757
Ni      12.32679205      -0.01124961      33.48818521       0.60000000      -0.00705123       0.00581601       0.10603933      -0.00966399
Ni      12.32501868       1.74867143      31.72859560       0.60000000      -0.00961227      -0.00054002      -0.01110357       0.00039993
Ni      10.56518312      -0.00974401      35.24958393       0.60000000      -0.00722733       0.00390316       0.08780648      -0.00921022
Ni      10.56485029       1.75249801      37.01264735       0.60000000      -0.00900517      -0.00051132      -0.00763853       0.00086180
Ni      12.32777423      -0.00940452      37.01150144       0.60000000      -0.00725936       0.00773863       0.08666330      -0.00430866
Ni      12.32623443       1.75088775      35.25170586       0.60000000      -0.00923810      -0.00039331      -0.00944352       0.00074668
Ni      10.56619075      -0.00813762      38.77277333       0.60000000      -0.00880011       0.00565107       0.07218784       0.00025549
Ni      10.56610728       1.75425058      40.53536459       0.60000000      -0.00861563       0.00871439      -0.00694308      -0.08557131
Ni      12.32881139      -0.00770898      40.53453539       0.60000000      -0.00693559       0.01949659       0.07533597      -0.08891260
Ni      12.32756309       1.75295688      38.77437803       0.60000000      -0.01077583      -0.00014115      -0.00660601       0.00644657
Ni      10.57013202       3.51828883      -0.00727050       0.60000000      -0.00707865      -0.01825092      -0.01555061       0.10611617
Ni      10.56934701       5.27951213       1.75343518       0.60000000      -0.00931248      -0.00063164      -0.00011017      -0.00689489
Ni      12.33274162       3.51678511       1.75385183       0.60000000      -0.00930567      -0.00066412       0.00000262      -0.00630889
Ni      12.33267981       5.27990752      -0.00881385       0.60000000      -0.00688301      -0.02188299      -0.01817442       0.12568938
Ni      10.56935458       3.51634524       3.51634524       0.60000000      -0.00736833      -0.00086007       0.00346486       0.00346486
Ni      10.56913713       5.27816411       5.27816411       0.60000000      -0.00731784      -0.00171968      -0.00071309      -0.00071309
Ni      12.33204788       3.51423386       5.27750839       0.60000000      -0.00726911       0.00238067       0.01014731       0.00632096
Ni      12.33204788       5.27750839       3.51423386       0.60000000      -0.00726911       0.00238067       0.00632096       0.01014731
Ni      10.56810320       3.51374776       7.04060487       0.60000000      -0.00722306       0.00431876       0.01046685       0.00413941
Ni      10.56721550       5.27533373       8.80292430       0.60000000      -0.00719464      -0.00224987      -0.00173734      -0.00160884
Ni      12.33075322       3.51091438       8.80210650       0.60000000      -0.00713729       0.00316214       0.01263003       0.00482070
Ni      12.33244252       5.27620524       7.04002970       0.60000000      -0.00723313      -0.00435137      -0.00271355      -0.00261142
Ni      10.56621195       3.51062909      10.56621195       0.60000000      -0.00710802       0.00245901       0.01093561       0.00245901
Ni      10.56430500       5.27207649      12.32885524       0.60000000      -0.00731859      -0.00415750      -0.00584540      -0.00355161
Ni      12.32859407       3.50723037      12.32859407       0.60000000      -0.00693445      -0.00412959       0.00541122      -0.00412959
Ni      12.32885524       5.27207649      10.56430500       0.60000000      -0.00731859      -0.00355161      -0.00584540      -0.00415750
Ni      10.56382061       3.50766339      14.09394544       0.60000000      -0.00700178       0.00103440       0.00762547      -0.00467614
Ni      10.56240620       5.26860091      15.85664840       0.60000000      -0.00725934      -0.00626101      -0.00582121      -0.00495280
Ni      12.32581307       3.50429067      15.85767496       0.60000000      -0.00692811      -0.00434338       0.00050890      -0.01527660
Ni      12.32461795       5.26677334      14.08946899       0.60000000      -0.00724209      -0.00048300      -0.00451402       0.00096365
Ni      10.56157284       3.50583938      17.62359987       0.60000000      -0.00698354       0.00294539       0.00286356      -0.01489231
Ni      10.56093828       5.26694953      19.38465567       0.60000000      -0.00726362      -0.00247631      -0.00122444      -0.00107740
Ni      12.32333758       3.50314019      19.38833808       0.60000000      -0.00713980       0.00524107       0.00426500      -0.02170496
Ni      12.32246480       5.26296937      17.61864348       0.60000000      -0.00714076       0.00300191       0.00449328       0.00082571
Ni      10.56014380       3.50557741      21.15336239       0.60000000      -0.00718489       0.00806068       0.00593389      -0.02480736
Ni      10.56038738       5.26804631      22.91117883       0.60000000      -0.00735301      -0.00189307      -0.00056193       0.00117888
Ni      12.32195859       3.50379840      22.91810667       0.60000000      -0.00720436       0.00882709       0.00565533      -0.03293434
Ni      12.32247247       5.26418818      21.14800885       0.60000000      -0.00736034      -0.00077740      -0.00038921      -0.00194151
Ni      10.55977357       3.50658445      24.68133286       0.60000000      -0.00732238       0.00798838       0.01019092      -0.03195014
Ni      10.56120841       5.27061888      26.43608246       0.60000000      -0.00747800      -0.00283514      -0.00071860       0.00509964
Ni      12.32184211       3.50565872      26.44530000       0.60000000      -0.00738397       0.00886409       0.01197275      -0.03566937
Ni      12.32283512       5.26635786      24.67380913       0.60000000      -0.00726990      -0.00216911       0.00099833       0.00393861
Ni      10.56034720       3.50838463      28.20690210       0.60000000      -0.00748360       0.00800288       0.01603379      -0.03089510
Ni      10.56193254       5.27345571      29.96240105       0.60000000      -0.00741697      -0.00059656       0.00109699       0.00073124
Ni      12.32273525       3.50812872      29.96987277       0.60000000      -0.00753221       0.00536853       0.01743974      -0.02842354
Ni      12.32296940       5.26989376      28.19987079       0.60000000      -0.00744817      -0.00104313       0.00189109       0.00295735
Ni      10.56157782       3.51057299      31.73055193       0.60000000      -0.00745067       0.00360853       0.01723158      -0.02190693
Ni      10.56247863       5.27669983      33.48772639       0.60000000      -0.00760513       0.00157824      -0.00236481       0.00315088
Ni      12.32423086       3.51077641      33.49272815       0.60000000      -0.00753026       0.00047454       0.01806714      -0.01813311
Ni      12.32260464       5.27351837      31.72644830       0.60000000      -0.00748670       0.00278495       0.00137438      -0.00011481
Ni      10.56313487       3.51283694      35.25314102       0.60000000      -0.00759533       0.00282042       0.01881273      -0.01462985
Ni      10.56394233       5.27794612      37.01308788       0.60000000      -0.00778534      -0.00230726      -0.00373817       0.00387660
Ni      12.32593561       3.51330138      37.01486636       0.60000000      -0.00772730       0.00151728       0.01620673      -0.01080130
Ni      12.32450891       5.27660344      35.25114714       0.60000000      -0.00752740      -0.00015691      -0.00168806       0.00303105
Ni      10.56473474       3.51495214      38.77538780       0.60000000      -0.00950961      -0.00077671       0.00648474      -0.00115241
Ni      10.56485029       5.27760139      40.53775073       0.60000000      -0.00690542       0.00853286      -0.00146949      -0.10542952
Ni      12.32756309       3.51551785      40.53693899       0.60000000      -0.00714958       0.01152958      -0.00364916      -0.10068030
Ni      12.32593561       5.27597966      38.77754464       0.60000000      -0.00972205       0.00191156       0.00908645      -0.01032651
Ni      10.56933018       7.04281652      -0.00914984       0.60000000      -0.00681293      -0.02192817      -0.01993378       0.13233258
Ni      10.56812900       8.80442094       1.75103178       0.60000000      -0.00964907      -0.00078954      -0.00058825      -0.00788356
Ni      12.33197012       7.04106653       1.75137714       0.60000000      -0.00955591      -0.00084993      -0.00027964      -0.00788430
Ni      12.33184775       8.80471724      -0.01102527       0.60000000      -0.00653649      -0.02574005      -0.02307603       0.15586476
Ni      10.56810320       7.04060487       3.51374776       0.60000000      -0.00722306       0.00431876       0.00413941       0.01046685
Ni      10.56721550       8.80292430       5.27533373       0.60000000      -0.00719464      -0.00224987      -0.00160884      -0.00173734
Ni      12.33244252       7.04002970       5.27620524       0.60000000      -0.00723313      -0.00435137      -0.00261142      -0.00271355
Ni      12.33075322       8.80210650       3.51091438       0.60000000      -0.00713729       0.00316214       0.00482070       0.01263003
Ni      10.56783922       7.03966421       7.03966421       0.60000000      -0.00694732      -0.00297665      -0.00250506      -0.00250506
Ni      10.56484504       8.80053892       8.80053892       0.60000000      -0.00706344      -0.00571099      -0.00626371      -0.00626371
Ni      12.33025834       7.03726532       8.80125449       0.60000000      -0.00709869      -0.00652378      -0.00615209      -0.00590962
Ni      12.33025834       8.80125449       7.03726532       0.60000000      -0.00709869      -0.00652378      -0.00590962      -0.00615209
Ni      10.56465152       7.03668969      10.56465152       0.60000000      -0.00718715      -0.00468408      -0.00636323      -0.00468408
Ni      10.56094000       8.79716254      12.32564498       0.60000000      -0.00733260      -0.00761644      -0.01023858      -0.00783336
Ni      12.32511532       7.03287928      12.32511532       0.60000000      -0.00740971      -0.00551851      -0.01309511      -0.00551851
Ni      12.32564498       8.79716254      10.56094000       0.60000000      -0.00733260      -0.00783336      -0.01023858      -0.00761644
Ni      10.56208114       7.03359175      14.09105074       0.60000000      -0.00726579      -0.00764287      -0.01174227      -0.00628345
Ni      10.55956123       8.79471495      15.85159313       0.60000000      -0.00732961      -0.00630961      -0.00973637      -0.00122666
Ni      12.32152855       7.02661427      15.85025803       0.60000000      -0.00731335       0.00084106      -0.00484675       0.00428488
Ni      12.32031148       8.79196469      14.08476838       0.60000000      -0.00730960      -0.00020955      -0.01024677       0.00011832
Ni      10.56138216       7.03088033      17.61783905       0.60000000      -0.00729412      -0.00693482      -0.00936700      -0.00230833
Ni      10.55956883       8.79375017      19.37704956       0.60000000      -0.00722522      -0.00522254      -0.00711295       0.00301725
Ni      12.32136126       7.02490140      19.37873532       0.60000000      -0.00730010       0.00162202       0.00242887       0.00214457
Ni      12.31971419       8.78745379      17.61062061       0.60000000      -0.00731715       0.00143505       0.00324653       0.00643483
Ni      10.56078269       7.03046903      21.14370279       0.60000000      -0.00729878      -0.00486136      -0.00433178      -0.00014539
Ni      10.55968948       8.79459660      22.90092019       0.60000000      -0.00728496      -0.00407369      -0.00514332       0.00798774
Ni      12.32286810       7.02793904      22.90524888       0.60000000      -0.00731453      -0.00283861      -0.00107590       0.00243828
Ni      12.32053776       8.78906095      21.13712733       0.60000000      -0.00723018       0.00228257       0.00197148       0.00573556
Ni      10.56109003       7.03250463      24.66697303       0.60000000      -0.00732123      -0.00333630      -0.00292704       0.00785133
Ni      10.56104368       8.79638955      26.42368842       0.60000000      -0.00717494      -0.00000300       0.00209581       0.01364931
Ni      12.32427952       7.03120644      26.42877661       0.60000000      -0.00716508      -0.00620635      -0.00034228       0.01048935
Ni      12.32326972       8.79349400      24.66160691       0.60000000      -0.00721939      -0.00381903      -0.00451148       0.01021506
Ni      10.56265504       7.03521782      28.19188295       0.60000000      -0.00712237      -0.00321085       0.00183375       0.00820929
Ni      10.56402471       8.80154816      29.95031135       0.60000000      -0.00706128      -0.00401688      -0.00396727       0.01408443
Ni      12.32281151       7.03496438      29.95673108       0.60000000      -0.00709329       0.00187964       0.00293121       0.00585472
Ni      12.32372283       8.79577710      28.18632142       0.60000000      -0.00706154       0.00097319       0.00561749       0.01473186
Ni      10.56312818       7.04010734      31.72000221       0.60000000      -0.00716908       0.00059127      -0.00421481       0.00633853
Ni      10.56390999       8.80350553      33.48392060       0.60000000      -0.00700763       0.00218157      -0.00140576       0.00208672
Ni      12.32281786       7.03938414      33.48586682       0.60000000      -0.00707154       0.00427891      -0.00205638       0.00385730
Ni      12.32275022       8.80069803      31.71785447       0.60000000      -0.00695350       0.00544139      -0.00040247       0.00640655
Ni      10.56386094       7.04120248      35.24953315       0.60000000      -0.00708923      -0.00190084      -0.00379683       0.00317711
Ni      10.56367244       8.80197931      37.01556874       0.60000000      -0.00756030      -0.00174793      -0.00313416       0.00186717
Ni      12.32515636       7.03949944      37.01477431       0.60000000      -0.00752702      -0.00201418      -0.00301182       0.00267131
Ni      12.32416444       8.80223677      35.25077018       0.60000000      -0.00703552       0.00148090      -0.00182745       0.00196970
Ni      10.56313487       7.03814623      38.77845031       0.60000000      -0.00967705       0.00537555       0.00891610      -0.01137895
Ni      10.56359577       8.80114469      40.54027556       0.60000000      -0.00657032       0.00700143       0.00226840      -0.12750287
Ni      12.32623443       7.03888864      40.53970675       0.60000000      -0.00660739       0.01171898      -0.00170869      -0.12369437
Ni      12.32423086       8.79918092      38.78113266       0.60000000      -0.00992966       0.00507032       0.00855829      -0.01193661
Ni      10.56818505      10.56818505      -0.01119255       0.60000000      -0.00649870      -0.02479538      -0.02479538       0.15899579
Ni      10.56645623      12.33064441       1.74853135       0.60000000      -0.01000913      -0.00086731      -0.00104026      -0.00828874
Ni      12.33064441      10.56645623       1.74853135       0.60000000      -0.01000913      -0.00104026      -0.00086731      -0.00828874
Ni      12.33056910      12.33056910      -0.01326667       0.60000000      -0.00616089      -0.02790304      -0.02790304       0.18411619
Ni      10.56621195      10.56621195       3.51062909       0.60000000      -0.00710802       0.00245901       0.00245901       0.01093561
Ni      10.56430500      12.32885524       5.27207649       0.60000000      -0.00731859      -0.00415750      -0.00355161      -0.00584540
Ni      12.32885524      10.56430500       5.27207649       0.60000000      -0.00731859      -0.00355161      -0.00415750      -0.00584540
Ni      12.32859407      12.32859407       3.50723037       0.60000000      -0.00693445      -0.00412959      -0.00412959       0.00541122
Ni      10.56465152      10.56465152       7.03668969       0.60000000      -0.00718715      -0.00468408      -0.00468408      -0.00636323
Ni      10.56094000      12.32564498       8.79716254       0.60000000      -0.00733260      -0.00761644      -0.00783336      -0.01023858
Ni      12.32564498      10.56094000       8.79716254       0.60000000      -0.00733260      -0.00783336      -0.00761644      -0.01023858
Ni      12.32511532      12.32511532       7.03287928       0.60000000      -0.00740971      -0.00551851      -0.00551851      -0.01309511
Ni      10.56023943      10.56023943      10.56023943       0.60000000      -0.00715566      -0.00787172      -0.00787172      -0.00787172
Ni      10.55493700      12.31869534      12.31869534       0.60000000      -0.00735564      -0.00117693       0.00370791       0.00370791
Ni      12.31869534      10.55493700      12.31869534       0.60000000      -0.00735564       0.00370791      -0.00117693       0.00370791
Ni      12.31869534      12.31869534      10.55493700       0.60000000      -0.00735564       0.00370791       0.00370791      -0.00117693
Ni      10.55686919      10.55686919      14.08525182       0.60000000      -0.00750772      -0.00508125      -0.00508125      -0.00177366
Ni      10.55119291      12.31670531      15.84403872       0.60000000      -0.00733831       0.00241735       0.00499578       0.00916968
Ni      12.31670531      10.55119291      15.84403872       0.60000000      -0.00733831       0.00499578       0.00241735       0.00916968
Ni      12.31342595      12.31342595      14.07683897       0.60000000      -0.00756996       0.01333597       0.01333597       0.01932958
Ni      10.55578612      10.55578612      17.61052492       0.60000000      -0.00727404      -0.00158384      -0.00158384       0.00718121
Ni      10.55050126      12.31746515      19.37011885       0.60000000      -0.00723702       0.00572407       0.00130176       0.00724770
Ni      12.31746515      10.55050126      19.37011885       0.60000000      -0.00723702       0.00130176       0.00572407       0.00724770
Ni      12.31233272      12.31233272      17.60379592       0.60000000      -0.00718359       0.00528682       0.00528682       0.00836611
Ni      10.55673959      10.55673959      21.13554516       0.60000000      -0.00714776      -0.00299117      -0.00299117       0.00785823
Ni      10.55378204      12.31935648      22.89570094       0.60000000      -0.00711546       0.00474953       0.00347057       0.00957715
Ni      12.31935648      10.55378204      22.89570094       0.60000000      -0.00711546       0.00347057       0.00474953       0.00957715
Ni      12.31470166      12.31470166      21.13044456       0.60000000      -0.00716740       0.00359724       0.00359724       0.00786804
Ni      10.55763409      10.55763409      24.65936653       0.60000000      -0.00715833       0.00299168       0.00299168       0.01428063
Ni      10.55778413      12.32238797      26.42089713       0.60000000      -0.00689854      -0.00130525      -0.00058955       0.01294121
Ni      12.32238797      10.55778413      26.42089713       0.60000000      -0.00689854      -0.00058955      -0.00130525       0.01294121
Ni      12.31757614      12.31757614      24.65760565       0.60000000      -0.00693604       0.00944499       0.00944499       0.00199693
Ni      10.56178800      10.56178800      28.18345152       0.60000000      -0.00698199      -0.00082275      -0.00082275       0.01700573
Ni      10.56132147      12.32399021      29.94922355       0.60000000      -0.00687407       0.00240025       0.00167579       0.00885230
Ni      12.32399021      10.56132147      29.94922355       0.60000000      -0.00687407       0.00167579       0.00240025       0.00885230
Ni      12.32258082      12.32258082      28.18462040       0.60000000      -0.00667281       0.00019473       0.00019473       0.00729379
Ni      10.56399123      10.56399123      31.71567641       0.60000000      -0.00697681       0.00004209       0.00004209       0.00740012
Ni      10.56351670      12.32389049      33.48420459       0.60000000      -0.00684486       0.00118865       0.00432335       0.00014930
Ni      12.32389049      10.56351670      33.48420459       0.60000000      -0.00684486       0.00432335       0.00118865       0.00014930
Ni      12.32409074      12.32409074      31.71616212       0.60000000      -0.00684388       0.00578106       0.00578106       0.00125318
Ni      10.56425602      10.56425602      35.25105304       0.60000000      -0.00706960      -0.00157324      -0.00157324       0.00066627
Ni      10.56250401      12.32411720      37.01851553       0.60000000      -0.00747774       0.00128629       0.00272110      -0.00411551
Ni      12.32411720      10.56250401      37.01851553       0.60000000      -0.00747774       0.00272110       0.00128629      -0.00411551
Ni      12.32436396      12.32436396      35.25248014       0.60000000      -0.00689069       0.00310141       0.00310141      -0.00336927
Ni      10.56157782      10.56157782      38.78155676       0.60000000      -0.00995831       0.00770509       0.00770509      -0.01092559
Ni      10.56254729      12.32501868      40.54247145       0.60000000      -0.00623860       0.00351485       0.00982451      -0.14831572
Ni      12.32501868      10.56254729      40.54247145       0.60000000      -0.00623860       0.00982451       0.00351485      -0.14831572
Ni      12.32273525      12.32273525      38.78447930       0.60000000      -0.01027663       0.01032239       0.01032239      -0.01833912
Ni      10.56676009      14.09460884      -0.01304135       0.60000000      -0.00621457      -0.02568659      -0.02923172       0.18005347
Ni      10.56457587      15.85835722       1.74655014       0.60000000      -0.01034439      -0.00079125      -0.00125505      -0.00837657
Ni      12.32872415      14.09347778       1.74586735       0.60000000      -0.01050295      -0.00118065      -0.00129857      -0.00787995
Ni      12.32895174      15.85757581      -0.01504777       0.60000000      -0.00588419      -0.02687556      -0.03154221       0.20215738
Ni      10.56382061      14.09394544       3.50766339       0.60000000      -0.00700178       0.00103440      -0.00467614       0.00762547
Ni      10.56240620      15.85664840       5.26860091       0.60000000      -0.00725934      -0.00626101      -0.00495280      -0.00582121
Ni      12.32461795      14.08946899       5.26677334       0.60000000      -0.00724209      -0.00048300       0.00096365      -0.00451402
Ni      12.32581307      15.85767496       3.50429067       0.60000000      -0.00692811      -0.00434338      -0.01527660       0.00050890
Ni      10.56208114      14.09105074       7.03359175       0.60000000      -0.00726579      -0.00764287      -0.00628345      -0.01174227
Ni      10.55956123      15.85159313       8.79471495       0.60000000      -0.00732961      -0.00630961      -0.00122666      -0.00973637
Ni      12.32031148      14.08476838       8.79196469       0.60000000      -0.00730960      -0.00020955       0.00011832      -0.01024677
Ni      12.32152855      15.85025803       7.02661427       0.60000000      -0.00731335       0.00084106       0.00428488      -0.00484675
Ni      10.55686919      14.08525182      10.55686919       0.60000000      -0.00750772      -0.00508125      -0.00177366      -0.00508125
Ni      10.55119291      15.84403872      12.31670531       0.60000000      -0.00733831       0.00241735       0.00916968       0.00499578
Ni      12.31342595      14.07683897      12.31342595       0.60000000      -0.00756996       0.01333597       0.01932958       0.01333597
Ni      12.31670531      15.84403872      10.55119291       0.60000000      -0.00733831       0.00499578       0.00916968       0.00241735
Ni      10.54802436      14.07749819      14.07749819       0.60000000      -0.00722129       0.01152532       0.01669487       0.01669487
Ni      10.54061333      15.83857387      15.83857387       0.60000000      -0.00729826       0.02242820       0.00675616       0.00675616
Ni      12.30747905      14.07410525      15.83722781       0.60000000      -0.00730096       0.01406700       0.00552568       0.00992493
Ni      12.30747905      15.83722781      14.07410525       0.60000000      -0.00730096       0.01406700       0.00992493       0.00552568
Ni      10.54377607      14.07774821      17.60454448       0.60000000      -0.00735652       0.01785690       0.00251240       0.00370606
Ni      10.54179103      15.83982917      19.36602043       0.60000000      -0.00731879       0.00638264       0.00055801       0.00091255
Ni      12.30800854      14.07485366      19.36517408       0.60000000      -0.00713822       0.00881299       0.00145927      -0.00149154
Ni      12.30336909      15.83534211      17.59849557       0.60000000      -0.00730175       0.01224186       0.00069269       0.00045259
Ni      10.54718294      14.07998676      21.13128278       0.60000000      -0.00729511       0.00710350       0.00091195       0.00757082
Ni      10.54695848      15.84365829      22.89374485       0.60000000      -0.00715369       0.00768905      -0.00014715       0.00418530
Ni      12.31298857      14.07866939      22.89303605       0.60000000      -0.00715685       0.00471851       0.00090769      -0.00002969
Ni      12.30725684      15.83789010      21.12679328       0.60000000      -0.00709909       0.00395304       0.00439769      -0.00291217
Ni      10.55400882      14.08355435      24.65821915       0.60000000      -0.00694002      -0.00127326       0.00229218       0.00605409
Ni      10.55336950      15.84600970      26.42236950       0.60000000      -0.00693354       0.00072778       0.00102432       0.00368629
Ni      12.31800836      14.08283975      26.42139336       0.60000000      -0.00684773       0.00464290       0.00279293      -0.00291659
Ni      12.31458094      15.84422606      24.65559724       0.60000000      -0.00694483      -0.00741330      -0.00988754      -0.00490077
Ni      10.55673266      14.08457698      28.18602967       0.60000000      -0.00690513       0.00612963       0.00527134       0.00811333
Ni      10.55560350      15.84480024      29.95320440       0.60000000      -0.00674341       0.01136762       0.00696656       0.00028266
Ni      12.32257740      14.08575769      29.95049204       0.60000000      -0.00680708       0.00109730      -0.00069203       0.00124449
Ni      12.31933143      15.84676721      28.18579000       0.60000000      -0.00680779      -0.00538832      -0.00627705      -0.00496018
Ni      10.56024822      14.08350580      31.71786486       0.60000000      -0.00670734       0.00837557       0.00942879      -0.00063928
Ni      10.56021899      15.84474960      33.48597252       0.60000000      -0.00667240       0.00730159       0.00783652      -0.00427746
Ni      12.32383024      14.08507084      33.48451353       0.60000000      -0.00678552       0.00523536       0.00496356      -0.00206875
Ni      12.32212057      15.84633900      31.71751732       0.60000000      -0.00671073       0.00129034       0.00254959      -0.00113351
Ni      10.56240746      14.08438051      35.25240590       0.60000000      -0.00691927       0.00245728       0.00625055      -0.00319872
Ni      10.56094947      15.84664184      37.01909706       0.60000000      -0.00739803       0.00298283       0.00490607      -0.00229088
Ni      12.32357278      14.08516493      37.01998240       0.60000000      -0.00737075       0.00195398       0.00436170      -0.00181673
Ni      12.32302353      15.84627608      35.25320777       0.60000000      -0.00663498       0.00461083       0.00383401      -0.00435418
Ni      10.56034720      14.08541845      38.78393592       0.60000000      -0.01024396       0.01098042       0.00678426      -0.01857587
Ni      10.56195822      15.84939531      40.54370073       0.60000000      -0.00583657      -0.00145102       0.02135647      -0.16332950
Ni      12.32419899      14.08667474      40.54457858       0.60000000      -0.00572325       0.00540864       0.01356146      -0.16902039
Ni      12.32184211      15.84687943      38.78652071       0.60000000      -0.01048430       0.01229055       0.00832461      -0.02826808
Ni      10.56531601      17.62188796      -0.01425829       0.60000000      -0.00607938      -0.02365968      -0.03208849       0.18822647
Ni      10.56297688      19.38685803       1.74563153       0.60000000      -0.01047257      -0.00061244      -0.00136983      -0.00918945
Ni      12.32659275      17.62201042       1.74416477       0.60000000      -0.01079657      -0.00113369      -0.00147772      -0.00817402
Ni      12.32736784      19.38527496      -0.01591416       0.60000000      -0.00583991      -0.02199263      -0.03268908       0.20265824
Ni      10.56157284      17.62359987       3.50583938       0.60000000      -0.00698354       0.00294539      -0.01489231       0.00286356
Ni      10.56093828      19.38465567       5.26694953       0.60000000      -0.00726362      -0.00247631      -0.00107740      -0.00122444
Ni      12.32246480      17.61864348       5.26296937       0.60000000      -0.00714076       0.00300191       0.00082571       0.00449328
Ni      12.32333758      19.38833808       3.50314019       0.60000000      -0.00713980       0.00524107      -0.02170496       0.00426500
Ni      10.56138216      17.61783905       7.03088033       0.60000000      -0.00729412      -0.00693482      -0.00230833      -0.00936700
Ni      10.55956883      19.37704956       8.79375017       0.60000000      -0.00722522      -0.00522254       0.00301725      -0.00711295
Ni      12.31971419      17.61062061       8.78745379       0.60000000      -0.00731715       0.00143505       0.00643483       0.00324653
Ni      12.32136126      19.37873532       7.02490140       0.60000000      -0.00730010       0.00162202       0.00214457       0.00242887
Ni      10.55578612      17.61052492      10.55578612       0.60000000      -0.00727404      -0.00158384       0.00718121      -0.00158384
Ni      10.55050126      19.37011885      12.31746515       0.60000000      -0.00723702       0.00572407       0.00724770       0.00130176
Ni      12.31233272      17.60379592      12.31233272       0.60000000      -0.00718359       0.00528682       0.00836611       0.00528682
Ni      12.31746515      19.37011885      10.55050126       0.60000000      -0.00723702       0.00130176       0.00724770       0.00572407
Ni      10.54377607      17.60454448      14.07774821       0.60000000      -0.00735652       0.01785690       0.00370606       0.00251240
Ni      10.54179103      19.36602043      15.83982917       0.60000000      -0.00731879       0.00638264       0.00091255       0.00055801
Ni      12.30336909      17.59849557      15.83534211       0.60000000      -0.00730175       0.01224186       0.00045259       0.00069269
Ni      12.30800854      19.36517408      14.07485366       0.60000000      -0.00713822       0.00881299      -0.00149154       0.00145927
Ni      10.53962130      17.60010344      17.60010344       0.60000000      -0.00714891       0.00197700       0.00640892       0.00640892
Ni      10.53854932      19.36222034      19.36222034       0.60000000      -0.00709398       0.01921661       0.01094775       0.01094775
Ni      12.30375473      17.59716901      19.35901634       0.60000000      -0.00716969       0.00372452       0.01245434       0.01399506
Ni      12.30375473      19.35901634      17.59716901       0.60000000      -0.00716969       0.00372452       0.01399506       0.01245434
Ni      10.54155965      17.60234275      21.12771352       0.60000000      -0.00720518       0.01296262       0.00600986       0.00354152
Ni      10.54263807      19.36484087      22.89010138       0.60000000      -0.00692690       0.00278844       0.00127830       0.00448204
Ni      12.30930423      17.60230330      22.88869986       0.60000000      -0.00702672      -0.00981204      -0.00461223      -0.00842056
Ni      12.30525959      19.36131479      21.12205091       0.60000000      -0.00706218      -0.00810817      -0.00510864       0.00086968
Ni      10.54789380      17.60616604      24.65695119       0.60000000      -0.00689622      -0.00037161      -0.00216230       0.00095299
Ni      10.54901135      19.36698552      26.42121662       0.60000000      -0.00673166       0.00160198       0.00289345       0.00169405
Ni      12.31534015      17.60644589      26.41858847       0.60000000      -0.00685125      -0.00546441      -0.00466131      -0.00094015
Ni      12.30983213      19.36492457      24.65079245       0.60000000      -0.00706016       0.00004247      -0.00187936       0.00433135
Ni      10.55252402      17.60625646      28.18765721       0.60000000      -0.00669053       0.00366500       0.00485683       0.00131001
Ni      10.55443113      19.36773152      29.95358995       0.60000000      -0.00653117       0.00491026       0.00514358       0.00137036
Ni      12.31894351      17.60657289      29.95040534       0.60000000      -0.00671362       0.00022772       0.00229216       0.00610911
Ni      12.31584617      19.36680676      28.18328731       0.60000000      -0.00676824      -0.00080812      -0.00244377       0.00203023
Ni      10.55691215      17.60656240      31.72038300       0.60000000      -0.00656428       0.00969525       0.00522901      -0.00551011
Ni      10.55924753      19.37054482      33.48668916       0.60000000      -0.00649993       0.00713286       0.00257752      -0.00574399
Ni      12.32157273      17.60744436      33.48583470       0.60000000      -0.00650106       0.00408980       0.00275339      -0.00185610
Ni      12.32038214      19.36777385      31.71770785       0.60000000      -0.00651381      -0.00212750       0.00192241       0.00492651
Ni      10.56034492      17.60795777      35.25301775       0.60000000      -0.00668778       0.00561174       0.00558636      -0.00535587
Ni      10.56039108      19.37193054      37.01879043       0.60000000      -0.00720665       0.00411724       0.00305201      -0.00358956
Ni      12.32232722      17.60872428      37.02066796       0.60000000      -0.00721299       0.00428766       0.00368940      -0.00340240
Ni      12.32202206      19.37088599      35.25372001       0.60000000      -0.00641640       0.00408349       0.00077936      -0.00424143
Ni      10.55977357      17.60990939      38.78465781       0.60000000      -0.01032829       0.01011295       0.00569896      -0.02469025
Ni      10.56206345      19.37447680      40.54343786       0.60000000      -0.00565103      -0.00659711       0.03382537      -0.17004620
Ni      12.32408714      17.61149759      40.54529871       0.60000000      -0.00536898      -0.00087222       0.02712058      -0.18227623
Ni      12.32195859      19.37196670      38.78627497       0.60000000      -0.01041621       0.01202827       0.00962448      -0.02870601
Ni      10.56420222      21.14930191      -0.01458655       0.60000000      -0.00616578      -0.01873350      -0.03208842       0.17980587
Ni      10.56206345      22.91482793       1.74586687       0.60000000      -0.01031934      -0.00054926      -0.00115563      -0.01048448
Ni      12.32490103      21.15087031       1.74385413       0.60000000      -0.01070131      -0.00078715      -0.00135602      -0.01005781
Ni      12.32624651      22.91273188      -0.01573116       0.60000000      -0.00605074      -0.01421932      -0.03025878       0.18538002
Ni      10.56014380      21.15336239       3.50557741       0.60000000      -0.00718489       0.00806068      -0.02480736       0.00593389
Ni      10.56038738      22.91117883       5.26804631       0.60000000      -0.00735301      -0.00189307       0.00117888      -0.00056193
Ni      12.32247247      21.14800885       5.26418818       0.60000000      -0.00736034      -0.00077740      -0.00194151      -0.00038921
Ni      12.32195859      22.91810667       3.50379840       0.60000000      -0.00720436       0.00882709      -0.03293434       0.00565533
Ni      10.56078269      21.14370279       7.03046903       0.60000000      -0.00729878      -0.00486136      -0.00014539      -0.00433178
Ni      10.55968948      22.90092019       8.79459660       0.60000000      -0.00728496      -0.00407369       0.00798774      -0.00514332
Ni      12.32053776      21.13712733       8.78906095       0.60000000      -0.00723018       0.00228257       0.00573556       0.00197148
Ni      12.32286810      22.90524888       7.02793904       0.60000000      -0.00731453      -0.00283861       0.00243828      -0.00107590
Ni      10.55673959      21.13554516      10.55673959       0.60000000      -0.00714776      -0.00299117       0.00785823      -0.00299117
Ni      10.55378204      22.89570094      12.31935648       0.60000000      -0.00711546       0.00474953       0.00957715       0.00347057
Ni      12.31470166      21.13044456      12.31470166       0.60000000      -0.00716740       0.00359724       0.00786804       0.00359724
Ni      12.31935648      22.89570094      10.55378204       0.60000000      -0.00711546       0.00347057       0.00957715       0.00474953
Ni      10.54718294      21.13128278      14.07998676       0.60000000      -0.00729511       0.00710350       0.00757082       0.00091195
Ni      10.54695848      22.89374485      15.84365829       0.60000000      -0.00715369       0.00768905       0.00418530      -0.00014715
Ni      12.30725684      21.12679328      15.83789010       0.60000000      -0.00709909       0.00395304      -0.00291217       0.00439769
Ni      12.31298857      22.89303605      14.07866939       0.60000000      -0.00715685       0.00471851      -0.00002969       0.00090769
Ni      10.54155965      21.12771352      17.60234275       0.60000000      -0.00720518       0.01296262       0.00354152       0.00600986
Ni      10.54263807      22.89010138      19.36484087       0.60000000      -0.00692690       0.00278844       0.00448204       0.00127830
Ni      12.30525959      21.12205091      19.36131479       0.60000000      -0.00706218      -0.00810817       0.00086968      -0.00510864
Ni      12.30930423      22.88869986      17.60230330       0.60000000      -0.00702672      -0.00981204      -0.00842056      -0.00461223
Ni      10.54032869      21.12528462      21.12528462       0.60000000      -0.00677940       0.00123299       0.00433996       0.00433996
Ni      10.54306753      22.88850992      22.88850992       0.60000000      -0.00677070       0.00345921       0.00595383       0.00595383
Ni      12.30574663      21.12290231      22.88439709       0.60000000      -0.00704475       0.00554423       0.01397576       0.01440245
Ni      12.30574663      22.88439709      21.12290231       0.60000000      -0.00704475       0.00554423       0.01440245       0.01397576
Ni      10.54460857      21.12707900      24.65404534       0.60000000      -0.00684720       0.00648065       0.00273893       0.00433831
Ni      10.54960689      22.88983133      26.41903784       0.60000000      -0.00654223       0.00199949       0.00549036       0.00678106
Ni      12.31242319      21.12634967      26.41592028       0.60000000      -0.00679691      -0.00724761      -0.00754735      -0.00112313
Ni      12.30863457      22.88598831      24.64948181       0.60000000      -0.00672968      -0.00175246       0.00379889      -0.00040074
Ni      10.55271134      21.12889459      28.18666362       0.60000000      -0.00648308      -0.00077587       0.00459404       0.00113469
Ni      10.55796312      22.89299497      29.95175750       0.60000000      -0.00636467      -0.00264374       0.00055730       0.00078147
Ni      12.31884598      21.12720446      29.95003669       0.60000000      -0.00661009      -0.00211275       0.00927715       0.00112809
Ni      12.31665752      22.88808320      28.18172828       0.60000000      -0.00657933      -0.00553181       0.00265991       0.00504724
Ni      10.55838102      21.13210466      31.71929512       0.60000000      -0.00642390       0.00382642       0.00118400      -0.00175035
Ni      10.56188929      22.89736742      33.48471933       0.60000000      -0.00642521       0.00323292      -0.00011237      -0.00461522
Ni      12.32225890      21.13197053      33.48521659       0.60000000      -0.00640558       0.00199949       0.00156846       0.00229126
Ni      12.32272548      22.89240153      31.71654629       0.60000000      -0.00634851      -0.00177012       0.00204868       0.00650811
Ni      10.56083595      21.13522814      35.25238553       0.60000000      -0.00649379       0.00610057       0.00023022      -0.00675861
Ni      10.56176369      22.89919270      37.01667742       0.60000000      -0.00693701       0.00356184      -0.00109088      -0.00300160
Ni      12.32315450      21.13486105      37.01950979       0.60000000      -0.00692373       0.00228541       0.00181082      -0.00076241
Ni      12.32457774      22.89713411      35.25183254       0.60000000      -0.00625127       0.00167218       0.00040588      -0.00204727
Ni      10.56014380      21.13537092      38.78315590       0.60000000      -0.01015017       0.01192178       0.00943741      -0.02241584
Ni      10.56297688      22.90041881      40.54164531       0.60000000      -0.00570940      -0.01087483       0.04209818      -0.16737056
Ni      12.32490103      21.13725057      40.54426675       0.60000000      -0.00529488      -0.00759402       0.03909137      -0.18568879
Ni      12.32333758      22.89839729      38.78359517       0.60000000      -0.01005955       0.01480500       0.01081844      -0.02117307
Ni      10.56365874      24.67601172      -0.01406388       0.60000000      -0.00642402      -0.01200016      -0.02863299       0.15815497
Ni      10.56195822      26.44130136       1.74699594       0.60000000      -0.00998028      -0.00066355      -0.00063223      -0.01114409
Ni      12.32408714      24.67858517       1.74478405       0.60000000      -0.01044307      -0.00054793      -0.00094001      -0.01151955
Ni      12.32581909      26.43913142      -0.01468370       0.60000000      -0.00640158      -0.00571583      -0.02441466       0.15795733
Ni      10.55977357      24.68133286       3.50658445       0.60000000      -0.00732238       0.00798838      -0.03195014       0.01019092
Ni      10.56120841      26.43608246       5.27061888       0.60000000      -0.00747800      -0.00283514       0.00509964      -0.00071860
Ni      12.32283512      24.67380913       5.26635786       0.60000000      -0.00726990      -0.00216911       0.00393861       0.00099833
Ni      12.32184211      26.44530000       3.50565872       0.60000000      -0.00738397       0.00886409      -0.03566937       0.01197275
Ni      10.56109003      24.66697303       7.03250463       0.60000000      -0.00732123      -0.00333630       0.00785133      -0.00292704
Ni      10.56104368      26.42368842       8.79638955       0.60000000      -0.00717494      -0.00000300       0.01364931       0.00209581
Ni      12.32326972      24.66160691       8.79349400       0.60000000      -0.00721939      -0.00381903       0.01021506      -0.00451148
Ni      12.32427952      26.42877661       7.03120644       0.60000000      -0.00716508      -0.00620635       0.01048935      -0.00034228
Ni      10.55763409      24.65936653      10.55763409       0.60000000      -0.00715833       0.00299168       0.01428063       0.00299168
Ni      10.55778413      26.42089713      12.32238797       0.60000000      -0.00689854      -0.00130525       0.01294121      -0.00058955
Ni      12.31757614      24.65760565      12.31757614       0.60000000      -0.00693604       0.00944499       0.00199693       0.00944499
Ni      12.32238797      26.42089713      10.55778413       0.60000000      -0.00689854      -0.00058955       0.01294121      -0.00130525
Ni      10.55400882      24.65821915      14.08355435       0.60000000      -0.00694002      -0.00127326       0.00605409       0.00229218
Ni      10.55336950      26.42236950      15.84600970       0.60000000      -0.00693354       0.00072778       0.00368629       0.00102432
Ni      12.31458094      24.65559724      15.84422606       0.60000000      -0.00694483      -0.00741330      -0.00490077      -0.00988754
Ni      12.31800836      26.42139336      14.08283975       0.60000000      -0.00684773       0.00464290      -0.00291659       0.00279293
Ni      10.54789380      24.65695119      17.60616604       0.60000000      -0.00689622      -0.00037161       0.00095299      -0.00216230
Ni      10.54901135      26.42121662      19.36698552       0.60000000      -0.00673166       0.00160198       0.00169405       0.00289345
Ni      12.30983213      24.65079245      19.36492457       0.60000000      -0.00706016       0.00004247       0.00433135      -0.00187936
Ni      12.31534015      26.41858847      17.60644589       0.60000000      -0.00685125      -0.00546441      -0.00094015      -0.00466131
Ni      10.54460857      24.65404534      21.12707900       0.60000000      -0.00684720       0.00648065       0.00433831       0.00273893
Ni      10.54960689      26.41903784      22.88983133       0.60000000      -0.00654223       0.00199949       0.00678106       0.00549036
Ni      12.30863457      24.64948181      22.88598831       0.60000000      -0.00672968      -0.00175246      -0.00040074       0.00379889
Ni      12.31242319      26.41592028      21.12634967       0.60000000      -0.00679691      -0.00724761      -0.00112313      -0.00754735
Ni      10.54840764      24.65225615      24.65225615       0.60000000      -0.00648771       0.00233235       0.01134848       0.01134848
Ni      10.55682733      26.41804998      26.41804998       0.60000000      -0.00632949      -0.01158804       0.00096807       0.00096807
Ni      12.31300590      24.64923007      26.41453594       0.60000000      -0.00668185       0.00820395       0.01090328       0.00497090
Ni      12.31300590      26.41453594      24.64923007       0.60000000      -0.00668185       0.00820395       0.00497090       0.01090328
Ni      10.55654403      24.65442244      28.18509607       0.60000000      -0.00641263      -0.00406113       0.00247639      -0.00327538
Ni      10.56251543      26.42018375      29.94961125       0.60000000      -0.00638588      -0.00109920      -0.00026233      -0.00206212
Ni      12.32276885      24.65248216      29.94799276       0.60000000      -0.00618293      -0.00991770       0.00974615       0.01048288
Ni      12.32087200      26.41438056      28.18033053       0.60000000      -0.00619580      -0.00182875       0.01370934       0.01038075
Ni      10.56265675      24.65847739      31.71656515       0.60000000      -0.00637822      -0.00023938      -0.00011767      -0.00055145
Ni      10.56596908      26.42364141      33.48101028       0.60000000      -0.00624669       0.00037875      -0.00065445      -0.00129995
Ni      12.32628301      24.65899785      33.48332005       0.60000000      -0.00618806       0.00013693      -0.00355401      -0.00201250
Ni      12.32743257      26.41981287      31.71407364       0.60000000      -0.00616181      -0.00116474      -0.00290531       0.00370230
Ni      10.56391823      24.66184420      35.24916657       0.60000000      -0.00635748       0.00250892       0.00040501      -0.00250099
Ni      10.56471413      26.42534733      37.01288914       0.60000000      -0.00675083       0.00261259       0.00159211      -0.00034215
Ni      12.32639716      24.66139817      37.01626108       0.60000000      -0.00672309      -0.00018178       0.00280176       0.00031245
Ni      12.32916453      26.42351001      35.24808327       0.60000000      -0.00614261      -0.00080370       0.00172924      -0.00068558
Ni      10.56157284      24.66204400      38.77980450       0.60000000      -0.00969722       0.01507614       0.01017696      -0.01415412
Ni      10.56457587      26.42712935      40.53893643       0.60000000      -0.00591523      -0.01415141       0.04246895      -0.15610982
Ni      12.32659275      24.66398527      40.54183092       0.60000000      -0.00546449      -0.01380097       0.04373273      -0.17892304
Ni      12.32581307      26.42619706      38.77958135       0.60000000      -0.00954017       0.01596090       0.00507119      -0.01310178
Ni      10.56372924      28.20155667      -0.01291163       0.60000000      -0.00673555      -0.00511086      -0.02252218       0.13160113
Ni      10.56254729      29.96612421       1.74867143       0.60000000      -0.00960297      -0.00077097       0.00001846      -0.01069424
Ni      12.32419899      28.20443292       1.74652909       0.60000000      -0.01002856      -0.00053642      -0.00024749      -0.01195517
Ni      12.32606282      29.96420574      -0.01308827       0.60000000      -0.00675975       0.00135996      -0.01681772       0.12987733
Ni      10.56034720      28.20690210       3.50838463       0.60000000      -0.00748360       0.00800288      -0.03089510       0.01603379
Ni      10.56193254      29.96240105       5.27345571       0.60000000      -0.00741697      -0.00059656       0.00073124       0.00109699
Ni      12.32296940      28.19987079       5.26989376       0.60000000      -0.00744817      -0.00104313       0.00295735       0.00189109
Ni      12.32273525      29.96987277       3.50812872       0.60000000      -0.00753221       0.00536853      -0.02842354       0.01743974
Ni      10.56265504      28.19188295       7.03521782       0.60000000      -0.00712237      -0.00321085       0.00820929       0.00183375
Ni      10.56402471      29.95031135       8.80154816       0.60000000      -0.00706128      -0.00401688       0.01408443      -0.00396727
Ni      12.32372283      28.18632142       8.79577710       0.60000000      -0.00706154       0.00097319       0.01473186       0.00561749
Ni      12.32281151      29.95673108       7.03496438       0.60000000      -0.00709329       0.00187964       0.00585472       0.00293121
Ni      10.56178800      28.18345152      10.56178800       0.60000000      -0.00698199      -0.00082275       0.01700573      -0.00082275
Ni      10.56132147      29.94922355      12.32399021       0.60000000      -0.00687407       0.00240025       0.00885230       0.00167579
Ni      12.32258082      28.18462040      12.32258082       0.60000000      -0.00667281       0.00019473       0.00729379       0.00019473
Ni      12.32399021      29.94922355      10.56132147       0.60000000      -0.00687407       0.00167579       0.00885230       0.00240025
Ni      10.55673266      28.18602967      14.08457698       0.60000000      -0.00690513       0.00612963       0.00811333       0.00527134
Ni      10.55560350      29.95320440      15.84480024       0.60000000      -0.00674341       0.01136762       0.00028266       0.00696656
Ni      12.31933143      28.18579000      15.84676721       0.60000000      -0.00680779      -0.00538832      -0.00496018      -0.00627705
Ni      12.32257740      29.95049204      14.08575769       0.60000000      -0.00680708       0.00109730       0.00124449      -0.00069203
Ni      10.55252402      28.18765721      17.60625646       0.60000000      -0.00669053       0.00366500       0.00131001       0.00485683
Ni      10.55443113      29.95358995      19.36773152       0.60000000      -0.00653117       0.00491026       0.00137036       0.00514358
Ni      12.31584617      28.18328731      19.36680676       0.60000000      -0.00676824      -0.00080812       0.00203023      -0.00244377
Ni      12.31894351      29.95040534      17.60657289       0.60000000      -0.00671362       0.00022772       0.00610911       0.00229216
Ni      10.55271134      28.18666362      21.12889459       0.60000000      -0.00648308      -0.00077587       0.00113469       0.00459404
Ni      10.55796312      29.95175750      22.89299497       0.60000000      -0.00636467      -0.00264374       0.00078147       0.00055730
Ni      12.31665752      28.18172828      22.88808320       0.60000000      -0.00657933      -0.00553181       0.00504724       0.00265991
Ni      12.31884598      29.95003669      21.12720446       0.60000000      -0.00661009      -0.00211275       0.00112809       0.00927715
Ni      10.55654403      28.18509607      24.65442244       0.60000000      -0.00641263      -0.00406113      -0.00327538       0.00247639
Ni      10.56251543      29.94961125      26.42018375       0.60000000      -0.00638588      -0.00109920      -0.00206212      -0.00026233
Ni      12.32087200      28.18033053      26.41438056       0.60000000      -0.00619580      -0.00182875       0.01038075       0.01370934
Ni      12.32276885      29.94799276      24.65248216       0.60000000      -0.00618293      -0.00991770       0.01048288       0.00974615
Ni      10.56328755      28.18299118      28.18299118       0.60000000      -0.00640383      -0.00759315       0.00341049       0.00341049
Ni      10.56727028      29.94751358      29.94751358       0.60000000      -0.00621163       0.00037156       0.00351537       0.00351537
Ni      12.32832383      28.18121970      29.94659824       0.60000000      -0.00608049      -0.00559999       0.00280015       0.00202904
Ni      12.32832383      29.94659824      28.18121970       0.60000000      -0.00608049      -0.00559999       0.00202904       0.00280015
Ni      10.56686753      28.18567307      31.71372343       0.60000000      -0.00617271       0.00050682      -0.00406908      -0.00111677
Ni      10.56945701      29.94953117      33.47779793       0.60000000      -0.00611629      -0.00046839      -0.00064465       0.00000456
Ni      12.33142151      28.18529971      33.47946033       0.60000000      -0.00611888      -0.00370011      -0.00015419       0.00066432
Ni      12.33302516      29.94694722      31.71123695       0.60000000      -0.00597809      -0.00766733       0.00178984       0.00676549
Ni      10.56777979      28.18750407      35.24513204       0.60000000      -0.00630163      -0.00024109       0.00063486       0.00046005
Ni      10.56717239      29.95169236      37.00958872       0.60000000      -0.00665048       0.00246137       0.00116864      -0.00185601
Ni      12.32939177      28.18814187      37.01235505       0.60000000      -0.00652851       0.00210694       0.00383009       0.00131407
Ni      12.33174898      29.95029259      35.24463603       0.60000000      -0.00619799       0.00244312       0.00030271      -0.00066360
Ni      10.56382061      28.18968023      38.77596228       0.60000000      -0.00918798       0.01505891       0.00252103      -0.00754955
Ni      10.56645623      29.95409090      40.53620397       0.60000000      -0.00622160      -0.01644417       0.03612448      -0.13829873
Ni      12.32872415      28.19127809      40.53888851       0.60000000      -0.00577971      -0.01875892       0.03970294      -0.16283986
Ni      12.32859407      29.95445745      38.77582115       0.60000000      -0.00902083       0.00881652      -0.00465945      -0.00577744
Ni      10.56430002      31.72597069      -0.01139389       0.60000000      -0.00701529       0.00042917      -0.01547302       0.10736777
Ni      10.56359577      33.48971577       1.75058490       0.60000000      -0.00921567      -0.00070183       0.00049757      -0.00957696
Ni      12.32501868      31.72859560       1.74867143       0.60000000      -0.00961227      -0.00054002       0.00039993      -0.01110357
Ni      12.32679205      33.48818521      -0.01124961       0.60000000      -0.00705123       0.00581601      -0.00966399       0.10603933
Ni      10.56157782      31.73055193       3.51057299       0.60000000      -0.00745067       0.00360853      -0.02190693       0.01723158
Ni      10.56247863      33.48772639       5.27669983       0.60000000      -0.00760513       0.00157824       0.00315088      -0.00236481
Ni      12.32260464      31.72644830       5.27351837       0.60000000      -0.00748670       0.00278495      -0.00011481       0.00137438
Ni      12.32423086      33.49272815       3.51077641       0.60000000      -0.00753026       0.00047454      -0.01813311       0.01806714
Ni      10.56312818      31.72000221       7.04010734       0.60000000      -0.00716908       0.00059127       0.00633853      -0.00421481
Ni      10.56390999      33.48392060       8.80350553       0.60000000      -0.00700763       0.00218157       0.00208672      -0.00140576
Ni      12.32275022      31.71785447       8.80069803       0.60000000      -0.00695350       0.00544139       0.00640655      -0.00040247
Ni      12.32281786      33.48586682       7.03938414       0.60000000      -0.00707154       0.00427891       0.00385730      -0.00205638
Ni      10.56399123      31.71567641      10.56399123       0.60000000      -0.00697681       0.00004209       0.00740012       0.00004209
Ni      10.56351670      33.48420459      12.32389049       0.60000000      -0.00684486       0.00118865       0.00014930       0.00432335
Ni      12.32409074      31.71616212      12.32409074       0.60000000      -0.00684388       0.00578106       0.00125318       0.00578106
Ni      12.32389049      33.48420459      10.56351670       0.60000000      -0.00684486       0.00432335       0.00014930       0.00118865
Ni      10.56024822      31.71786486      14.08350580       0.60000000      -0.00670734       0.00837557      -0.00063928       0.00942879
Ni      10.56021899      33.48597252      15.84474960       0.60000000      -0.00667240       0.00730159      -0.00427746       0.00783652
Ni      12.32212057      31.71751732      15.84633900       0.60000000      -0.00671073       0.00129034      -0.00113351       0.00254959
Ni      12.32383024      33.48451353      14.08507084       0.60000000      -0.00678552       0.00523536      -0.00206875       0.00496356
Ni      10.55691215      31.72038300      17.60656240       0.60000000      -0.00656428       0.00969525      -0.00551011       0.00522901
Ni      10.55924753      33.48668916      19.37054482       0.60000000      -0.00649993       0.00713286      -0.00574399       0.00257752
Ni      12.32038214      31.71770785      19.36777385       0.60000000      -0.00651381      -0.00212750       0.00492651       0.00192241
Ni      12.32157273      33.48583470      17.60744436       0.60000000      -0.00650106       0.00408980      -0.00185610       0.00275339
Ni      10.55838102      31.71929512      21.13210466       0.60000000      -0.00642390       0.00382642      -0.00175035       0.00118400
Ni      10.56188929      33.48471933      22.89736742       0.60000000      -0.00642521       0.00323292      -0.00461522      -0.00011237
Ni      12.32272548      31.71654629      22.89240153       0.60000000      -0.00634851      -0.00177012       0.00650811       0.00204868
Ni      12.32225890      33.48521659      21.13197053       0.60000000      -0.00640558       0.00199949       0.00229126       0.00156846
Ni      10.56265675      31.71656515      24.65847739       0.60000000      -0.00637822      -0.00023938      -0.00055145      -0.00011767
Ni      10.56596908      33.48101028      26.42364141       0.60000000      -0.00624669       0.00037875      -0.00129995      -0.00065445
Ni      12.32743257      31.71407364      26.41981287       0.60000000      -0.00616181      -0.00116474       0.00370230      -0.00290531
Ni      12.32628301      33.48332005      24.65899785       0.60000000      -0.00618806       0.00013693      -0.00201250      -0.00355401
Ni      10.56686753      31.71372343      28.18567307       0.60000000      -0.00617271       0.00050682      -0.00111677      -0.00406908
Ni      10.56945701      33.47779793      29.94953117       0.60000000      -0.00611629      -0.00046839       0.00000456      -0.00064465
Ni      12.33302516      31.71123695      29.94694722       0.60000000      -0.00597809      -0.00766733       0.00676549       0.00178984
Ni      12.33142151      33.47946033      28.18529971       0.60000000      -0.00611888      -0.00370011       0.00066432      -0.00015419
Ni      10.56997840      31.71211198      31.71211198       0.60000000      -0.00621221      -0.00054059       0.00096265       0.00096265
Ni      10.56946336      33.47726593      33.47726593       0.60000000      -0.00643562       0.00509242      -0.00263163      -0.00263163
Ni      12.33326510      31.71205376      33.47685727       0.60000000      -0.00615533       0.00066494       0.00418206       0.00239749
Ni      12.33326510      33.47685727      31.71205376       0.60000000      -0.00615533       0.00066494       0.00239749       0.00418206
Ni      10.56900716      31.71393576      35.24268514       0.60000000      -0.00639025       0.00329500      -0.00095943      -0.00137586
Ni      10.56756715      33.47925162      37.00757902       0.60000000      -0.00670590       0.00313111      -0.00137976      -0.00243413
Ni      12.32978383      31.71636593      37.01019336       0.60000000      -0.00645518       0.00864919      -0.00309218      -0.00640961
Ni      12.33028460      33.47887856      35.24360862       0.60000000      -0.00642091       0.00991607      -0.00362240      -0.00494365
Ni      10.56621195      31.71729649      38.77287934       0.60000000      -0.00879252       0.00674655      -0.00460026      -0.00273043
Ni      10.56812900      33.48058009      40.53396925       0.60000000      -0.00656762      -0.01720286       0.02767967      -0.11698347
Ni      12.33064441      31.71827908      40.53620397       0.60000000      -0.00623591      -0.02115919       0.03131173      -0.14018645
Ni      12.33075322      33.48179461      38.77298673       0.60000000      -0.00874765      -0.00143194      -0.00626574      -0.00057456
Ni      10.56518312      35.24958393      -0.00974401       0.60000000      -0.00722733       0.00390316      -0.00921022       0.08780648
Ni      10.56485029      37.01264735       1.75249801       0.60000000      -0.00900517      -0.00051132       0.00086180      -0.00763853
Ni      12.32623443      35.25170586       1.75088775       0.60000000      -0.00923810      -0.00039331       0.00074668      -0.00944352
Ni      12.32777423      37.01150144      -0.00940452       0.60000000      -0.00725936       0.00773863      -0.00430866       0.08666330
Ni      10.56313487      35.25314102       3.51283694       0.60000000      -0.00759533       0.00282042      -0.01462985       0.01881273
Ni      10.56394233      37.01308788       5.27794612       0.60000000      -0.00778534      -0.00230726       0.00387660      -0.00373817
Ni      12.32450891      35.25114714       5.27660344       0.60000000      -0.00752740      -0.00015691       0.00303105      -0.00168806
Ni      12.32593561      37.01486636       3.51330138       0.60000000      -0.00772730       0.00151728      -0.01080130       0.01620673
Ni      10.56386094      35.24953315       7.04120248       0.60000000      -0.00708923      -0.00190084       0.00317711      -0.00379683
Ni      10.56367244      37.01556874       8.80197931       0.60000000      -0.00756030      -0.00174793       0.00186717      -0.00313416
Ni      12.32416444      35.25077018       8.80223677       0.60000000      -0.00703552       0.00148090       0.00196970      -0.00182745
Ni      12.32515636      37.01477431       7.03949944       0.60000000      -0.00752702      -0.00201418       0.00267131      -0.00301182
Ni      10.56425602      35.25105304      10.56425602       0.60000000      -0.00706960      -0.00157324       0.00066627      -0.00157324
Ni      10.56250401      37.01851553      12.32411720       0.60000000      -0.00747774       0.00128629      -0.00411551       0.00272110
Ni      12.32436396      35.25248014      12.32436396       0.60000000      -0.00689069       0.00310141      -0.00336927       0.00310141
Ni      12.32411720      37.01851553      10.56250401       0.60000000      -0.00747774       0.00272110      -0.00411551       0.00128629
Ni      10.56240746      35.25240590      14.08438051       0.60000000      -0.00691927       0.00245728      -0.00319872       0.00625055
Ni      10.56094947      37.01909706      15.84664184       0.60000000      -0.00739803       0.00298283      -0.00229088       0.00490607
Ni      12.32302353      35.25320777      15.84627608       0.60000000      -0.00663498       0.00461083      -0.00435418       0.00383401
Ni      12.32357278      37.01998240      14.08516493       0.60000000      -0.00737075       0.00195398      -0.00181673       0.00436170
Ni      10.56034492      35.25301775      17.60795777       0.60000000      -0.00668778       0.00561174      -0.00535587       0.00558636
Ni      10.56039108      37.01879043      19.37193054       0.60000000      -0.00720665       0.00411724      -0.00358956       0.00305201
Ni      12.32202206      35.25372001      19.37088599       0.60000000      -0.00641640       0.00408349      -0.00424143       0.00077936
Ni      12.32232722      37.02066796      17.60872428       0.60000000      -0.00721299       0.00428766      -0.00340240       0.00368940
Ni      10.56083595      35.25238553      21.13522814       0.60000000      -0.00649379       0.00610057      -0.00675861       0.00023022
Ni      10.56176369      37.01667742      22.89919270       0.60000000      -0.00693701       0.00356184      -0.00300160      -0.00109088
Ni      12.32457774      35.25183254      22.89713411       0.60000000      -0.00625127       0.00167218      -0.00204727       0.00040588
Ni      12.32315450      37.01950979      21.13486105       0.60000000      -0.00692373       0.00228541      -0.00076241       0.00181082
Ni      10.56391823      35.24916657      24.66184420       0.60000000      -0.00635748       0.00250892      -0.00250099       0.00040501
Ni      10.56471413      37.01288914      26.42534733       0.60000000      -0.00675083       0.00261259      -0.00034215       0.00159211
Ni      12.32916453      35.24808327      26.42351001       0.60000000      -0.00614261      -0.00080370      -0.00068558       0.00172924
Ni      12.32639716      37.01626108      24.66139817       0.60000000      -0.00672309      -0.00018178       0.00031245       0.00280176
Ni      10.56777979      35.24513204      28.18750407       0.60000000      -0.00630163      -0.00024109       0.00046005       0.00063486
Ni      10.56717239      37.00958872      29.95169236       0.60000000      -0.00665048       0.00246137      -0.00185601       0.00116864
Ni      12.33174898      35.24463603      29.95029259       0.60000000      -0.00619799       0.00244312      -0.00066360       0.00030271
Ni      12.32939177      37.01235505      28.18814187       0.60000000      -0.00652851       0.00210694       0.00131407       0.00383009
Ni      10.56900716      35.24268514      31.71393576       0.60000000      -0.00639025       0.00329500      -0.00137586      -0.00095943
Ni      10.56756715      37.00757902      33.47925162       0.60000000      -0.00670590       0.00313111      -0.00243413      -0.00137976
Ni      12.33028460      35.24360862      33.47887856       0.60000000      -0.00642091       0.00991607      -0.00494365      -0.00362240
Ni      12.32978383      37.01019336      31.71636593       0.60000000      -0.00645518       0.00864919      -0.00640961      -0.00309218
Ni      10.56777124      35.24269543      35.24269543       0.60000000      -0.00664334       0.00484099      -0.00375832      -0.00375832
Ni      10.56789609      37.00677342      37.00677342       0.60000000      -0.00692498       0.00210901      -0.00236566      -0.00236566
Ni      12.32995171      35.24447520      37.00837742       0.60000000      -0.00668043       0.00593629      -0.00490172      -0.00397747
Ni      12.32995171      37.00837742      35.24447520       0.60000000      -0.00668043       0.00593629      -0.00397747      -0.00490172
Ni      10.56810320      35.24389403      38.77075113       0.60000000      -0.00865056       0.00027423      -0.00565499      -0.00062888
Ni      10.56934701      37.00619123      40.53226818       0.60000000      -0.00691294      -0.01621585       0.02036644      -0.09596271
Ni      12.33197012      35.24433515      40.53402454       0.60000000      -0.00664777      -0.02051295       0.02312467      -0.11538402
Ni      12.33204788      37.00764503      38.77091956       0.60000000      -0.00875870      -0.00266262      -0.00456767       0.00034448
Ni      10.56619075      38.77277333      -0.00813762       0.60000000      -0.00880011       0.00565107       0.00025549       0.07218784
Ni      10.56610728      40.53536459       1.75425058       0.60000000      -0.00861563       0.00871439      -0.08557131      -0.00694308
Ni      12.32756309      38.77437803       1.75295688       0.60000000      -0.01077583      -0.00014115       0.00644657      -0.00660601
Ni      12.32881139      40.53453539      -0.00770898       0.60000000      -0.00693559       0.01949659      -0.08891260       0.07533597
Ni      10.56473474      38.77538780       3.51495214       0.60000000      -0.00950961      -0.00077671      -0.00115241       0.00648474
Ni      10.56485029      40.53775073       5.27760139       0.60000000      -0.00690542       0.00853286      -0.10542952      -0.00146949
Ni      12.32593561      38.77754464       5.27597966       0.60000000      -0.00972205       0.00191156      -0.01032651       0.00908645
Ni      12.32756309      40.53693899       3.51551785       0.60000000      -0.00714958       0.01152958      -0.10068030      -0.00364916
Ni      10.56313487      38.77845031       7.03814623       0.60000000      -0.00967705       0.00537555      -0.01137895       0.00891610
Ni      10.56359577      40.54027556       8.80114469       0.60000000      -0.00657032       0.00700143      -0.12750287       0.00226840
Ni      12.32423086      38.78113266       8.79918092       0.60000000      -0.00992966       0.00507032      -0.01193661       0.00855829
Ni      12.32623443      40.53970675       7.03888864       0.60000000      -0.00660739       0.01171898      -0.12369437      -0.00170869
Ni      10.56157782      38.78155676      10.56157782       0.60000000      -0.00995831       0.00770509      -0.01092559       0.00770509
Ni      10.56254729      40.54247145      12.32501868       0.60000000      -0.00623860       0.00351485      -0.14831572       0.00982451
Ni      12.32273525      38.78447930      12.32273525       0.60000000      -0.01027663       0.01032239      -0.01833912       0.01032239
Ni      12.32501868      40.54247145      10.56254729       0.60000000      -0.00623860       0.00982451      -0.14831572       0.00351485
Ni      10.56034720      38.78393592      14.08541845       0.60000000      -0.01024396       0.01098042      -0.01857587       0.00678426
Ni      10.56195822      40.54370073      15.84939531       0.60000000      -0.00583657      -0.00145102      -0.16332950       0.02135647
Ni      12.32184211      38.78652071      15.84687943       0.60000000      -0.01048430       0.01229055      -0.02826808       0.00832461
Ni      12.32419899      40.54457858      14.08667474       0.60000000      -0.00572325       0.00540864      -0.16902039       0.01356146
Ni      10.55977357      38.78465781      17.60990939       0.60000000      -0.01032829       0.01011295      -0.02469025       0.00569896
Ni      10.56206345      40.54343786      19.37447680       0.60000000      -0.00565103      -0.00659711      -0.17004620       0.03382537
Ni      12.32195859      38.78627497      19.37196670       0.60000000      -0.01041621       0.01202827      -0.02870601       0.00962448
Ni      12.32408714      40.54529871      17.61149759       0.60000000      -0.00536898      -0.00087222      -0.18227623       0.02712058
Ni      10.56014380      38.78315590      21.13537092       0.60000000      -0.01015017       0.01192178      -0.02241584       0.00943741
Ni      10.56297688      40.54164531      22.90041881       0.60000000      -0.00570940      -0.01087483      -0.16737056       0.04209818
Ni      12.32333758      38.78359517      22.89839729       0.60000000      -0.01005955       0.01480500      -0.02117307       0.01081844
Ni      12.32490103      40.54426675      21.13725057       0.60000000      -0.00529488      -0.00759402      -0.18568879       0.03909137
Ni      10.56157284      38.77980450      24.66204400       0.60000000      -0.00969722       0.01507614      -0.01415412       0.01017696
Ni      10.56457587      40.53893643      26.42712935       0.60000000      -0.00591523      -0.01415141      -0.15610982       0.04246895
Ni      12.32581307      38.77958135      26.42619706       0.60000000      -0.00954017       0.01596090      -0.01310178       0.00507119
Ni      12.32659275      40.54183092      24.66398527       0.60000000      -0.00546449      -0.01380097      -0.17892304       0.04373273
Ni      10.56382061      38.77596228      28.18968023       0.60000000      -0.00918798       0.01505891      -0.00754955       0.00252103
Ni      10.56645623      40.53620397      29.95409090       0.60000000      -0.00622160      -0.01644417      -0.13829873       0.03612448
Ni      12.32859407      38.77582115      29.95445745       0.60000000      -0.00902083       0.00881652      -0.00577744      -0.00465945
Ni      12.32872415      40.53888851      28.19127809       0.60000000      -0.00577971      -0.01875892      -0.16283986       0.03970294
Ni      10.56621195      38.77287934      31.71729649       0.60000000      -0.00879252       0.00674655      -0.00273043      -0.00460026
Ni      10.56812900      40.53396925      33.48058009       0.60000000      -0.00656762      -0.01720286      -0.11698347       0.02767967
Ni      12.33075322      38.77298673      33.48179461       0.60000000      -0.00874765      -0.00143194      -0.00057456      -0.00626574
Ni      12.33064441      40.53620397      31.71827908       0.60000000      -0.00623591      -0.02115919      -0.14018645       0.03131173
Ni      10.56810320      38.77075113      35.24389403       0.60000000      -0.00865056       0.00027423      -0.00062888      -0.00565499
Ni      10.56934701      40.53226818      37.00619123       0.60000000      -0.00691294      -0.01621585      -0.09596271       0.02036644
Ni      12.33204788      38.77091956      37.00764503       0.60000000      -0.00875870      -0.00266262       0.00034448      -0.00456767
Ni      12.33197012      40.53402454      35.24433515       0.60000000      -0.00664777      -0.02051295      -0.11538402       0.02312467
Ni      10.56935458      38.76926071      38.76926071       0.60000000      -0.01009473      -0.00023366       0.00198667       0.00198667
Ni      10.57014256      40.53097400      40.53097400       0.60000000      -0.00689167      -0.02867420      -0.06976027      -0.06976027
Ni      12.33274162      38.76938057      40.53231384       0.60000000      -0.00847468      -0.01793583       0.02166924      -0.09279140
Ni      12.33274162      40.53231384      38.76938057       0.60000000      -0.00847468      -0.01793583      -0.09279140       0.02166924
Ni      14.09604265      -0.00647769      -0.00647769       0.60000000      -0.00677569      -0.03381782       0.08039274       0.08039274
Ni      14.09594983       1.75439323       1.75439323       0.60000000      -0.01097370      -0.00063953      -0.00571421      -0.00571421
Ni      15.85890198      -0.00771213       1.75499933       0.60000000      -0.00870697      -0.01981694       0.10394884      -0.01965284
Ni      15.85890198       1.75499933      -0.00771213       0.60000000      -0.00870697      -0.01981694      -0.01965284       0.10394884
Ni      14.09590114      -0.00831373       3.51730709       0.60000000      -0.00698546      -0.02110991       0.11577034      -0.01626933
Ni      14.09568776       1.75199165       5.27816782       0.60000000      -0.00947066      -0.00083905      -0.00752090      -0.00000007
Ni      15.85892210      -0.00987487       5.27887243       0.60000000      -0.00678719      -0.02480427       0.13407963      -0.01834539
Ni      15.85909544       1.75276786       3.51570944       0.60000000      -0.00944247      -0.00077186      -0.00664068       0.00006340
Ni      14.09549158      -0.01055799       7.04159595       0.60000000      -0.00664068      -0.02575010       0.14705615      -0.02083547
Ni      14.09496941       1.74903116       8.80273700       0.60000000      -0.00988658      -0.00105103      -0.00845518      -0.00050900
Ni      15.85858007      -0.01241808       8.80339128       0.60000000      -0.00636206      -0.02941003       0.16871684      -0.02293333
Ni      15.85905166       1.74990174       7.03962665       0.60000000      -0.00972767      -0.00101805      -0.00838776      -0.00014354
Ni      14.09460884      -0.01304135      10.56676009       0.60000000      -0.00621457      -0.02923172       0.18005347      -0.02568659
Ni      14.09347778       1.74586735      12.32872415       0.60000000      -0.01050295      -0.00129857      -0.00787995      -0.00118065
Ni      15.85757581      -0.01504777      12.32895174       0.60000000      -0.00588419      -0.03154221       0.20215738      -0.02687556
Ni      15.85835722       1.74655014      10.56457587       0.60000000      -0.01034439      -0.00125505      -0.00837657      -0.00079125
Ni      14.09313051      -0.01533553      14.09313051       0.60000000      -0.00581301      -0.02966163       0.20718814      -0.02966163
Ni      14.09119484       1.74329392      15.85654995       0.60000000      -0.01097566      -0.00153262      -0.00728039      -0.00158141
Ni      15.85579727      -0.01720626      15.85579727       0.60000000      -0.00551443      -0.02887206       0.22462951      -0.02887206
Ni      15.85654995       1.74329392      14.09119484       0.60000000      -0.01097566      -0.00158141      -0.00728039      -0.00153262
Ni      14.09125981      -0.01685961      17.62063664       0.60000000      -0.00560147      -0.02549893       0.21877353      -0.03148934
Ni      14.08874547       1.74212565      19.38567283       0.60000000      -0.01099167      -0.00131198      -0.00885524      -0.00150106
Ni      15.85362785      -0.01829721      19.38363597       0.60000000      -0.00541789      -0.02046694       0.22746155      -0.02782010
Ni      15.85375984       1.74108986      17.61967122       0.60000000      -0.01116048      -0.00166750      -0.00764848      -0.00165148
Ni      14.08952732      -0.01722602      21.14855161       0.60000000      -0.00568605      -0.01698987       0.20997470      -0.03000305
Ni      14.08697853       1.74256401      22.91454343       0.60000000      -0.01083855      -0.00072823      -0.01095706      -0.00117192
Ni      15.85177931      -0.01806659      22.91154538       0.60000000      -0.00563164      -0.00826029       0.21069088      -0.02313792
Ni      15.85097976       1.74064512      21.14906032       0.60000000      -0.01111456      -0.00122197      -0.00947462      -0.00137205
Ni      14.08843171      -0.01646409      24.67583614       0.60000000      -0.00601351      -0.00656317       0.18555906      -0.02476638
Ni      14.08631656       1.74421565      26.44175163       0.60000000      -0.01047832      -0.00032768      -0.01246422      -0.00054280
Ni      15.85076924      -0.01671627      26.43849542       0.60000000      -0.00604237       0.00372743       0.18311936      -0.01540785
Ni      15.84921631       1.74188696      24.67764284       0.60000000      -0.01085447      -0.00040214      -0.01186690      -0.00077667
Ni      14.08815480      -0.01489691      28.20180271       0.60000000      -0.00642974       0.00263772       0.15580776      -0.01695789
Ni      14.08667474       1.74652909      29.96690868       0.60000000      -0.01001323      -0.00022119      -0.01256613       0.00021575
Ni      15.85067637      -0.01468370      29.96398869       0.60000000      -0.00648815       0.01190637       0.15376008      -0.00698283
Ni      15.84877832       1.74421565      28.20421339       0.60000000      -0.01042113       0.00009799      -0.01328476      -0.00004691
Ni      14.08857769      -0.01291163      31.72640512       0.60000000      -0.00680766       0.00853305       0.12818874      -0.00907110
Ni      14.08770829       1.74904952      33.49050538       0.60000000      -0.00958527      -0.00015551      -0.01116332       0.00072455
Ni      15.85126674      -0.01239791      33.48819066       0.60000000      -0.00686237       0.01522491       0.12655036      -0.00063287
Ni      15.84939531       1.74699594      31.72873845       0.60000000      -0.00995443       0.00024314      -0.01276538       0.00064432
Ni      14.08943857      -0.01082978      35.25003490       0.60000000      -0.00709285       0.01093283       0.10467884      -0.00321370
Ni      14.08903852       1.75146518      37.01329866       0.60000000      -0.00925457      -0.00002248      -0.00892665       0.00104714
Ni      15.85221407      -0.01017177      37.01159321       0.60000000      -0.00713687       0.01502924       0.10253361       0.00284182
Ni      15.85059730       1.74976995      35.25194501       0.60000000      -0.00950368       0.00031320      -0.01084539       0.00092185
Ni      14.09047378      -0.00887142      38.77316514       0.60000000      -0.00884077       0.01110688       0.08497955       0.00554078
Ni      14.09037676       1.75359349      40.53586280       0.60000000      -0.00873913       0.01383558      -0.00963789      -0.09346838
Ni      15.85324700      -0.00818910      40.53465034       0.60000000      -0.00680918       0.02910370       0.08584239      -0.08923311
Ni      15.85196869       1.75226419      38.77460590       0.60000000      -0.01108403       0.00041109      -0.00751230       0.00690797
Ni      14.09590114       3.51730709      -0.00831373       0.60000000      -0.00698546      -0.02110991      -0.01626933       0.11577034
Ni      14.09568776       5.27816782       1.75199165       0.60000000      -0.00947066      -0.00083905      -0.00000007      -0.00752090
Ni      15.85909544       3.51570944       1.75276786       0.60000000      -0.00944247      -0.00077186       0.00006340      -0.00664068
Ni      15.85892210       5.27887243      -0.00987487       0.60000000      -0.00678719      -0.02480427      -0.01834539       0.13407963
Ni      14.09576122       3.51492323       3.51492323       0.60000000      -0.00739412      -0.00092673       0.00537163       0.00537163
Ni      14.09607244       5.27670021       5.27670021       0.60000000      -0.00735612      -0.00164721      -0.00109782      -0.00109782
Ni      15.85933568       3.51272013       5.27600534       0.60000000      -0.00725451      -0.00212001       0.01072432       0.00902281
Ni      15.85933568       5.27600534       3.51272013       0.60000000      -0.00725451      -0.00212001       0.00902281       0.01072432
Ni      14.09526283       3.51167777       7.03870461       0.60000000      -0.00715347       0.00184653       0.01342672       0.00837614
Ni      14.09510029       5.27329079       8.80175066       0.60000000      -0.00735585      -0.00703287      -0.00640303      -0.00723949
Ni      15.85912902       3.50879450       8.80003178       0.60000000      -0.00704554      -0.00493621       0.00991838       0.00700679
Ni      15.85944793       5.27462713       7.03887264       0.60000000      -0.00735163      -0.00383195      -0.00445916      -0.00463755
Ni      14.09394544       3.50766339      10.56382061       0.60000000      -0.00700178      -0.00467614       0.00762547       0.00103440
Ni      14.08946899       5.26677334      12.32461795       0.60000000      -0.00724209       0.00096365      -0.00451402      -0.00048300
Ni      15.85767496       3.50429067      12.32581307       0.60000000      -0.00692811      -0.01527660       0.00050890      -0.00434338
Ni      15.85664840       5.26860091      10.56240620       0.60000000      -0.00725934      -0.00495280      -0.00582121      -0.00626101
Ni      14.09137498       3.50368557      14.09137498       0.60000000      -0.00685105      -0.01214807      -0.00106404      -0.01214807
Ni      14.08538269       5.26056361      15.85091546       0.60000000      -0.00713656       0.00680339       0.00724863       0.00746575
Ni      15.85439373       3.50042197      15.85439373       0.60000000      -0.00709564      -0.01031933       0.00610949      -0.01031933
Ni      15.85091546       5.26056361      14.08538269       0.60000000      -0.00713656       0.00746575       0.00724863       0.00680339
Ni      14.08802843       3.50119317      17.62166759       0.60000000      -0.00715414      -0.00103124       0.00597501      -0.01792629
Ni      14.08461782       5.26055408      19.38218877       0.60000000      -0.00730540       0.00128072      -0.00019468      -0.00313510
Ni      15.85032365       3.49873233      19.38547926       0.60000000      -0.00694073      -0.00258887       0.00552196      -0.02361633
Ni      15.84864991       5.25812682      17.61476902       0.60000000      -0.00725601       0.00009300      -0.00053725      -0.00075474
Ni      14.08527426       3.50099600      21.15281734       0.60000000      -0.00705736       0.00605326       0.00428427      -0.03042517
Ni      14.08488866       5.26204118      22.91043220       0.60000000      -0.00722813      -0.00102394       0.00226027       0.00232291
Ni      15.84735389       3.49962409      22.91658987       0.60000000      -0.00715361       0.01045217       0.00921413      -0.03425879
Ni      15.84683238       5.25838829      21.14440580       0.60000000      -0.00713614       0.00364065       0.00180759       0.00319517
Ni      14.08399865       3.50265847      24.68210864       0.60000000      -0.00729468       0.01140495       0.00866124      -0.03696327
Ni      14.08494005       5.26558600      26.43755069       0.60000000      -0.00725604      -0.00090526       0.00297900       0.00250570
Ni      15.84630471       3.50226630      26.44510292       0.60000000      -0.00734195       0.01215937       0.01333793      -0.03372558
Ni      15.84742951       5.26134886      24.67390569       0.60000000      -0.00713544      -0.00261083       0.00251828      -0.00044240
Ni      14.08419778       3.50534003      28.20832350       0.60000000      -0.00748340       0.00886072       0.01597505      -0.03232785
Ni      14.08424763       5.27015687      29.96455620       0.60000000      -0.00748506       0.00038716       0.00183681       0.00011609
Ni      15.84687943       3.50565872      29.97033731       0.60000000      -0.00753410       0.00814741       0.02082602      -0.02612452
Ni      15.84683111       5.26631362      28.20203404       0.60000000      -0.00736217      -0.00015476       0.00288833      -0.00081516
Ni      14.08541845       3.50838463      31.73197335       0.60000000      -0.00756267       0.00254222       0.01932905      -0.02295630
Ni      14.08466416       5.27409652      33.48969377       0.60000000      -0.00747115       0.00432691       0.00147718       0.00069412
Ni      15.84839784       3.50912754      33.49329621       0.60000000      -0.00754544       0.00315567       0.02093071      -0.01771059
Ni      15.84657348       5.27117182      31.72825182       0.60000000      -0.00745614       0.00160920       0.00184076      -0.00232332
Ni      14.08712818       3.51136668      35.25426657       0.60000000      -0.00758857       0.00176912       0.01924744      -0.01400412
Ni      14.08734169       5.27674571      37.01407245       0.60000000      -0.00781682      -0.00013468      -0.00298121       0.00324168
Ni      15.85023291       3.51228585      37.01532714       0.60000000      -0.00771072       0.00167634       0.01831295      -0.01167096
Ni      15.84843346       5.27533055      35.25156001       0.60000000      -0.00749965       0.00045990      -0.00156067       0.00373865
Ni      14.08889850       3.51402506      38.77619828       0.60000000      -0.00967246      -0.00019321       0.00688122      -0.00109708
Ni      14.08903852       5.27682426      40.53865773       0.60000000      -0.00674642       0.01559924      -0.00448155      -0.11686051
Ni      15.85196869       3.51493967      40.53728137       0.60000000      -0.00705308       0.01811261      -0.00600711      -0.10821745
Ni      15.85023291       5.27513105      38.77817234       0.60000000      -0.00983630       0.00184395       0.00966362      -0.01210959
Ni      14.09549158       7.04159595      -0.01055799       0.60000000      -0.00664068      -0.02575010      -0.02083547       0.14705615
Ni      14.09496941       8.80273700       1.74903116       0.60000000      -0.00988658      -0.00105103      -0.00050900      -0.00845518
Ni      15.85905166       7.03962665       1.74990174       0.60000000      -0.00972767      -0.00101805      -0.00014354      -0.00838776
Ni      15.85858007       8.80339128      -0.01241808       0.60000000      -0.00636206      -0.02941003      -0.02293333       0.16871684
Ni      14.09526283       7.03870461       3.51167777       0.60000000      -0.00715347       0.00184653       0.00837614       0.01342672
Ni      14.09510029       8.80175066       5.27329079       0.60000000      -0.00735585      -0.00703287      -0.00723949      -0.00640303
Ni      15.85944793       7.03887264       5.27462713       0.60000000      -0.00735163      -0.00383195      -0.00463755      -0.00445916
Ni      15.85912902       8.80003178       3.50879450       0.60000000      -0.00704554      -0.00493621       0.00700679       0.00991838
Ni      14.09617907       7.03873070       7.03873070       0.60000000      -0.00712464      -0.00911101      -0.00663584      -0.00663584
Ni      14.09205586       8.79878456       8.79878456       0.60000000      -0.00729798      -0.00834583      -0.00918379      -0.00918379
Ni      15.85794611       7.03607560       8.80082730       0.60000000      -0.00727015      -0.01002055      -0.01183317      -0.01113552
Ni      15.85794611       8.80082730       7.03607560       0.60000000      -0.00727015      -0.01002055      -0.01113552      -0.01183317
Ni      14.09105074       7.03359175      10.56208114       0.60000000      -0.00726579      -0.00628345      -0.01174227      -0.00764287
Ni      14.08476838       8.79196469      12.32031148       0.60000000      -0.00730960       0.00011832      -0.01024677      -0.00020955
Ni      15.85025803       7.02661427      12.32152855       0.60000000      -0.00731335       0.00428488      -0.00484675       0.00084106
Ni      15.85159313       8.79471495      10.55956123       0.60000000      -0.00732961      -0.00122666      -0.00973637      -0.00630961
Ni      14.08429390       7.02532679      14.08429390       0.60000000      -0.00745521       0.00381482      -0.00534875       0.00381482
Ni      14.07990016       8.78302518      15.84389955       0.60000000      -0.00735112       0.00813087       0.00908964       0.00960949
Ni      15.84531946       7.01775029      15.84531946       0.60000000      -0.00749412       0.00754948       0.01218669       0.00754948
Ni      15.84389955       8.78302518      14.07990016       0.60000000      -0.00735112       0.00960949       0.00908964       0.00813087
Ni      14.08193051       7.01935839      17.61125572       0.60000000      -0.00739335       0.00691097       0.01242756       0.00795247
Ni      14.08099785       8.78193556      19.37165828       0.60000000      -0.00737630       0.00091045       0.01126202       0.00413051
Ni      15.84501891       7.01820859      19.37418198       0.60000000      -0.00708524       0.00031457      -0.00280015       0.00315293
Ni      15.84161328       8.77784118      17.60547324       0.60000000      -0.00742623       0.00284358       0.01164764       0.00408254
Ni      14.08353669       7.02300773      21.14113835       0.60000000      -0.00722222      -0.00005690      -0.00316155      -0.00067022
Ni      14.08327902       8.78760813      22.89886324       0.60000000      -0.00715547       0.00341078       0.00242094       0.00545557
Ni      15.84568121       7.02108841      22.90325189       0.60000000      -0.00708443       0.00533337       0.00419735       0.00138765
Ni      15.84380816       8.78072687      21.13349481       0.60000000      -0.00710223       0.00158967       0.00864773       0.00865229
Ni      14.08527309       7.02599035      24.66706289       0.60000000      -0.00709274      -0.00091005       0.00397199       0.00480005
Ni      14.08548272       8.79209635      26.42437648       0.60000000      -0.00703409      -0.00061791       0.00030288       0.01010843
Ni      15.84677055       7.02552524      26.43089698       0.60000000      -0.00694368      -0.00007964       0.00512855       0.00479445
Ni      15.84564801       8.78685583      24.66156019       0.60000000      -0.00697816       0.00393691       0.00171478       0.00447464
Ni      14.08490556       7.03032206      28.19405496       0.60000000      -0.00708928      -0.00119615       0.00452309       0.00448595
Ni      14.08301038       8.79505895      29.95390328       0.60000000      -0.00691243       0.00780421       0.00821189       0.00456188
Ni      15.84526418       7.03103610      29.96079251       0.60000000      -0.00694968       0.00475444       0.00602969      -0.00285987
Ni      15.84543832       8.79078889      28.19030331       0.60000000      -0.00684748       0.00474498       0.00668528       0.00664828
Ni      14.08270421       7.03536189      31.72313151       0.60000000      -0.00700464       0.00620873       0.00225739       0.00180352
Ni      14.08319232       8.80022407      33.48537437       0.60000000      -0.00678303       0.00594230       0.00089862       0.00206339
Ni      15.84589814       7.03663745      33.48722089       0.60000000      -0.00685723       0.00288247       0.00052125       0.00340077
Ni      15.84384824       8.79577347      31.72145490       0.60000000      -0.00662876       0.01080518       0.00848439      -0.00128510
Ni      14.08532999       7.03919469      35.25039509       0.60000000      -0.00704286       0.00017275      -0.00298646       0.00510421
Ni      14.08557639       8.80019789      37.01730362       0.60000000      -0.00747133       0.00303146      -0.00004479      -0.00225177
Ni      15.84840792       7.03828593      37.01537675       0.60000000      -0.00746713       0.00076341      -0.00199878       0.00154729
Ni      15.84594645       8.79982608      35.25165313       0.60000000      -0.00685660       0.00462218       0.00225254      -0.00057132
Ni      14.08712818       7.03703620      38.77993609       0.60000000      -0.00985698       0.00315356       0.00872006      -0.01342623
Ni      14.08770829       8.80029517      40.54175103       0.60000000      -0.00628403       0.01599870      -0.00175698      -0.14348092
Ni      15.85059730       7.03825341      40.54042847       0.60000000      -0.00639247       0.02087420      -0.00530029      -0.13460536
Ni      15.84839784       8.79823678      38.78240545       0.60000000      -0.01011145       0.00398787       0.00956320      -0.01815648
Ni      14.09460884      10.56676009      -0.01304135       0.60000000      -0.00621457      -0.02923172      -0.02568659       0.18005347
Ni      14.09347778      12.32872415       1.74586735       0.60000000      -0.01050295      -0.00129857      -0.00118065      -0.00787995
Ni      15.85835722      10.56457587       1.74655014       0.60000000      -0.01034439      -0.00125505      -0.00079125      -0.00837657
Ni      15.85757581      12.32895174      -0.01504777       0.60000000      -0.00588419      -0.03154221      -0.02687556       0.20215738
Ni      14.09394544      10.56382061       3.50766339       0.60000000      -0.00700178      -0.00467614       0.00103440       0.00762547
Ni      14.08946899      12.32461795       5.26677334       0.60000000      -0.00724209       0.00096365      -0.00048300      -0.00451402
Ni      15.85664840      10.56240620       5.26860091       0.60000000      -0.00725934      -0.00495280      -0.00626101      -0.00582121
Ni      15.85767496      12.32581307       3.50429067       0.60000000      -0.00692811      -0.01527660      -0.00434338       0.00050890
Ni      14.09105074      10.56208114       7.03359175       0.60000000      -0.00726579      -0.00628345      -0.00764287      -0.01174227
Ni      14.08476838      12.32031148       8.79196469       0.60000000      -0.00730960       0.00011832      -0.00020955      -0.01024677
Ni      15.85159313      10.55956123       8.79471495       0.60000000      -0.00732961      -0.00122666      -0.00630961      -0.00973637
Ni      15.85025803      12.32152855       7.02661427       0.60000000      -0.00731335       0.00428488       0.00084106      -0.00484675
Ni      14.08525182      10.55686919      10.55686919       0.60000000      -0.00750772      -0.00177366      -0.00508125      -0.00508125
Ni      14.07683897      12.31342595      12.31342595       0.60000000      -0.00756996       0.01932958       0.01333597       0.01333597
Ni      15.84403872      10.55119291      12.31670531       0.60000000      -0.00733831       0.00916968       0.00241735       0.00499578
Ni      15.84403872      12.31670531      10.55119291       0.60000000      -0.00733831       0.00916968       0.00499578       0.00241735
Ni      14.07749819      10.54802436      14.07749819       0.60000000      -0.00722129       0.01669487       0.01152532       0.01669487
Ni      14.07410525      12.30747905      15.83722781       0.60000000      -0.00730096       0.00552568       0.01406700       0.00992493
Ni      15.83857387      10.54061333      15.83857387       0.60000000      -0.00729826       0.00675616       0.02242820       0.00675616
Ni      15.83722781      12.30747905      14.07410525       0.60000000      -0.00730096       0.00992493       0.01406700       0.00552568
Ni      14.07774821      10.54377607      17.60454448       0.60000000      -0.00735652       0.00251240       0.01785690       0.00370606
Ni      14.07485366      12.30800854      19.36517408       0.60000000      -0.00713822       0.00145927       0.00881299      -0.00149154
Ni      15.83982917      10.54179103      19.36602043       0.60000000      -0.00731879       0.00055801       0.00638264       0.00091255
Ni      15.83534211      12.30336909      17.59849557       0.60000000      -0.00730175       0.00069269       0.01224186       0.00045259
Ni      14.07998676      10.54718294      21.13128278       0.60000000      -0.00729511       0.00091195       0.00710350       0.00757082
Ni      14.07866939      12.31298857      22.89303605       0.60000000      -0.00715685       0.00090769       0.00471851      -0.00002969
Ni      15.84365829      10.54695848      22.89374485       0.60000000      -0.00715369      -0.00014715       0.00768905       0.00418530
Ni      15.83789010      12.30725684      21.12679328       0.60000000      -0.00709909       0.00439769       0.00395304      -0.00291217
Ni      14.08355435      10.55400882      24.65821915       0.60000000      -0.00694002       0.00229218      -0.00127326       0.00605409
Ni      14.08283975      12.31800836      26.42139336       0.60000000      -0.00684773       0.00279293       0.00464290      -0.00291659
Ni      15.84600970      10.55336950      26.42236950       0.60000000      -0.00693354       0.00102432       0.00072778       0.00368629
Ni      15.84422606      12.31458094      24.65559724       0.60000000      -0.00694483      -0.00988754      -0.00741330      -0.00490077
Ni      14.08457698      10.55673266      28.18602967       0.60000000      -0.00690513       0.00527134       0.00612963       0.00811333
Ni      14.08575769      12.32257740      29.95049204       0.60000000      -0.00680708      -0.00069203       0.00109730       0.00124449
Ni      15.84480024      10.55560350      29.95320440       0.60000000      -0.00674341       0.00696656       0.01136762       0.00028266
Ni      15.84676721      12.31933143      28.18579000       0.60000000      -0.00680779      -0.00627705      -0.00538832      -0.00496018
Ni      14.08350580      10.56024822      31.71786486       0.60000000      -0.00670734       0.00942879       0.00837557      -0.00063928
Ni      14.08507084      12.32383024      33.48451353       0.60000000      -0.00678552       0.00496356       0.00523536      -0.00206875
Ni      15.84474960      10.56021899      33.48597252       0.60000000      -0.00667240       0.00783652       0.00730159      -0.00427746
Ni      15.84633900      12.32212057      31.71751732       0.60000000      -0.00671073       0.00254959       0.00129034      -0.00113351
Ni      14.08438051      10.56240746      35.25240590       0.60000000      -0.00691927       0.00625055       0.00245728      -0.00319872
Ni      14.08516493      12.32357278      37.01998240       0.60000000      -0.00737075       0.00436170       0.00195398      -0.00181673
Ni      15.84664184      10.56094947      37.01909706       0.60000000      -0.00739803       0.00490607       0.00298283      -0.00229088
Ni      15.84627608      12.32302353      35.25320777       0.60000000      -0.00663498       0.00383401       0.00461083      -0.00435418
Ni      14.08541845      10.56034720      38.78393592       0.60000000      -0.01024396       0.00678426       0.01098042      -0.01857587
Ni      14.08667474      12.32419899      40.54457858       0.60000000      -0.00572325       0.01356146       0.00540864      -0.16902039
Ni      15.84939531      10.56195822      40.54370073       0.60000000      -0.00583657       0.02135647      -0.00145102      -0.16332950
Ni      15.84687943      12.32184211      38.78652071       0.60000000      -0.01048430       0.00832461       0.01229055      -0.02826808
Ni      14.09313051      14.09313051      -0.01533553       0.60000000      -0.00581301      -0.02966163      -0.02966163       0.20718814
Ni      14.09119484      15.85654995       1.74329392       0.60000000      -0.01097566      -0.00153262      -0.00158141      -0.00728039
Ni      15.85654995      14.09119484       1.74329392       0.60000000      -0.01097566      -0.00158141      -0.00153262      -0.00728039
Ni      15.85579727      15.85579727      -0.01720626       0.60000000      -0.00551443      -0.02887206      -0.02887206       0.22462951
Ni      14.09137498      14.09137498       3.50368557       0.60000000      -0.00685105      -0.01214807      -0.01214807      -0.00106404
Ni      14.08538269      15.85091546       5.26056361       0.60000000      -0.00713656       0.00680339       0.00746575       0.00724863
Ni      15.85091546      14.08538269       5.26056361       0.60000000      -0.00713656       0.00746575       0.00680339       0.00724863
Ni      15.85439373      15.85439373       3.50042197       0.60000000      -0.00709564      -0.01031933      -0.01031933       0.00610949
Ni      14.08429390      14.08429390       7.02532679       0.60000000      -0.00745521       0.00381482       0.00381482      -0.00534875
Ni      14.07990016      15.84389955       8.78302518       0.60000000      -0.00735112       0.00813087       0.00960949       0.00908964
Ni      15.84389955      14.07990016       8.78302518       0.60000000      -0.00735112       0.00960949       0.00813087       0.00908964
Ni      15.84531946      15.84531946       7.01775029       0.60000000      -0.00749412       0.00754948       0.00754948       0.01218669
Ni      14.07749819      14.07749819      10.54802436       0.60000000      -0.00722129       0.01669487       0.01669487       0.01152532
Ni      14.07410525      15.83722781      12.30747905       0.60000000      -0.00730096       0.00552568       0.00992493       0.01406700
Ni      15.83722781      14.07410525      12.30747905       0.60000000      -0.00730096       0.00992493       0.00552568       0.01406700
Ni      15.83857387      15.83857387      10.54061333       0.60000000      -0.00729826       0.00675616       0.00675616       0.02242820
Cr      14.07364089      14.07364089      14.07364089       0.60000000      -0.00762405       0.00201586       0.00201586       0.00201586
Cr      14.06759607      15.83409911      15.83409911       0.60000000      -0.00704186       0.00385204      -0.01115630      -0.01115630
Cr      15.83409911      14.06759607      15.83409911       0.60000000      -0.00704186      -0.01115630       0.00385204      -0.01115630
Cr      15.83409911      15.83409911      14.06759607       0.60000000      -0.00704186      -0.01115630      -0.01115630       0.00385204
Ni      14.06892109      14.06892109      17.59782695       0.60000000      -0.00683524       0.00493406       0.00493406      -0.00357394
Ni      14.06712832      15.83119405      19.35752995       0.60000000      -0.00686039       0.00551812       0.01774668       0.00767959
Ni      15.83119405      14.06712832      19.35752995       0.60000000      -0.00686039       0.01774668       0.00551812       0.00767959
Cr      15.82709726      15.82709726      17.59177200       0.60000000      -0.00716999       0.03148626       0.03148626       0.02014727
Ni      14.07299923      14.07299923      21.12635552       0.60000000      -0.00691040      -0.00131946      -0.00131946      -0.00556741
Ni      14.07283216      15.83677191      22.88722723       0.60000000      -0.00697935      -0.00272928       0.00252185      -0.00933065
Ni      15.83677191      14.07283216      22.88722723       0.60000000      -0.00697935       0.00252185      -0.00272928      -0.00933065
Ni      15.83117116      15.83117116      21.11559852       0.60000000      -0.00687872       0.00082107       0.00082107       0.01667679
Ni      14.07800922      14.07800922      24.65631130       0.60000000      -0.00710719      -0.00227273      -0.00227273      -0.01364393
Ni      14.07877231      15.84325440      26.41711541       0.60000000      -0.00716902       0.00700411      -0.00013868      -0.00413559
Ni      15.84325440      14.07877231      26.41711541       0.60000000      -0.00716902      -0.00013868       0.00700411      -0.00413559
Ni      15.83750519      15.83750519      24.64489059       0.60000000      -0.00720293      -0.00479817      -0.00479817       0.01973581
Ni      14.08408590      14.08408590      28.18417697       0.60000000      -0.00666051      -0.00464824      -0.00464824      -0.00029173
Ni      14.08556495      15.84796623      29.94783378       0.60000000      -0.00666073      -0.01038004      -0.00933404       0.01272411
Ni      15.84796623      14.08556495      29.94783378       0.60000000      -0.00666073      -0.00933404      -0.01038004       0.01272411
Ni      15.84505305      15.84505305      28.17857919       0.60000000      -0.00650766      -0.01429320      -0.01429320       0.00968463
Ni      14.08683130      14.08683130      31.71623231       0.60000000      -0.00674715      -0.00430535      -0.00430535       0.00125085
Ni      14.08560607      15.84740079      33.48484782       0.60000000      -0.00648890      -0.00026976       0.00063125       0.00065460
Ni      15.84740079      14.08560607      33.48484782       0.60000000      -0.00648890       0.00063125      -0.00026976       0.00065460
Ni      15.84878025      15.84878025      31.71565178       0.60000000      -0.00639525      -0.01722336      -0.01722336       0.01247806
Ni      14.08552402      14.08552402      35.25289795       0.60000000      -0.00658878       0.00270002       0.00270002      -0.00243244
Ni      14.08509769      15.84702298      37.02131225       0.60000000      -0.00720946       0.00055047       0.00130303      -0.00095105
Ni      15.84702298      14.08509769      37.02131225       0.60000000      -0.00720946       0.00130303       0.00055047      -0.00095105
Ni      15.84726188      15.84726188      35.25397384       0.60000000      -0.00624079       0.00093490       0.00093490       0.00080162
Ni      14.08419778      14.08419778      38.78718125       0.60000000      -0.01051805       0.01210376       0.01210376      -0.02928109
Ni      14.08631656      15.84877832      40.54631430       0.60000000      -0.00519354       0.00769158       0.01774454      -0.18878146
Ni      15.84877832      14.08631656      40.54631430       0.60000000      -0.00519354       0.01774454       0.00769158      -0.18878146
Ni      15.84630471      15.84630471      38.78914133       0.60000000      -0.01064813       0.01360859       0.01360859      -0.03534071
Ni      14.09125981      17.62063664      -0.01685961       0.60000000      -0.00560147      -0.02549893      -0.03148934       0.21877353
Ni      14.08874547      19.38567283       1.74212565       0.60000000      -0.01099167      -0.00131198      -0.00150106      -0.00885524
Ni      15.85375984      17.61967122       1.74108986       0.60000000      -0.01116048      -0.00166750      -0.00165148      -0.00764848
Ni      15.85362785      19.38363597      -0.01829721       0.60000000      -0.00541789      -0.02046694      -0.02782010       0.22746155
Ni      14.08802843      17.62166759       3.50119317       0.60000000      -0.00715414      -0.00103124      -0.01792629       0.00597501
Ni      14.08461782      19.38218877       5.26055408       0.60000000      -0.00730540       0.00128072      -0.00313510      -0.00019468
Ni      15.84864991      17.61476902       5.25812682       0.60000000      -0.00725601       0.00009300      -0.00075474      -0.00053725
Ni      15.85032365      19.38547926       3.49873233       0.60000000      -0.00694073      -0.00258887      -0.02361633       0.00552196
Ni      14.08193051      17.61125572       7.01935839       0.60000000      -0.00739335       0.00691097       0.00795247       0.01242756
Ni      14.08099785      19.37165828       8.78193556       0.60000000      -0.00737630       0.00091045       0.00413051       0.01126202
Ni      15.84161328      17.60547324       8.77784118       0.60000000      -0.00742623       0.00284358       0.00408254       0.01164764
Ni      15.84501891      19.37418198       7.01820859       0.60000000      -0.00708524       0.00031457       0.00315293      -0.00280015
Ni      14.07774821      17.60454448      10.54377607       0.60000000      -0.00735652       0.00251240       0.00370606       0.01785690
Ni      14.07485366      19.36517408      12.30800854       0.60000000      -0.00713822       0.00145927      -0.00149154       0.00881299
Ni      15.83534211      17.59849557      12.30336909       0.60000000      -0.00730175       0.00069269       0.00045259       0.01224186
Ni      15.83982917      19.36602043      10.54179103       0.60000000      -0.00731879       0.00055801       0.00091255       0.00638264
Ni      14.06892109      17.59782695      14.06892109       0.60000000      -0.00683524       0.00493406      -0.00357394       0.00493406
Ni      14.06712832      19.35752995      15.83119405       0.60000000      -0.00686039       0.00551812       0.00767959       0.01774668
Cr      15.82709726      17.59177200      15.82709726       0.60000000      -0.00716999       0.03148626       0.02014727       0.03148626
Ni      15.83119405      19.35752995      14.06712832       0.60000000      -0.00686039       0.01774668       0.00767959       0.00551812
Cr      14.06688799      17.59424041      17.59424041       0.60000000      -0.00737863      -0.00117463       0.01323375       0.01323375
Cr      14.06818219      19.35856607      19.35856607       0.60000000      -0.00753054      -0.00286733      -0.00495763      -0.00495763
Cr      15.82988249      17.59300859      19.35338259       0.60000000      -0.00752488      -0.00594641      -0.00435778       0.01841870
Cr      15.82988249      19.35338259      17.59300859       0.60000000      -0.00752488      -0.00594641       0.01841870      -0.00435778
Ni      14.06750836      17.59576648      21.11797619       0.60000000      -0.00711111       0.00640048       0.00150247       0.00900047
Ni      14.07010971      19.35963346      22.88016540       0.60000000      -0.00676690      -0.00706074       0.00296300       0.01712354
Ni      15.83191824      17.59469240      22.87477203       0.60000000      -0.00705387       0.00299957       0.00575871       0.03795180
Cr      15.83127986      19.35743300      21.11869273       0.60000000      -0.00754691      -0.00912180      -0.01743160      -0.01105424
Ni      14.07557483      17.60259228      24.64708202       0.60000000      -0.00683841      -0.01229597      -0.01423517       0.01119435
Ni      14.07678504      19.36401495      26.41122218       0.60000000      -0.00690703      -0.00779396       0.00033593       0.00922632
Ni      15.83962556      17.60059016      26.40783515       0.60000000      -0.00674973      -0.00758920       0.00753950       0.02563635
Ni      15.83363242      19.35794510      24.63972390       0.60000000      -0.00707270       0.00906002       0.01386606       0.03535555
Ni      14.08200101      17.60757228      28.18010102       0.60000000      -0.00665769      -0.01373091      -0.01789366       0.00566732
Ni      14.08160863      19.36615666      29.94694362       0.60000000      -0.00649450      -0.00594608       0.00313177       0.01455257
Ni      15.84529842      17.60666516      29.94616231       0.60000000      -0.00622197      -0.00683965       0.00020359       0.02024388
Ni      15.84013621      19.36374293      28.17655332       0.60000000      -0.00654839       0.00429117      -0.00201804       0.01788641
Ni      14.08457345      17.60805754      31.71605509       0.60000000      -0.00647678      -0.00943026      -0.00762562       0.01046957
Ni      14.08336565      19.36892039      33.48584590       0.60000000      -0.00627341       0.00214237       0.00426272       0.00667328
Ni      15.84681313      17.60881626      33.48619079       0.60000000      -0.00617413      -0.00335659      -0.00227313       0.00896637
Ni      15.84381185      19.36715317      31.71733876       0.60000000      -0.00630887       0.00113685      -0.00063442       0.01215390
Ni      14.08441095      17.60879620      35.25411730       0.60000000      -0.00628578       0.00335562       0.00001661      -0.00107778
Ni      14.08483988      19.37166652      37.02165636       0.60000000      -0.00697016       0.00336289       0.00190251      -0.00052240
Ni      15.84715862      17.60942323      37.02245543       0.60000000      -0.00700562       0.00319192       0.00177925       0.00198410
Ni      15.84677859      19.37131653      35.25549284       0.60000000      -0.00610668       0.00138745      -0.00055386       0.00134420
Ni      14.08399865      17.60894350      38.78839367       0.60000000      -0.01059519       0.01327867       0.01138353      -0.03360760
Ni      14.08697853      19.37431960      40.54629902       0.60000000      -0.00495940      -0.00083031       0.03165368      -0.19945340
Ni      15.84921631      17.61164896      40.54740484       0.60000000      -0.00475711       0.00920341       0.02090101      -0.20676478
Ni      15.84735389      19.37216914      38.78913493       0.60000000      -0.01065844       0.01542297       0.01368795      -0.03459643
Ni      14.08952732      21.14855161      -0.01722602       0.60000000      -0.00568605      -0.01698987      -0.03000305       0.20997470
Ni      14.08697853      22.91454343       1.74256401       0.60000000      -0.01083855      -0.00072823      -0.00117192      -0.01095706
Ni      15.85097976      21.14906032       1.74064512       0.60000000      -0.01111456      -0.00122197      -0.00137205      -0.00947462
Ni      15.85177931      22.91154538      -0.01806659       0.60000000      -0.00563164      -0.00826029      -0.02313792       0.21069088
Ni      14.08527426      21.15281734       3.50099600       0.60000000      -0.00705736       0.00605326      -0.03042517       0.00428427
Ni      14.08488866      22.91043220       5.26204118       0.60000000      -0.00722813      -0.00102394       0.00232291       0.00226027
Ni      15.84683238      21.14440580       5.25838829       0.60000000      -0.00713614       0.00364065       0.00319517       0.00180759
Ni      15.84735389      22.91658987       3.49962409       0.60000000      -0.00715361       0.01045217      -0.03425879       0.00921413
Ni      14.08353669      21.14113835       7.02300773       0.60000000      -0.00722222      -0.00005690      -0.00067022      -0.00316155
Ni      14.08327902      22.89886324       8.78760813       0.60000000      -0.00715547       0.00341078       0.00545557       0.00242094
Ni      15.84380816      21.13349481       8.78072687       0.60000000      -0.00710223       0.00158967       0.00865229       0.00864773
Ni      15.84568121      22.90325189       7.02108841       0.60000000      -0.00708443       0.00533337       0.00138765       0.00419735
Ni      14.07998676      21.13128278      10.54718294       0.60000000      -0.00729511       0.00091195       0.00757082       0.00710350
Ni      14.07866939      22.89303605      12.31298857       0.60000000      -0.00715685       0.00090769      -0.00002969       0.00471851
Ni      15.83789010      21.12679328      12.30725684       0.60000000      -0.00709909       0.00439769      -0.00291217       0.00395304
Ni      15.84365829      22.89374485      10.54695848       0.60000000      -0.00715369      -0.00014715       0.00418530       0.00768905
Ni      14.07299923      21.12635552      14.07299923       0.60000000      -0.00691040      -0.00131946      -0.00556741      -0.00131946
Ni      14.07283216      22.88722723      15.83677191       0.60000000      -0.00697935      -0.00272928      -0.00933065       0.00252185
Ni      15.83117116      21.11559852      15.83117116       0.60000000      -0.00687872       0.00082107       0.01667679       0.00082107
Ni      15.83677191      22.88722723      14.07283216       0.60000000      -0.00697935       0.00252185      -0.00933065      -0.00272928
Ni      14.06750836      21.11797619      17.59576648       0.60000000      -0.00711111       0.00640048       0.00900047       0.00150247
Ni      14.07010971      22.88016540      19.35963346       0.60000000      -0.00676690      -0.00706074       0.01712354       0.00296300
Cr      15.83127986      21.11869273      19.35743300       0.60000000      -0.00754691      -0.00912180      -0.01105424      -0.01743160
Ni      15.83191824      22.87477203      17.59469240       0.60000000      -0.00705387       0.00299957       0.03795180       0.00575871
Cr      14.06995174      21.12231624      21.12231624       0.60000000      -0.00720598      -0.01203634      -0.00667257      -0.00667257
Cr      14.07121378      22.88576971      22.88576971       0.60000000      -0.00727626      -0.00701980      -0.00636830      -0.00636830
Cr      15.83154282      21.11985478      22.88151295       0.60000000      -0.00722707       0.01520782       0.01180064       0.01150360
Cr      15.83154282      22.88151295      21.11985478       0.60000000      -0.00722707       0.01520782       0.01150360       0.01180064
Ni      14.07158563      21.12320451      24.64447060       0.60000000      -0.00703482      -0.00127280      -0.00700908       0.01483588
Ni      14.07357102      22.88391587      26.41062815       0.60000000      -0.00666359       0.00681042       0.01780901       0.01966472
Ni      15.83543452      21.12133166      26.40775759       0.60000000      -0.00690203       0.00843931       0.00372776       0.01876853
Cr      15.83402899      22.88427518      24.64817600       0.60000000      -0.00685585      -0.00114847      -0.01029996      -0.01401990
Ni      14.07834958      21.12525348      28.17775104       0.60000000      -0.00674524      -0.00426256      -0.00298014       0.01938380
Ni      14.08080578      22.88711917      29.94662195       0.60000000      -0.00642213       0.00073127       0.00817599       0.01260979
Ni      15.84045080      21.12498207      29.94777205       0.60000000      -0.00633991       0.00623985       0.00276042       0.00084755
Ni      15.83802204      22.88394194      28.17777746       0.60000000      -0.00690494       0.00273166       0.00368446      -0.00074273
Ni      14.08269577      21.12797340      31.71628863       0.60000000      -0.00628473      -0.00463554       0.00401862       0.01427245
Ni      14.08533328      22.89366927      33.48499832       0.60000000      -0.00607597       0.00100976       0.00070880       0.00426096
Ni      15.84519528      21.13088018      33.48767145       0.60000000      -0.00615866       0.00331763      -0.00078084       0.00011055
Ni      15.84302150      22.88824304      31.71752037       0.60000000      -0.00635887       0.01075404       0.01094095      -0.00181778
Ni      14.08486291      21.13350066      35.25410551       0.60000000      -0.00615328       0.00361297      -0.00129511       0.00000062
Ni      14.08780981      22.89821821      37.01974653       0.60000000      -0.00668896      -0.00226732      -0.00126954       0.00037424
Ni      15.84955747      21.13552116      37.02198831       0.60000000      -0.00678198      -0.00541208      -0.00296156       0.00343284
Ni      15.84953680      22.89633039      35.25429436       0.60000000      -0.00603123       0.00026495       0.00435593      -0.00115527
Ni      14.08527426      21.13508490      38.78690624       0.60000000      -0.01040525       0.01489029       0.01211304      -0.02868154
Ni      14.08874547      22.90100319      40.54455037       0.60000000      -0.00504257      -0.01043894       0.04050592      -0.19926830
Ni      15.85097976      21.13823684      40.54665203       0.60000000      -0.00468599      -0.00321126       0.03233015      -0.21443234
Ni      15.85032365      22.89994853      38.78669546       0.60000000      -0.01021572       0.01327431       0.01006889      -0.02195626
Ni      14.08843171      24.67583614      -0.01646409       0.60000000      -0.00601351      -0.00656317      -0.02476638       0.18555906
Ni      14.08631656      26.44175163       1.74421565       0.60000000      -0.01047832      -0.00032768      -0.00054280      -0.01246422
Ni      15.84921631      24.67764284       1.74188696       0.60000000      -0.01085447      -0.00040214      -0.00077667      -0.01186690
Ni      15.85076924      26.43849542      -0.01671627       0.60000000      -0.00604237       0.00372743      -0.01540785       0.18311936
Ni      14.08399865      24.68210864       3.50265847       0.60000000      -0.00729468       0.01140495      -0.03696327       0.00866124
Ni      14.08494005      26.43755069       5.26558600       0.60000000      -0.00725604      -0.00090526       0.00250570       0.00297900
Ni      15.84742951      24.67390569       5.26134886       0.60000000      -0.00713544      -0.00261083      -0.00044240       0.00251828
Ni      15.84630471      26.44510292       3.50226630       0.60000000      -0.00734195       0.01215937      -0.03372558       0.01333793
Ni      14.08527309      24.66706289       7.02599035       0.60000000      -0.00709274      -0.00091005       0.00480005       0.00397199
Ni      14.08548272      26.42437648       8.79209635       0.60000000      -0.00703409      -0.00061791       0.01010843       0.00030288
Ni      15.84564801      24.66156019       8.78685583       0.60000000      -0.00697816       0.00393691       0.00447464       0.00171478
Ni      15.84677055      26.43089698       7.02552524       0.60000000      -0.00694368      -0.00007964       0.00479445       0.00512855
Ni      14.08355435      24.65821915      10.55400882       0.60000000      -0.00694002       0.00229218       0.00605409      -0.00127326
Ni      14.08283975      26.42139336      12.31800836       0.60000000      -0.00684773       0.00279293      -0.00291659       0.00464290
Ni      15.84422606      24.65559724      12.31458094       0.60000000      -0.00694483      -0.00988754      -0.00490077      -0.00741330
Ni      15.84600970      26.42236950      10.55336950       0.60000000      -0.00693354       0.00102432       0.00368629       0.00072778
Ni      14.07800922      24.65631130      14.07800922       0.60000000      -0.00710719      -0.00227273      -0.01364393      -0.00227273
Ni      14.07877231      26.41711541      15.84325440       0.60000000      -0.00716902       0.00700411      -0.00413559      -0.00013868
Ni      15.83750519      24.64489059      15.83750519       0.60000000      -0.00720293      -0.00479817       0.01973581      -0.00479817
Ni      15.84325440      26.41711541      14.07877231       0.60000000      -0.00716902      -0.00013868      -0.00413559       0.00700411
Ni      14.07557483      24.64708202      17.60259228       0.60000000      -0.00683841      -0.01229597       0.01119435      -0.01423517
Ni      14.07678504      26.41122218      19.36401495       0.60000000      -0.00690703      -0.00779396       0.00922632       0.00033593
Ni      15.83363242      24.63972390      19.35794510       0.60000000      -0.00707270       0.00906002       0.03535555       0.01386606
Ni      15.83962556      26.40783515      17.60059016       0.60000000      -0.00674973      -0.00758920       0.02563635       0.00753950
Ni      14.07158563      24.64447060      21.12320451       0.60000000      -0.00703482      -0.00127280       0.01483588      -0.00700908
Ni      14.07357102      26.41062815      22.88391587       0.60000000      -0.00666359       0.00681042       0.01966472       0.01780901
Cr      15.83402899      24.64817600      22.88427518       0.60000000      -0.00685585      -0.00114847      -0.01401990      -0.01029996
Ni      15.83543452      26.40775759      21.12133166       0.60000000      -0.00690203       0.00843931       0.01876853       0.00372776
Cr      14.07158715      24.64842549      24.64842549       0.60000000      -0.00706453       0.01383100       0.00582260       0.00582260
Cr      14.07711814      26.41310437      26.41310437       0.60000000      -0.00640586       0.00052468      -0.00112142      -0.00112142
Cr      15.83491046      24.64687060      26.41316334       0.60000000      -0.00692927       0.01231977       0.00180628      -0.01375466
Cr      15.83491046      26.41316334      24.64687060       0.60000000      -0.00692927       0.01231977      -0.01375466       0.00180628
Ni      14.07768428      24.64891932      28.17847842       0.60000000      -0.00638745       0.00963901      -0.00428419       0.00264594
Ni      14.08554111      26.41324248      29.94564955       0.60000000      -0.00625308      -0.00020217       0.01721456       0.00746719
Ni      15.84188201      24.64745330      29.94543227       0.60000000      -0.00655444       0.00607129       0.01103645       0.00632768
Cr      15.83993481      26.41166325      28.17794337       0.60000000      -0.00642424       0.01325395       0.00254677      -0.00438763
Ni      14.08553789      24.65329904      31.71577082       0.60000000      -0.00635089       0.00423355       0.00456271      -0.00083778
Ni      14.09156678      26.42083315      33.48150583       0.60000000      -0.00602726      -0.00632953      -0.00128887       0.00361028
Ni      15.84957962      24.65668459      33.48446664       0.60000000      -0.00600631       0.00082607      -0.00540337      -0.00088195
Ni      15.84941118      26.41544648      31.71306447       0.60000000      -0.00623715       0.00275540       0.00254568      -0.00125362
Ni      14.08961511      24.65922303      35.25088813       0.60000000      -0.00604724      -0.00229324       0.00441088       0.00211581
Ni      14.09135691      26.42490906      37.01546053       0.60000000      -0.00651342       0.00119889       0.00340455       0.00490364
Ni      15.85303032      24.66255947      37.01947452       0.60000000      -0.00653501      -0.00053469      -0.00108047       0.00108728
Ni      15.85510801      26.42238094      35.24963242       0.60000000      -0.00590341      -0.00631754       0.00687593       0.00550630
Ni      14.08802843      24.66291397      38.78338840       0.60000000      -0.00985535       0.01420171       0.00871369      -0.01724445
Ni      14.09119484      26.42854315      40.54179918       0.60000000      -0.00529024      -0.01939937       0.04013980      -0.18736220
Ni      15.85375984      24.66595088      40.54453224       0.60000000      -0.00488713      -0.01689830       0.03590187      -0.20941384
Ni      15.85439373      26.42920448      38.78317624       0.60000000      -0.00960235       0.00506415      -0.00086555      -0.01589667
Ni      14.08815480      28.20180271      -0.01489691       0.60000000      -0.00642974       0.00263772      -0.01695789       0.15580776
Ni      14.08667474      29.96690868       1.74652909       0.60000000      -0.01001323      -0.00022119       0.00021575      -0.01256613
Ni      15.84877832      28.20421339       1.74421565       0.60000000      -0.01042113       0.00009799      -0.00004691      -0.01328476
Ni      15.85067637      29.96398869      -0.01468370       0.60000000      -0.00648815       0.01190637      -0.00698283       0.15376008
Ni      14.08419778      28.20832350       3.50534003       0.60000000      -0.00748340       0.00886072      -0.03232785       0.01597505
Ni      14.08424763      29.96455620       5.27015687       0.60000000      -0.00748506       0.00038716       0.00011609       0.00183681
Ni      15.84683111      28.20203404       5.26631362       0.60000000      -0.00736217      -0.00015476      -0.00081516       0.00288833
Ni      15.84687943      29.97033731       3.50565872       0.60000000      -0.00753410       0.00814741      -0.02612452       0.02082602
Ni      14.08490556      28.19405496       7.03032206       0.60000000      -0.00708928      -0.00119615       0.00448595       0.00452309
Ni      14.08301038      29.95390328       8.79505895       0.60000000      -0.00691243       0.00780421       0.00456188       0.00821189
Ni      15.84543832      28.19030331       8.79078889       0.60000000      -0.00684748       0.00474498       0.00664828       0.00668528
Ni      15.84526418      29.96079251       7.03103610       0.60000000      -0.00694968       0.00475444      -0.00285987       0.00602969
Ni      14.08457698      28.18602967      10.55673266       0.60000000      -0.00690513       0.00527134       0.00811333       0.00612963
Ni      14.08575769      29.95049204      12.32257740       0.60000000      -0.00680708      -0.00069203       0.00124449       0.00109730
Ni      15.84676721      28.18579000      12.31933143       0.60000000      -0.00680779      -0.00627705      -0.00496018      -0.00538832
Ni      15.84480024      29.95320440      10.55560350       0.60000000      -0.00674341       0.00696656       0.00028266       0.01136762
Ni      14.08408590      28.18417697      14.08408590       0.60000000      -0.00666051      -0.00464824      -0.00029173      -0.00464824
Ni      14.08556495      29.94783378      15.84796623       0.60000000      -0.00666073      -0.01038004       0.01272411      -0.00933404
Ni      15.84505305      28.17857919      15.84505305       0.60000000      -0.00650766      -0.01429320       0.00968463      -0.01429320
Ni      15.84796623      29.94783378      14.08556495       0.60000000      -0.00666073      -0.00933404       0.01272411      -0.01038004
Ni      14.08200101      28.18010102      17.60757228       0.60000000      -0.00665769      -0.01373091       0.00566732      -0.01789366
Ni      14.08160863      29.94694362      19.36615666       0.60000000      -0.00649450      -0.00594608       0.01455257       0.00313177
Ni      15.84013621      28.17655332      19.36374293       0.60000000      -0.00654839       0.00429117       0.01788641      -0.00201804
Ni      15.84529842      29.94616231      17.60666516       0.60000000      -0.00622197      -0.00683965       0.02024388       0.00020359
Ni      14.07834958      28.17775104      21.12525348       0.60000000      -0.00674524      -0.00426256       0.01938380      -0.00298014
Ni      14.08080578      29.94662195      22.88711917       0.60000000      -0.00642213       0.00073127       0.01260979       0.00817599
Ni      15.83802204      28.17777746      22.88394194       0.60000000      -0.00690494       0.00273166      -0.00074273       0.00368446
Ni      15.84045080      29.94777205      21.12498207       0.60000000      -0.00633991       0.00623985       0.00084755       0.00276042
Ni      14.07768428      28.17847842      24.64891932       0.60000000      -0.00638745       0.00963901       0.00264594      -0.00428419
Ni      14.08554111      29.94564955      26.41324248       0.60000000      -0.00625308      -0.00020217       0.00746719       0.01721456
Cr      15.83993481      28.17794337      26.41166325       0.60000000      -0.00642424       0.01325395      -0.00438763       0.00254677
Ni      15.84188201      29.94543227      24.64745330       0.60000000      -0.00655444       0.00607129       0.00632768       0.01103645
Cr      14.08343782      28.17832141      28.17832141       0.60000000      -0.00624095       0.01084894       0.00833918       0.00833918
Ni      14.09276791      29.94466590      29.94466590       0.60000000      -0.00583706      -0.00389074       0.00771099       0.00771099
Ni      15.84880234      28.17875255      29.94367377       0.60000000      -0.00625177       0.00595921      -0.01010239      -0.00152170
Ni      15.84880234      29.94367377      28.17875255       0.60000000      -0.00625177       0.00595921      -0.00152170      -0.01010239
Ni      14.09249793      28.18069926      31.71201104       0.60000000      -0.00603798      -0.00212966       0.00842548       0.00216849
Ni      14.09638670      29.94705189      33.47725489       0.60000000      -0.00591997      -0.01137216       0.00756675       0.00960202
Ni      15.85682223      28.18294604      33.47933478       0.60000000      -0.00584577      -0.01193603       0.00211080       0.00635491
Ni      15.85758751      29.94454065      31.71030268       0.60000000      -0.00577357      -0.01385252       0.00608532       0.00469519
Ni      14.09409709      28.18641835      35.24690670       0.60000000      -0.00602507      -0.00287709       0.00197558       0.00187152
Ni      14.09276854      29.95312239      37.01260088       0.60000000      -0.00632196       0.00877795      -0.00181893      -0.00284387
Ni      15.85575014      28.18992202      37.01524040       0.60000000      -0.00633506       0.00536421       0.00282129       0.00373711
Ni      15.85686963      29.95032404      35.24589042       0.60000000      -0.00588832       0.00130982       0.00555543       0.00427645
Ni      14.09137498      28.19171660      38.77940602       0.60000000      -0.00932427       0.00875367      -0.00374585      -0.01234573
Ni      14.09347778      29.95603172      40.53888851       0.60000000      -0.00575022      -0.02498725       0.03333752      -0.16522128
Ni      15.85654995      28.19389826      40.54179918       0.60000000      -0.00521107      -0.02729049       0.03208151      -0.19024738
Ni      15.85767496      29.95805894      38.77958135       0.60000000      -0.00915616      -0.00447658      -0.01364800      -0.01497277
Ni      14.08857769      31.72640512      -0.01291163       0.60000000      -0.00680766       0.00853305      -0.00907110       0.12818874
Ni      14.08770829      33.49050538       1.74904952       0.60000000      -0.00958527      -0.00015551       0.00072455      -0.01116332
Ni      15.84939531      31.72873845       1.74699594       0.60000000      -0.00995443       0.00024314       0.00064432      -0.01276538
Ni      15.85126674      33.48819066      -0.01239791       0.60000000      -0.00686237       0.01522491      -0.00063287       0.12655036
Ni      14.08541845      31.73197335       3.50838463       0.60000000      -0.00756267       0.00254222      -0.02295630       0.01932905
Ni      14.08466416      33.48969377       5.27409652       0.60000000      -0.00747115       0.00432691       0.00069412       0.00147718
Ni      15.84657348      31.72825182       5.27117182       0.60000000      -0.00745614       0.00160920      -0.00232332       0.00184076
Ni      15.84839784      33.49329621       3.50912754       0.60000000      -0.00754544       0.00315567      -0.01771059       0.02093071
Ni      14.08270421      31.72313151       7.03536189       0.60000000      -0.00700464       0.00620873       0.00180352       0.00225739
Ni      14.08319232      33.48537437       8.80022407       0.60000000      -0.00678303       0.00594230       0.00206339       0.00089862
Ni      15.84384824      31.72145490       8.79577347       0.60000000      -0.00662876       0.01080518      -0.00128510       0.00848439
Ni      15.84589814      33.48722089       7.03663745       0.60000000      -0.00685723       0.00288247       0.00340077       0.00052125
Ni      14.08350580      31.71786486      10.56024822       0.60000000      -0.00670734       0.00942879      -0.00063928       0.00837557
Ni      14.08507084      33.48451353      12.32383024       0.60000000      -0.00678552       0.00496356      -0.00206875       0.00523536
Ni      15.84633900      31.71751732      12.32212057       0.60000000      -0.00671073       0.00254959      -0.00113351       0.00129034
Ni      15.84474960      33.48597252      10.56021899       0.60000000      -0.00667240       0.00783652      -0.00427746       0.00730159
Ni      14.08683130      31.71623231      14.08683130       0.60000000      -0.00674715      -0.00430535       0.00125085      -0.00430535
Ni      14.08560607      33.48484782      15.84740079       0.60000000      -0.00648890      -0.00026976       0.00065460       0.00063125
Ni      15.84878025      31.71565178      15.84878025       0.60000000      -0.00639525      -0.01722336       0.01247806      -0.01722336
Ni      15.84740079      33.48484782      14.08560607       0.60000000      -0.00648890       0.00063125       0.00065460      -0.00026976
Ni      14.08457345      31.71605509      17.60805754       0.60000000      -0.00647678      -0.00943026       0.01046957      -0.00762562
Ni      14.08336565      33.48584590      19.36892039       0.60000000      -0.00627341       0.00214237       0.00667328       0.00426272
Ni      15.84381185      31.71733876      19.36715317       0.60000000      -0.00630887       0.00113685       0.01215390      -0.00063442
Ni      15.84681313      33.48619079      17.60881626       0.60000000      -0.00617413      -0.00335659       0.00896637      -0.00227313
Ni      14.08269577      31.71628863      21.12797340       0.60000000      -0.00628473      -0.00463554       0.01427245       0.00401862
Ni      14.08533328      33.48499832      22.89366927       0.60000000      -0.00607597       0.00100976       0.00426096       0.00070880
Ni      15.84302150      31.71752037      22.88824304       0.60000000      -0.00635887       0.01075404      -0.00181778       0.01094095
Ni      15.84519528      33.48767145      21.13088018       0.60000000      -0.00615866       0.00331763       0.00011055      -0.00078084
Ni      14.08553789      31.71577082      24.65329904       0.60000000      -0.00635089       0.00423355      -0.00083778       0.00456271
Ni      14.09156678      33.48150583      26.42083315       0.60000000      -0.00602726      -0.00632953       0.00361028      -0.00128887
Ni      15.84941118      31.71306447      26.41544648       0.60000000      -0.00623715       0.00275540      -0.00125362       0.00254568
Ni      15.84957962      33.48446664      24.65668459       0.60000000      -0.00600631       0.00082607      -0.00088195      -0.00540337
Ni      14.09249793      31.71201104      28.18069926       0.60000000      -0.00603798      -0.00212966       0.00216849       0.00842548
Ni      14.09638670      33.47725489      29.94705189       0.60000000      -0.00591997      -0.01137216       0.00960202       0.00756675
Ni      15.85758751      31.71030268      29.94454065       0.60000000      -0.00577357      -0.01385252       0.00469519       0.00608532
Ni      15.85682223      33.47933478      28.18294604       0.60000000      -0.00584577      -0.01193603       0.00635491       0.00211080
Ni      14.09731764      31.71031878      31.71031878       0.60000000      -0.00567372      -0.01396849       0.00974707       0.00974707
Ni      14.09374212      33.47800422      33.47800422       0.60000000      -0.00607745       0.00838407      -0.00109849      -0.00109849
Ni      15.85755887      31.71172625      33.47698372       0.60000000      -0.00587805      -0.00100279       0.01060006       0.00998068
Ni      15.85755887      33.47698372      31.71172625       0.60000000      -0.00587805      -0.00100279       0.00998068       0.01060006
Ni      14.09341934      31.71467439      35.24485634       0.60000000      -0.00618635       0.00929582      -0.00156285      -0.00485768
Ni      14.09234380      33.48190429      37.01077234       0.60000000      -0.00644413       0.01194631      -0.00764571      -0.00922229
Ni      15.85582038      31.71852474      37.01260435       0.60000000      -0.00624357       0.01194416      -0.00233786      -0.00386557
Ni      15.85413394      33.48095125      35.24581844       0.60000000      -0.00601479       0.01589015      -0.00627478      -0.00790924
Ni      14.09394544      31.71980506      38.77596228       0.60000000      -0.00893121      -0.00170166      -0.00962809      -0.00624612
Ni      14.09496941      33.48255503      40.53626087       0.60000000      -0.00629491      -0.02561421       0.02528168      -0.13772322
Ni      15.85835722      31.72091070      40.53893643       0.60000000      -0.00577234      -0.03076519       0.02563515      -0.16159633
Ni      15.85912902      33.48495605      38.77619334       0.60000000      -0.00902420      -0.01018741      -0.01378320      -0.01069139
Ni      14.08943857      35.25003490      -0.01082978       0.60000000      -0.00709285       0.01093283      -0.00321370       0.10467884
Ni      14.08903852      37.01329866       1.75146518       0.60000000      -0.00925457      -0.00002248       0.00104714      -0.00892665
Ni      15.85059730      35.25194501       1.74976995       0.60000000      -0.00950368       0.00031320       0.00092185      -0.01084539
Ni      15.85221407      37.01159321      -0.01017177       0.60000000      -0.00713687       0.01502924       0.00284182       0.10253361
Ni      14.08712818      35.25426657       3.51136668       0.60000000      -0.00758857       0.00176912      -0.01400412       0.01924744
Ni      14.08734169      37.01407245       5.27674571       0.60000000      -0.00781682      -0.00013468       0.00324168      -0.00298121
Ni      15.84843346      35.25156001       5.27533055       0.60000000      -0.00749965       0.00045990       0.00373865      -0.00156067
Ni      15.85023291      37.01532714       3.51228585       0.60000000      -0.00771072       0.00167634      -0.01167096       0.01831295
Ni      14.08532999      35.25039509       7.03919469       0.60000000      -0.00704286       0.00017275       0.00510421      -0.00298646
Ni      14.08557639      37.01730362       8.80019789       0.60000000      -0.00747133       0.00303146      -0.00225177      -0.00004479
Ni      15.84594645      35.25165313       8.79982608       0.60000000      -0.00685660       0.00462218      -0.00057132       0.00225254
Ni      15.84840792      37.01537675       7.03828593       0.60000000      -0.00746713       0.00076341       0.00154729      -0.00199878
Ni      14.08438051      35.25240590      10.56240746       0.60000000      -0.00691927       0.00625055      -0.00319872       0.00245728
Ni      14.08516493      37.01998240      12.32357278       0.60000000      -0.00737075       0.00436170      -0.00181673       0.00195398
Ni      15.84627608      35.25320777      12.32302353       0.60000000      -0.00663498       0.00383401      -0.00435418       0.00461083
Ni      15.84664184      37.01909706      10.56094947       0.60000000      -0.00739803       0.00490607      -0.00229088       0.00298283
Ni      14.08552402      35.25289795      14.08552402       0.60000000      -0.00658878       0.00270002      -0.00243244       0.00270002
Ni      14.08509769      37.02131225      15.84702298       0.60000000      -0.00720946       0.00055047      -0.00095105       0.00130303
Ni      15.84726188      35.25397384      15.84726188       0.60000000      -0.00624079       0.00093490       0.00080162       0.00093490
Ni      15.84702298      37.02131225      14.08509769       0.60000000      -0.00720946       0.00130303      -0.00095105       0.00055047
Ni      14.08441095      35.25411730      17.60879620       0.60000000      -0.00628578       0.00335562      -0.00107778       0.00001661
Ni      14.08483988      37.02165636      19.37166652       0.60000000      -0.00697016       0.00336289      -0.00052240       0.00190251
Ni      15.84677859      35.25549284      19.37131653       0.60000000      -0.00610668       0.00138745       0.00134420      -0.00055386
Ni      15.84715862      37.02245543      17.60942323       0.60000000      -0.00700562       0.00319192       0.00198410       0.00177925
Ni      14.08486291      35.25410551      21.13350066       0.60000000      -0.00615328       0.00361297       0.00000062      -0.00129511
Ni      14.08780981      37.01974653      22.89821821       0.60000000      -0.00668896      -0.00226732       0.00037424      -0.00126954
Ni      15.84953680      35.25429436      22.89633039       0.60000000      -0.00603123       0.00026495      -0.00115527       0.00435593
Ni      15.84955747      37.02198831      21.13552116       0.60000000      -0.00678198      -0.00541208       0.00343284      -0.00296156
Ni      14.08961511      35.25088813      24.65922303       0.60000000      -0.00604724      -0.00229324       0.00211581       0.00441088
Ni      14.09135691      37.01546053      26.42490906       0.60000000      -0.00651342       0.00119889       0.00490364       0.00340455
Ni      15.85510801      35.24963242      26.42238094       0.60000000      -0.00590341      -0.00631754       0.00550630       0.00687593
Ni      15.85303032      37.01947452      24.66255947       0.60000000      -0.00653501      -0.00053469       0.00108728      -0.00108047
Ni      14.09409709      35.24690670      28.18641835       0.60000000      -0.00602507      -0.00287709       0.00187152       0.00197558
Ni      14.09276854      37.01260088      29.95312239       0.60000000      -0.00632196       0.00877795      -0.00284387      -0.00181893
Ni      15.85686963      35.24589042      29.95032404       0.60000000      -0.00588832       0.00130982       0.00427645       0.00555543
Ni      15.85575014      37.01524040      28.18992202       0.60000000      -0.00633506       0.00536421       0.00373711       0.00282129
Ni      14.09341934      35.24485634      31.71467439       0.60000000      -0.00618635       0.00929582      -0.00485768      -0.00156285
Ni      14.09234380      37.01077234      33.48190429       0.60000000      -0.00644413       0.01194631      -0.00922229      -0.00764571
Ni      15.85413394      35.24581844      33.48095125       0.60000000      -0.00601479       0.01589015      -0.00790924      -0.00627478
Ni      15.85582038      37.01260435      31.71852474       0.60000000      -0.00624357       0.01194416      -0.00386557      -0.00233786
Ni      14.09170555      35.24511909      35.24511909       0.60000000      -0.00633219       0.01244226      -0.00669936      -0.00669936
Ni      14.09410653      37.00889403      37.00889403       0.60000000      -0.00686862       0.00359329      -0.00297842      -0.00297842
Ni      15.85652949      35.24687820      37.01099261       0.60000000      -0.00652297       0.00725187      -0.00766578      -0.00851773
Ni      15.85652949      37.01099261      35.24687820       0.60000000      -0.00652297       0.00725187      -0.00851773      -0.00766578
Ni      14.09526283      35.24616966      38.77319650       0.60000000      -0.00884021      -0.00676251      -0.00698142      -0.00189656
Ni      14.09568776      37.00788098      40.53405715       0.60000000      -0.00675417      -0.02267565       0.01853595      -0.11080704
Ni      15.85905166      35.24652783      40.53625274       0.60000000      -0.00640204      -0.02828171       0.01936213      -0.13120768
Ni      15.85933568      37.01000857      38.77329378       0.60000000      -0.00901151      -0.00660887      -0.00717307      -0.00314344
Ni      14.09047378      38.77316514      -0.00887142       0.60000000      -0.00884077       0.01110688       0.00554078       0.08497955
Ni      14.09037676      40.53586280       1.75359349       0.60000000      -0.00873913       0.01383558      -0.09346838      -0.00963789
Ni      15.85196869      38.77460590       1.75226419       0.60000000      -0.01108403       0.00041109       0.00690797      -0.00751230
Ni      15.85324700      40.53465034      -0.00818910       0.60000000      -0.00680918       0.02910370      -0.08923311       0.08584239
Ni      14.08889850      38.77619828       3.51402506       0.60000000      -0.00967246      -0.00019321      -0.00109708       0.00688122
Ni      14.08903852      40.53865773       5.27682426       0.60000000      -0.00674642       0.01559924      -0.11686051      -0.00448155
Ni      15.85023291      38.77817234       5.27513105       0.60000000      -0.00983630       0.00184395      -0.01210959       0.00966362
Ni      15.85196869      40.53728137       3.51493967       0.60000000      -0.00705308       0.01811261      -0.10821745      -0.00600711
Ni      14.08712818      38.77993609       7.03703620       0.60000000      -0.00985698       0.00315356      -0.01342623       0.00872006
Ni      14.08770829      40.54175103       8.80029517       0.60000000      -0.00628403       0.01599870      -0.14348092      -0.00175698
Ni      15.84839784      38.78240545       8.79823678       0.60000000      -0.01011145       0.00398787      -0.01815648       0.00956320
Ni      15.85059730      40.54042847       7.03825341       0.60000000      -0.00639247       0.02087420      -0.13460536      -0.00530029
Ni      14.08541845      38.78393592      10.56034720       0.60000000      -0.01024396       0.00678426      -0.01857587       0.01098042
Ni      14.08667474      40.54457858      12.32419899       0.60000000      -0.00572325       0.01356146      -0.16902039       0.00540864
Ni      15.84687943      38.78652071      12.32184211       0.60000000      -0.01048430       0.00832461      -0.02826808       0.01229055
Ni      15.84939531      40.54370073      10.56195822       0.60000000      -0.00583657       0.02135647      -0.16332950      -0.00145102
Ni      14.08419778      38.78718125      14.08419778       0.60000000      -0.01051805       0.01210376      -0.02928109       0.01210376
Ni      14.08631656      40.54631430      15.84877832       0.60000000      -0.00519354       0.00769158      -0.18878146       0.01774454
Ni      15.84630471      38.78914133      15.84630471       0.60000000      -0.01064813       0.01360859      -0.03534071       0.01360859
Ni      15.84877832      40.54631430      14.08631656       0.60000000      -0.00519354       0.01774454      -0.18878146       0.00769158
Ni      14.08399865      38.78839367      17.60894350       0.60000000      -0.01059519       0.01327867      -0.03360760       0.01138353
Ni      14.08697853      40.54629902      19.37431960       0.60000000      -0.00495940      -0.00083031      -0.19945340       0.03165368
Ni      15.84735389      38.78913493      19.37216914       0.60000000      -0.01065844       0.01542297      -0.03459643       0.01368795
Ni      15.84921631      40.54740484      17.61164896       0.60000000      -0.00475711       0.00920341      -0.20676478       0.02090101
Ni      14.08527426      38.78690624      21.13508490       0.60000000      -0.01040525       0.01489029      -0.02868154       0.01211304
Ni      14.08874547      40.54455037      22.90100319       0.60000000      -0.00504257      -0.01043894      -0.19926830       0.04050592
Ni      15.85032365      38.78669546      22.89994853       0.60000000      -0.01021572       0.01327431      -0.02195626       0.01006889
Ni      15.85097976      40.54665203      21.13823684       0.60000000      -0.00468599      -0.00321126      -0.21443234       0.03233015
Ni      14.08802843      38.78338840      24.66291397       0.60000000      -0.00985535       0.01420171      -0.01724445       0.00871369
Ni      14.09119484      40.54179918      26.42854315       0.60000000      -0.00529024      -0.01939937      -0.18736220       0.04013980
Ni      15.85439373      38.78317624      26.42920448       0.60000000      -0.00960235       0.00506415      -0.01589667      -0.00086555
Ni      15.85375984      40.54453224      24.66595088       0.60000000      -0.00488713      -0.01689830      -0.20941384       0.03590187
Ni      14.09137498      38.77940602      28.19171660       0.60000000      -0.00932427       0.00875367      -0.01234573      -0.00374585
Ni      14.09347778      40.53888851      29.95603172       0.60000000      -0.00575022      -0.02498725      -0.16522128       0.03333752
Ni      15.85767496      38.77958135      29.95805894       0.60000000      -0.00915616      -0.00447658      -0.01497277      -0.01364800
Ni      15.85654995      40.54179918      28.19389826       0.60000000      -0.00521107      -0.02729049      -0.19024738       0.03208151
Ni      14.09394544      38.77596228      31.71980506       0.60000000      -0.00893121      -0.00170166      -0.00624612      -0.00962809
Ni      14.09496941      40.53626087      33.48255503       0.60000000      -0.00629491      -0.02561421      -0.13772322       0.02528168
Ni      15.85912902      38.77619334      33.48495605       0.60000000      -0.00902420      -0.01018741      -0.01069139      -0.01378320
Ni      15.85835722      40.53893643      31.72091070       0.60000000      -0.00577234      -0.03076519      -0.16159633       0.02563515
Ni      14.09526283      38.77319650      35.24616966       0.60000000      -0.00884021      -0.00676251      -0.00189656      -0.00698142
Ni      14.09568776      40.53405715      37.00788098       0.60000000      -0.00675417      -0.02267565      -0.11080704       0.01853595
Ni      15.85933568      38.77329378      37.01000857       0.60000000      -0.00901151      -0.00660887      -0.00314344      -0.00717307
Ni      15.85905166      40.53625274      35.24652783       0.60000000      -0.00640204      -0.02828171      -0.13120768       0.01936213
Ni      14.09576122      38.77104860      38.77104860       0.60000000      -0.01054062      -0.00151324       0.00152404       0.00152404
Ni      14.09594983      40.53229685      40.53229685       0.60000000      -0.00671009      -0.03717626      -0.08062845      -0.08062845
Ni      15.85909544      38.77103522      40.53397680       0.60000000      -0.00854719      -0.02332933       0.01968418      -0.10414229
Ni      15.85909544      40.53397680      38.77103522       0.60000000      -0.00854719      -0.02332933      -0.10414229       0.01968418
Ni      17.62164997      -0.00706408      -0.00706408       0.60000000      -0.00667123      -0.03669040       0.08726911       0.08726911
Ni      17.62212174       1.75361119       1.75361119       0.60000000      -0.01110123      -0.00073782      -0.00591154      -0.00591154
Ni      19.38478712      -0.00822346       1.75445664       0.60000000      -0.00875178      -0.02087108       0.10307917      -0.01906652
Ni      19.38478712       1.75445664      -0.00822346       0.60000000      -0.00875178      -0.02087108      -0.01906652       0.10307917
Ni      17.62202752      -0.00907074       3.51651634       0.60000000      -0.00694972      -0.02304086       0.11883913      -0.01592057
Ni      17.62264563       1.75097144       5.27708561       0.60000000      -0.00959611      -0.00094274      -0.00781595       0.00004745
Ni      19.38540773      -0.01048748       5.27811090       0.60000000      -0.00678579      -0.02623728       0.13328136      -0.01705183
Ni      19.38569479       1.75210147       3.51499004       0.60000000      -0.00949824      -0.00075705      -0.00680093      -0.00004018
Ni      17.62222259      -0.01152197       7.04052495       0.60000000      -0.00656696      -0.02835500       0.15225764      -0.01998148
Ni      17.62282448       1.74771700       8.80121859       0.60000000      -0.01009270      -0.00120319      -0.00882626      -0.00035196
Ni      19.38573256      -0.01313866       8.80229616       0.60000000      -0.00634803      -0.03109921       0.16826523      -0.02039581
Ni      19.38657161       1.74911682       7.03857804       0.60000000      -0.00984550      -0.00110031      -0.00867184      -0.00013366
Ni      17.62188796      -0.01425829      10.56531601       0.60000000      -0.00607938      -0.03208849       0.18822647      -0.02365968
Ni      17.62201042       1.74416477      12.32659275       0.60000000      -0.01079657      -0.00147772      -0.00817402      -0.00113369
Ni      19.38527496      -0.01591416      12.32736784       0.60000000      -0.00583991      -0.03268908       0.20265824      -0.02199263
Ni      19.38685803       1.74563153      10.56297688       0.60000000      -0.01047257      -0.00136983      -0.00918945      -0.00061244
Ni      17.62063664      -0.01685961      14.09125981       0.60000000      -0.00560147      -0.03148934       0.21877353      -0.02549893
Ni      17.61967122       1.74108986      15.85375984       0.60000000      -0.01116048      -0.00165148      -0.00764848      -0.00166750
Ni      19.38363597      -0.01829721      15.85362785       0.60000000      -0.00541789      -0.02782010       0.22746155      -0.02046694
Ni      19.38567283       1.74212565      14.08874547       0.60000000      -0.01099167      -0.00150106      -0.00885524      -0.00131198
Ni      17.61846381      -0.01869139      17.61846381       0.60000000      -0.00531993      -0.02433164       0.23384743      -0.02433164
Ni      17.61629676       1.73948966      19.38263261       0.60000000      -0.01131592      -0.00158613      -0.00779460      -0.00157134
Ni      19.38104035      -0.01964331      19.38104035       0.60000000      -0.00524615      -0.01534876       0.23527543      -0.01534876
Ni      19.38263261       1.73948966      17.61629676       0.60000000      -0.01131592      -0.00157134      -0.00779460      -0.00158613
Ni      17.61600968      -0.01921861      21.14643700       0.60000000      -0.00534945      -0.01125180       0.22867986      -0.01970031
Ni      17.61327943       1.73986866      22.91198122       0.60000000      -0.01109143      -0.00082690      -0.01024726      -0.00098168
Ni      19.37839408      -0.01953562      22.90896806       0.60000000      -0.00536968       0.00171973       0.22614548      -0.00720261
Ni      19.37874420       1.73865106      21.14530828       0.60000000      -0.01125689      -0.00118684      -0.00843746      -0.00117741
Ni      17.61412883      -0.01835582      24.67415454       0.60000000      -0.00565706       0.00368347       0.20814162      -0.01199713
Ni      17.61164896       1.74188696      26.44007549       0.60000000      -0.01079777       0.00013002      -0.01262000      -0.00029921
Ni      19.37659868      -0.01806659      26.43636475       0.60000000      -0.00571904       0.01718614       0.20564305       0.00212974
Ni      19.37567859       1.73986866      24.67438038       0.60000000      -0.01106470      -0.00023106      -0.01072200      -0.00050459
Ni      17.61327672      -0.01646409      28.20068115       0.60000000      -0.00610609       0.01520862       0.18078506      -0.00318149
Ni      17.61149759       1.74478405      29.96599561       0.60000000      -0.01030947       0.00065174      -0.01371351       0.00046085
Ni      19.37596535      -0.01573116      29.96245072       0.60000000      -0.00617695       0.02566236       0.17842646       0.00945928
Ni      19.37431960       1.74256401      28.20188451       0.60000000      -0.01063960       0.00076720      -0.01325418       0.00024061
Ni      17.61338426      -0.01406388      31.72573725       0.60000000      -0.00655361       0.02041648       0.15177782       0.00361824
Ni      17.61234968       1.74788533      33.49004278       0.60000000      -0.00984538       0.00077125      -0.01241056       0.00090494
Ni      19.37625886      -0.01309500      33.48716144       0.60000000      -0.00662496       0.02662409       0.14802152       0.01257413
Ni      19.37447680       1.74586687      31.72724128       0.60000000      -0.01018905       0.00123433      -0.01333189       0.00082016
Ni      17.61410568      -0.01159394      35.24965745       0.60000000      -0.00691796       0.02034218       0.12373724       0.00682538
Ni      17.61364298       1.75076510      37.01306642       0.60000000      -0.00945321       0.00072665      -0.00984489       0.00112862
Ni      19.37705048      -0.01057167      37.01093025       0.60000000      -0.00698250       0.02331005       0.11861351       0.01229314
Ni      19.37549479       1.74911248      35.25101357       0.60000000      -0.00969016       0.00121846      -0.01145591       0.00097568
Ni      17.61507861      -0.00933256      38.77295995       0.60000000      -0.00879325       0.01783719       0.09881539       0.01290805
Ni      17.61497042       1.75321446      40.53575425       0.60000000      -0.00885939       0.01935326      -0.01182700      -0.09764921
Ni      19.37798167      -0.00838068      40.53423496       0.60000000      -0.00671020       0.03870905       0.09575904      -0.08417008
Ni      19.37677960       1.75194395      38.77403634       0.60000000      -0.01124625       0.00105214      -0.00792394       0.00692203
Ni      17.62202752       3.51651634      -0.00907074       0.60000000      -0.00694972      -0.02304086      -0.01592057       0.11883913
Ni      17.62264563       5.27708561       1.75097144       0.60000000      -0.00959611      -0.00094274       0.00004745      -0.00781595
Ni      19.38569479       3.51499004       1.75210147       0.60000000      -0.00949824      -0.00075705      -0.00004018      -0.00680093
Ni      19.38540773       5.27811090      -0.01048748       0.60000000      -0.00678579      -0.02623728      -0.01705183       0.13328136
Ni      17.62280217       3.51386146       3.51386146       0.60000000      -0.00746386      -0.00065151       0.00553199       0.00553199
Ni      17.62234417       5.27526992       5.27526992       0.60000000      -0.00740057       0.00132252      -0.00121756      -0.00121756
Ni      19.38706734       3.51185449       5.27504411       0.60000000      -0.00733282      -0.00898968       0.00885973       0.00788435
Ni      19.38706734       5.27504411       3.51185449       0.60000000      -0.00733282      -0.00898968       0.00788435       0.00885973
Ni      17.62355627       3.51028344       7.03718674       0.60000000      -0.00712747      -0.00876647       0.01038338       0.00962056
Ni      17.62183100       5.27118672       8.80043296       0.60000000      -0.00737614      -0.00264498      -0.00555720      -0.00716391
Ni      19.38834311       3.50781775       8.79855246       0.60000000      -0.00710101      -0.01749119       0.00679924       0.00779055
Ni      19.38462021       5.27303542       7.03739218       0.60000000      -0.00735919       0.00395404      -0.00252433      -0.00372122
Ni      17.62359987       3.50583938      10.56157284       0.60000000      -0.00698354      -0.01489231       0.00286356       0.00294539
Ni      17.61864348       5.26296937      12.32246480       0.60000000      -0.00714076       0.00082571       0.00449328       0.00300191
Ni      19.38833808       3.50314019      12.32333758       0.60000000      -0.00713980      -0.02170496       0.00426500       0.00524107
Ni      19.38465567       5.26694953      10.56093828       0.60000000      -0.00726362      -0.00107740      -0.00122444      -0.00247631
Ni      17.62166759       3.50119317      14.08802843       0.60000000      -0.00715414      -0.01792629       0.00597501      -0.00103124
Ni      17.61476902       5.25812682      15.84864991       0.60000000      -0.00725601      -0.00075474      -0.00053725       0.00009300
Ni      19.38547926       3.49873233      15.85032365       0.60000000      -0.00694073      -0.02361633       0.00552196      -0.00258887
Ni      19.38218877       5.26055408      14.08461782       0.60000000      -0.00730540      -0.00313510      -0.00019468       0.00128072
Ni      17.61736239       3.49782954      17.61736239       0.60000000      -0.00683053      -0.01355737       0.00502395      -0.01355737
Ni      17.61109142       5.25508346      19.37732433       0.60000000      -0.00703161       0.00448894       0.00700021       0.00478317
Ni      19.38007210       3.49617717      19.38007210       0.60000000      -0.00703298      -0.00855668       0.01362301      -0.00855668
Ni      19.37732433       5.25508346      17.61109142       0.60000000      -0.00703161       0.00478317       0.00700021       0.00448894
Ni      17.61260411       3.49716161      21.14876253       0.60000000      -0.00708004       0.00270415       0.01257503      -0.02330134
Ni      17.60968048       5.25812672      22.90756540       0.60000000      -0.00709685       0.00121188      -0.00213775       0.00114690
Ni      19.37489443       3.49662304      22.91140104       0.60000000      -0.00695015       0.00428496       0.01501651      -0.02264016
Ni      19.37482771       5.25530802      21.14127970       0.60000000      -0.00706408      -0.00228110      -0.00113281      -0.00347763
Ni      17.60962096       3.49915270      24.67944780       0.60000000      -0.00713275       0.01162190       0.01313843      -0.03298144
Ni      17.60952488       5.26188930      26.43767244       0.60000000      -0.00717553       0.00016663       0.00573388      -0.00057265
Ni      19.37216914       3.49962409      26.44140513       0.60000000      -0.00717352       0.01428619       0.02114200      -0.02541142
Ni      19.37222674       5.25805215      24.67061799       0.60000000      -0.00709183       0.00413941       0.00699055       0.00394531
Ni      17.60894350       3.50265847      28.20705349       0.60000000      -0.00735786       0.01295962       0.02025126      -0.02703752
Ni      17.60953084       5.26808768      29.96558373       0.60000000      -0.00740777      -0.00069424       0.00125851      -0.00286383
Ni      19.37196670       3.50379840      29.96811478       0.60000000      -0.00730154       0.01300458       0.02375707      -0.02244409
Ni      19.37237098       5.26439072      28.20113772       0.60000000      -0.00718189      -0.00075250       0.00037963      -0.00465102
Ni      17.60990939       3.50658445      31.73146869       0.60000000      -0.00749775       0.00847645       0.02320186      -0.02119221
Ni      17.61050380       5.27280911      33.48974842       0.60000000      -0.00736152       0.00020914       0.00030068       0.00117001
Ni      19.37326519       3.50802787      33.49199435       0.60000000      -0.00743218       0.00941116       0.02362137      -0.01669260
Ni      19.37362567       5.26989781      31.72712175       0.60000000      -0.00732061      -0.00218148       0.00219279      -0.00126857
Ni      17.61164051       3.51028488      35.25406254       0.60000000      -0.00752740       0.00430113       0.02202329      -0.01437787
Ni      17.61181443       5.27605722      37.01387142       0.60000000      -0.00775243       0.00103954      -0.00236449       0.00322663
Ni      19.37507021       3.51174259      37.01455198       0.60000000      -0.00762717       0.00343205       0.01987824      -0.01165378
Ni      19.37420470       5.27469330      35.25087545       0.60000000      -0.00731620       0.00050260      -0.00254241       0.00323614
Ni      17.61347928       3.51344469      38.77611653       0.60000000      -0.00969364       0.00065374       0.00755951      -0.00143567
Ni      17.61364298       5.27640737      40.53870870       0.60000000      -0.00661398       0.02373689      -0.00710433      -0.12313599
Ni      19.37677960       3.51473544      40.53682783       0.60000000      -0.00698549       0.02451159      -0.00759396      -0.11068631
Ni      19.37507021       5.27476922      38.77757861       0.60000000      -0.00979455       0.00308642       0.01021807      -0.01320097
Ni      17.62222259       7.04052495      -0.01152197       0.60000000      -0.00656696      -0.02835500      -0.01998148       0.15225764
Ni      17.62282448       8.80121859       1.74771700       0.60000000      -0.01009270      -0.00120319      -0.00035196      -0.00882626
Ni      19.38657161       7.03857804       1.74911682       0.60000000      -0.00984550      -0.00110031      -0.00013366      -0.00867184
Ni      19.38573256       8.80229616      -0.01313866       0.60000000      -0.00634803      -0.03109921      -0.02039581       0.16826523
Ni      17.62355627       7.03718674       3.51028344       0.60000000      -0.00712747      -0.00876647       0.00962056       0.01038338
Ni      17.62183100       8.80043296       5.27118672       0.60000000      -0.00737614      -0.00264498      -0.00716391      -0.00555720
Ni      19.38462021       7.03739218       5.27303542       0.60000000      -0.00735919       0.00395404      -0.00372122      -0.00252433
Ni      19.38834311       8.79855246       3.50781775       0.60000000      -0.00710101      -0.01749119       0.00779055       0.00679924
Ni      17.62172488       7.03772445       7.03772445       0.60000000      -0.00733497      -0.00439885      -0.00883605      -0.00883605
Ni      17.61826192       8.79835702       8.79835702       0.60000000      -0.00726649      -0.00600780      -0.01210351      -0.01210351
Ni      19.38250202       7.03447292       8.79983790       0.60000000      -0.00739567      -0.00178809      -0.00826542      -0.00958360
Ni      19.38250202       8.79983790       7.03447292       0.60000000      -0.00739567      -0.00178809      -0.00958360      -0.00826542
Ni      17.61783905       7.03088033      10.56138216       0.60000000      -0.00729412      -0.00230833      -0.00936700      -0.00693482
Ni      17.61062061       8.78745379      12.31971419       0.60000000      -0.00731715       0.00643483       0.00324653       0.00143505
Ni      19.37873532       7.02490140      12.32136126       0.60000000      -0.00730010       0.00214457       0.00242887       0.00162202
Ni      19.37704956       8.79375017      10.55956883       0.60000000      -0.00722522       0.00301725      -0.00711295      -0.00522254
Ni      17.61125572       7.01935839      14.08193051       0.60000000      -0.00739335       0.00795247       0.01242756       0.00691097
Ni      17.60547324       8.77784118      15.84161328       0.60000000      -0.00742623       0.00408254       0.01164764       0.00284358
Ni      19.37418198       7.01820859      15.84501891       0.60000000      -0.00708524       0.00315293      -0.00280015       0.00031457
Ni      19.37165828       8.78193556      14.08099785       0.60000000      -0.00737630       0.00413051       0.01126202       0.00091045
Ni      17.60861630       7.01658368      17.60861630       0.60000000      -0.00705656       0.00083629      -0.00467574       0.00083629
Ni      17.60413684       8.77689363      19.36750664       0.60000000      -0.00695166       0.00554672       0.00842179       0.00839628
Ni      19.37099211       7.01356864      19.37099211       0.60000000      -0.00706672       0.00692269       0.01402738       0.00692269
Ni      19.36750664       8.77689363      17.60413684       0.60000000      -0.00695166       0.00839628       0.00842179       0.00554672
Ni      17.60756980       7.01583530      21.13653606       0.60000000      -0.00705185       0.00489301       0.01061180       0.00735198
Ni      17.60637029       8.78043194      22.89640896       0.60000000      -0.00698888       0.00028492       0.00623815       0.00328186
Ni      19.37103318       7.01698299      22.90052986       0.60000000      -0.00670229      -0.00068369       0.00367093       0.00111703
Ni      19.36693076       8.77656306      21.13033789       0.60000000      -0.00697967       0.00229589       0.00677975       0.00388368
Ni      17.60829073       7.02098099      24.66641512       0.60000000      -0.00678879       0.00175248       0.00397520       0.00249605
Ni      17.60692524       8.78634250      26.42560296       0.60000000      -0.00676064       0.00529904       0.00791988       0.00628121
Ni      19.37041513       7.02252249      26.43069134       0.60000000      -0.00675568       0.00468094       0.00747898       0.00001708
Ni      19.36826875       8.78163107      24.65999749       0.60000000      -0.00670492       0.00420171       0.00914859       0.00608985
Ni      17.60809177       7.02717630      28.19640407       0.60000000      -0.00685985       0.00373455       0.00324544       0.00063644
Ni      17.60678174       8.79163186      29.95731728       0.60000000      -0.00665824       0.00649132       0.01029375      -0.00145393
Ni      19.37199182       7.02995642      29.96067066       0.60000000      -0.00669570       0.00063876       0.00276488      -0.00186783
Ni      19.36893096       8.78868294      28.19110410       0.60000000      -0.00662671       0.00393693       0.00503415       0.00146924
Ni      17.60878134       7.03306613      31.72505126       0.60000000      -0.00674613       0.00272986       0.00518356      -0.00289645
Ni      17.60797271       8.79773448      33.48684319       0.60000000      -0.00659834       0.00463064       0.00512836      -0.00208194
Ni      19.37362354       7.03546479      33.48726297       0.60000000      -0.00666655      -0.00092498       0.00379249       0.00049183
Ni      19.37130585       8.79478949      31.72231751       0.60000000      -0.00648718       0.00139254       0.00791616      -0.00378604
Ni      17.61003525       7.03803584      35.25046820       0.60000000      -0.00685906       0.00161219      -0.00235401       0.00446698
Ni      17.60976674       8.79892423      37.01721378       0.60000000      -0.00737223       0.00285429       0.00348509      -0.00167663
Ni      19.37373308       7.03776579      37.01458251       0.60000000      -0.00731550       0.00212250      -0.00049986       0.00210826
Ni      19.37260297       8.79913915      35.25149464       0.60000000      -0.00664296       0.00085828       0.00195034      -0.00218070
Ni      17.61164051       7.03638432      38.78016197       0.60000000      -0.00990459       0.00355801       0.00922183      -0.01653370
Ni      17.61234968       8.79993553      40.54209299       0.60000000      -0.00603035       0.02720655      -0.00601165      -0.15273228
Ni      19.37549479       7.03811451      40.54001561       0.60000000      -0.00626659       0.03025710      -0.00820346      -0.13867384
Ni      19.37326519       8.79796256      38.78192903       0.60000000      -0.01006815       0.00611390       0.00966845      -0.02022913
Ni      17.62188796      10.56531601      -0.01425829       0.60000000      -0.00607938      -0.03208849      -0.02365968       0.18822647
Ni      17.62201042      12.32659275       1.74416477       0.60000000      -0.01079657      -0.00147772      -0.00113369      -0.00817402
Ni      19.38685803      10.56297688       1.74563153       0.60000000      -0.01047257      -0.00136983      -0.00061244      -0.00918945
Ni      19.38527496      12.32736784      -0.01591416       0.60000000      -0.00583991      -0.03268908      -0.02199263       0.20265824
Ni      17.62359987      10.56157284       3.50583938       0.60000000      -0.00698354      -0.01489231       0.00294539       0.00286356
Ni      17.61864348      12.32246480       5.26296937       0.60000000      -0.00714076       0.00082571       0.00300191       0.00449328
Ni      19.38465567      10.56093828       5.26694953       0.60000000      -0.00726362      -0.00107740      -0.00247631      -0.00122444
Ni      19.38833808      12.32333758       3.50314019       0.60000000      -0.00713980      -0.02170496       0.00524107       0.00426500
Ni      17.61783905      10.56138216       7.03088033       0.60000000      -0.00729412      -0.00230833      -0.00693482      -0.00936700
Ni      17.61062061      12.31971419       8.78745379       0.60000000      -0.00731715       0.00643483       0.00143505       0.00324653
Ni      19.37704956      10.55956883       8.79375017       0.60000000      -0.00722522       0.00301725      -0.00522254      -0.00711295
Ni      19.37873532      12.32136126       7.02490140       0.60000000      -0.00730010       0.00214457       0.00162202       0.00242887
Ni      17.61052492      10.55578612      10.55578612       0.60000000      -0.00727404       0.00718121      -0.00158384      -0.00158384
Ni      17.60379592      12.31233272      12.31233272       0.60000000      -0.00718359       0.00836611       0.00528682       0.00528682
Ni      19.37011885      10.55050126      12.31746515       0.60000000      -0.00723702       0.00724770       0.00572407       0.00130176
Ni      19.37011885      12.31746515      10.55050126       0.60000000      -0.00723702       0.00724770       0.00130176       0.00572407
Ni      17.60454448      10.54377607      14.07774821       0.60000000      -0.00735652       0.00370606       0.01785690       0.00251240
Ni      17.59849557      12.30336909      15.83534211       0.60000000      -0.00730175       0.00045259       0.01224186       0.00069269
Ni      19.36602043      10.54179103      15.83982917       0.60000000      -0.00731879       0.00091255       0.00638264       0.00055801
Ni      19.36517408      12.30800854      14.07485366       0.60000000      -0.00713822      -0.00149154       0.00881299       0.00145927
Ni      17.60010344      10.53962130      17.60010344       0.60000000      -0.00714891       0.00640892       0.00197700       0.00640892
Ni      17.59716901      12.30375473      19.35901634       0.60000000      -0.00716969       0.01245434       0.00372452       0.01399506
Ni      19.36222034      10.53854932      19.36222034       0.60000000      -0.00709398       0.01094775       0.01921661       0.01094775
Ni      19.35901634      12.30375473      17.59716901       0.60000000      -0.00716969       0.01399506       0.00372452       0.01245434
Ni      17.60234275      10.54155965      21.12771352       0.60000000      -0.00720518       0.00600986       0.01296262       0.00354152
Ni      17.60230330      12.30930423      22.88869986       0.60000000      -0.00702672      -0.00461223      -0.00981204      -0.00842056
Ni      19.36484087      10.54263807      22.89010138       0.60000000      -0.00692690       0.00127830       0.00278844       0.00448204
Ni      19.36131479      12.30525959      21.12205091       0.60000000      -0.00706218      -0.00510864      -0.00810817       0.00086968
Ni      17.60616604      10.54789380      24.65695119       0.60000000      -0.00689622      -0.00216230      -0.00037161       0.00095299
Ni      17.60644589      12.31534015      26.41858847       0.60000000      -0.00685125      -0.00466131      -0.00546441      -0.00094015
Ni      19.36698552      10.54901135      26.42121662       0.60000000      -0.00673166       0.00289345       0.00160198       0.00169405
Ni      19.36492457      12.30983213      24.65079245       0.60000000      -0.00706016      -0.00187936       0.00004247       0.00433135
Ni      17.60625646      10.55252402      28.18765721       0.60000000      -0.00669053       0.00485683       0.00366500       0.00131001
Ni      17.60657289      12.31894351      29.95040534       0.60000000      -0.00671362       0.00229216       0.00022772       0.00610911
Ni      19.36773152      10.55443113      29.95358995       0.60000000      -0.00653117       0.00514358       0.00491026       0.00137036
Ni      19.36680676      12.31584617      28.18328731       0.60000000      -0.00676824      -0.00244377      -0.00080812       0.00203023
Ni      17.60656240      10.55691215      31.72038300       0.60000000      -0.00656428       0.00522901       0.00969525      -0.00551011
Ni      17.60744436      12.32157273      33.48583470       0.60000000      -0.00650106       0.00275339       0.00408980      -0.00185610
Ni      19.37054482      10.55924753      33.48668916       0.60000000      -0.00649993       0.00257752       0.00713286      -0.00574399
Ni      19.36777385      12.32038214      31.71770785       0.60000000      -0.00651381       0.00192241      -0.00212750       0.00492651
Ni      17.60795777      10.56034492      35.25301775       0.60000000      -0.00668778       0.00558636       0.00561174      -0.00535587
Ni      17.60872428      12.32232722      37.02066796       0.60000000      -0.00721299       0.00368940       0.00428766      -0.00340240
Ni      19.37193054      10.56039108      37.01879043       0.60000000      -0.00720665       0.00305201       0.00411724      -0.00358956
Ni      19.37088599      12.32202206      35.25372001       0.60000000      -0.00641640       0.00077936       0.00408349      -0.00424143
Ni      17.60990939      10.55977357      38.78465781       0.60000000      -0.01032829       0.00569896       0.01011295      -0.02469025
Ni      17.61149759      12.32408714      40.54529871       0.60000000      -0.00536898       0.02712058      -0.00087222      -0.18227623
Ni      19.37447680      10.56206345      40.54343786       0.60000000      -0.00565103       0.03382537      -0.00659711      -0.17004620
Ni      19.37196670      12.32195859      38.78627497       0.60000000      -0.01041621       0.00962448       0.01202827      -0.02870601
Ni      17.62063664      14.09125981      -0.01685961       0.60000000      -0.00560147      -0.03148934      -0.02549893       0.21877353
Ni      17.61967122      15.85375984       1.74108986       0.60000000      -0.01116048      -0.00165148      -0.00166750      -0.00764848
Ni      19.38567283      14.08874547       1.74212565       0.60000000      -0.01099167      -0.00150106      -0.00131198      -0.00885524
Ni      19.38363597      15.85362785      -0.01829721       0.60000000      -0.00541789      -0.02782010      -0.02046694       0.22746155
Ni      17.62166759      14.08802843       3.50119317       0.60000000      -0.00715414      -0.01792629      -0.00103124       0.00597501
Ni      17.61476902      15.84864991       5.25812682       0.60000000      -0.00725601      -0.00075474       0.00009300      -0.00053725
Ni      19.38218877      14.08461782       5.26055408       0.60000000      -0.00730540      -0.00313510       0.00128072      -0.00019468
Ni      19.38547926      15.85032365       3.49873233       0.60000000      -0.00694073      -0.02361633      -0.00258887       0.00552196
Ni      17.61125572      14.08193051       7.01935839       0.60000000      -0.00739335       0.00795247       0.00691097       0.01242756
Ni      17.60547324      15.84161328       8.77784118       0.60000000      -0.00742623       0.00408254       0.00284358       0.01164764
Ni      19.37165828      14.08099785       8.78193556       0.60000000      -0.00737630       0.00413051       0.00091045       0.01126202
Ni      19.37418198      15.84501891       7.01820859       0.60000000      -0.00708524       0.00315293       0.00031457      -0.00280015
Ni      17.60454448      14.07774821      10.54377607       0.60000000      -0.00735652       0.00370606       0.00251240       0.01785690
Ni      17.59849557      15.83534211      12.30336909       0.60000000      -0.00730175       0.00045259       0.00069269       0.01224186
Ni      19.36517408      14.07485366      12.30800854       0.60000000      -0.00713822      -0.00149154       0.00145927       0.00881299
Ni      19.36602043      15.83982917      10.54179103       0.60000000      -0.00731879       0.00091255       0.00055801       0.00638264
Ni      17.59782695      14.06892109      14.06892109       0.60000000      -0.00683524      -0.00357394       0.00493406       0.00493406
Cr      17.59177200      15.82709726      15.82709726       0.60000000      -0.00716999       0.02014727       0.03148626       0.03148626
Ni      19.35752995      14.06712832      15.83119405       0.60000000      -0.00686039       0.00767959       0.00551812       0.01774668
Ni      19.35752995      15.83119405      14.06712832       0.60000000      -0.00686039       0.00767959       0.01774668       0.00551812
Cr      17.59424041      14.06688799      17.59424041       0.60000000      -0.00737863       0.01323375      -0.00117463       0.01323375
Cr      17.59300859      15.82988249      19.35338259       0.60000000      -0.00752488      -0.00435778      -0.00594641       0.01841870
Cr      19.35856607      14.06818219      19.35856607       0.60000000      -0.00753054      -0.00495763      -0.00286733      -0.00495763
Cr      19.35338259      15.82988249      17.59300859       0.60000000      -0.00752488       0.01841870      -0.00594641      -0.00435778
Ni      17.59576648      14.06750836      21.11797619       0.60000000      -0.00711111       0.00150247       0.00640048       0.00900047
Ni      17.59469240      15.83191824      22.87477203       0.60000000      -0.00705387       0.00575871       0.00299957       0.03795180
Ni      19.35963346      14.07010971      22.88016540       0.60000000      -0.00676690       0.00296300      -0.00706074       0.01712354
Cr      19.35743300      15.83127986      21.11869273       0.60000000      -0.00754691      -0.01743160      -0.00912180      -0.01105424
Ni      17.60259228      14.07557483      24.64708202       0.60000000      -0.00683841      -0.01423517      -0.01229597       0.01119435
Ni      17.60059016      15.83962556      26.40783515       0.60000000      -0.00674973       0.00753950      -0.00758920       0.02563635
Ni      19.36401495      14.07678504      26.41122218       0.60000000      -0.00690703       0.00033593      -0.00779396       0.00922632
Ni      19.35794510      15.83363242      24.63972390       0.60000000      -0.00707270       0.01386606       0.00906002       0.03535555
Ni      17.60757228      14.08200101      28.18010102       0.60000000      -0.00665769      -0.01789366      -0.01373091       0.00566732
Ni      17.60666516      15.84529842      29.94616231       0.60000000      -0.00622197       0.00020359      -0.00683965       0.02024388
Ni      19.36615666      14.08160863      29.94694362       0.60000000      -0.00649450       0.00313177      -0.00594608       0.01455257
Ni      19.36374293      15.84013621      28.17655332       0.60000000      -0.00654839      -0.00201804       0.00429117       0.01788641
Ni      17.60805754      14.08457345      31.71605509       0.60000000      -0.00647678      -0.00762562      -0.00943026       0.01046957
Ni      17.60881626      15.84681313      33.48619079       0.60000000      -0.00617413      -0.00227313      -0.00335659       0.00896637
Ni      19.36892039      14.08336565      33.48584590       0.60000000      -0.00627341       0.00426272       0.00214237       0.00667328
Ni      19.36715317      15.84381185      31.71733876       0.60000000      -0.00630887      -0.00063442       0.00113685       0.01215390
Ni      17.60879620      14.08441095      35.25411730       0.60000000      -0.00628578       0.00001661       0.00335562      -0.00107778
Ni      17.60942323      15.84715862      37.02245543       0.60000000      -0.00700562       0.00177925       0.00319192       0.00198410
Ni      19.37166652      14.08483988      37.02165636       0.60000000      -0.00697016       0.00190251       0.00336289      -0.00052240
Ni      19.37131653      15.84677859      35.25549284       0.60000000      -0.00610668      -0.00055386       0.00138745       0.00134420
Ni      17.60894350      14.08399865      38.78839367       0.60000000      -0.01059519       0.01138353       0.01327867      -0.03360760
Ni      17.61164896      15.84921631      40.54740484       0.60000000      -0.00475711       0.02090101       0.00920341      -0.20676478
Ni      19.37431960      14.08697853      40.54629902       0.60000000      -0.00495940       0.03165368      -0.00083031      -0.19945340
Ni      19.37216914      15.84735389      38.78913493       0.60000000      -0.01065844       0.01368795       0.01542297      -0.03459643
Ni      17.61846381      17.61846381      -0.01869139       0.60000000      -0.00531993      -0.02433164      -0.02433164       0.23384743
Ni      17.61629676      19.38263261       1.73948966       0.60000000      -0.01131592      -0.00158613      -0.00157134      -0.00779460
Ni      19.38263261      17.61629676       1.73948966       0.60000000      -0.01131592      -0.00157134      -0.00158613      -0.00779460
Ni      19.38104035      19.38104035      -0.01964331       0.60000000      -0.00524615      -0.01534876      -0.01534876       0.23527543
Ni      17.61736239      17.61736239       3.49782954       0.60000000      -0.00683053      -0.01355737      -0.01355737       0.00502395
Ni      17.61109142      19.37732433       5.25508346       0.60000000      -0.00703161       0.00448894       0.00478317       0.00700021
Ni      19.37732433      17.61109142       5.25508346       0.60000000      -0.00703161       0.00478317       0.00448894       0.00700021
Ni      19.38007210      19.38007210       3.49617717       0.60000000      -0.00703298      -0.00855668      -0.00855668       0.01362301
Ni      17.60861630      17.60861630       7.01658368       0.60000000      -0.00705656       0.00083629       0.00083629      -0.00467574
Ni      17.60413684      19.36750664       8.77689363       0.60000000      -0.00695166       0.00554672       0.00839628       0.00842179
Ni      19.36750664      17.60413684       8.77689363       0.60000000      -0.00695166       0.00839628       0.00554672       0.00842179
Ni      19.37099211      19.37099211       7.01356864       0.60000000      -0.00706672       0.00692269       0.00692269       0.01402738
Ni      17.60010344      17.60010344      10.53962130       0.60000000      -0.00714891       0.00640892       0.00640892       0.00197700
Ni      17.59716901      19.35901634      12.30375473       0.60000000      -0.00716969       0.01245434       0.01399506       0.00372452
Ni      19.35901634      17.59716901      12.30375473       0.60000000      -0.00716969       0.01399506       0.01245434       0.00372452
Ni      19.36222034      19.36222034      10.53854932       0.60000000      -0.00709398       0.01094775       0.01094775       0.01921661
Cr      17.59424041      17.59424041      14.06688799       0.60000000      -0.00737863       0.01323375       0.01323375      -0.00117463
Cr      17.59300859      19.35338259      15.82988249       0.60000000      -0.00752488      -0.00435778       0.01841870      -0.00594641
Cr      19.35338259      17.59300859      15.82988249       0.60000000      -0.00752488       0.01841870      -0.00435778      -0.00594641
Cr      19.35856607      19.35856607      14.06818219       0.60000000      -0.00753054      -0.00495763      -0.00495763      -0.00286733
Cr      17.58921763      17.58921763      17.58921763       0.60000000      -0.00790312       0.01308947       0.01308947       0.01308947
Cr      17.59081998      19.35380105      19.35380105       0.60000000      -0.00685184      -0.01889490      -0.02946406      -0.02946406
Cr      19.35380105      17.59081998      19.35380105       0.60000000      -0.00685184      -0.02946406      -0.01889490      -0.02946406
Cr      19.35380105      19.35380105      17.59081998       0.60000000      -0.00685184      -0.02946406      -0.02946406      -0.01889490
Cr      17.59255772      17.59255772      21.11557212       0.60000000      -0.00750364      -0.00494762      -0.00494762       0.00508533
Cr      17.59367614      19.35648931      22.88122297       0.60000000      -0.00744536       0.00123777      -0.00718103      -0.01744274
Cr      19.35648931      17.59367614      22.88122297       0.60000000      -0.00744536      -0.00718103       0.00123777      -0.01744274
Cr      19.34821070      19.34821070      21.11037646       0.60000000      -0.00730469       0.04218957       0.04218957       0.04388158
Ni      17.59517581      17.59517581      24.63855243       0.60000000      -0.00707528       0.00544187       0.00544187       0.03039914
Ni      17.59643142      19.35784195      26.40891067       0.60000000      -0.00700992      -0.00209760       0.00148921       0.00053049
Ni      19.35784195      17.59643142      26.40891067       0.60000000      -0.00700992       0.00148921      -0.00209760       0.00053049
Cr      19.35528394      19.35528394      24.64702015       0.60000000      -0.00668384      -0.00533540      -0.00533540      -0.02225444
Ni      17.60114982      17.60114982      28.17845296       0.60000000      -0.00669470       0.01099294       0.01099294       0.00185699
Ni      17.60272462      19.36490947      29.95022469       0.60000000      -0.00657492       0.00267638      -0.00547894      -0.01712232
Ni      19.36490947      17.60272462      29.95022469       0.60000000      -0.00657492      -0.00547894       0.00267638      -0.01712232
Ni      19.35794338      19.35794338      28.17819564       0.60000000      -0.00705393       0.01454203       0.01454203       0.01660614
Ni      17.60679708      17.60679708      31.71829311       0.60000000      -0.00648407      -0.00027031      -0.00027031       0.00697713
Ni      17.60766976      19.37008962      33.48909342       0.60000000      -0.00620960       0.00081239      -0.00538310      -0.00136645
Ni      19.37008962      17.60766976      33.48909342       0.60000000      -0.00620960      -0.00538310       0.00081239      -0.00136645
Ni      19.36507236      19.36507236      31.71985015       0.60000000      -0.00631971       0.01692188       0.01692188       0.00342976
Ni      17.60943381      17.60943381      35.25570139       0.60000000      -0.00605579      -0.00011870      -0.00011870       0.00264120
Ni      17.61137621      19.37326592      37.02283603       0.60000000      -0.00681114      -0.00401732      -0.00266462       0.00663964
Ni      19.37326592      17.61137621      37.02283603       0.60000000      -0.00681114      -0.00266462      -0.00401732       0.00663964
Ni      19.37306465      19.37306465      35.25648512       0.60000000      -0.00593214       0.00016883       0.00016883       0.00188065
Ni      17.60962096      17.60962096      38.78991606       0.60000000      -0.01074438       0.01502176       0.01502176      -0.03683444
Ni      17.61327943      19.37567859      40.54779115       0.60000000      -0.00447439       0.00767453       0.02048488      -0.22246853
Ni      19.37567859      17.61327943      40.54779115       0.60000000      -0.00447439       0.02048488       0.00767453      -0.22246853
Ni      19.37489443      19.37489443      38.78967243       0.60000000      -0.01056239       0.01163980       0.01163980      -0.02778622
Ni      17.61600968      21.14643700      -0.01921861       0.60000000      -0.00534945      -0.01125180      -0.01970031       0.22867986
Ni      17.61327943      22.91198122       1.73986866       0.60000000      -0.01109143      -0.00082690      -0.00098168      -0.01024726
Ni      19.37874420      21.14530828       1.73865106       0.60000000      -0.01125689      -0.00118684      -0.00117741      -0.00843746
Ni      19.37839408      22.90896806      -0.01953562       0.60000000      -0.00536968       0.00171973      -0.00720261       0.22614548
Ni      17.61260411      21.14876253       3.49716161       0.60000000      -0.00708004       0.00270415      -0.02330134       0.01257503
Ni      17.60968048      22.90756540       5.25812672       0.60000000      -0.00709685       0.00121188       0.00114690      -0.00213775
Ni      19.37482771      21.14127970       5.25530802       0.60000000      -0.00706408      -0.00228110      -0.00347763      -0.00113281
Ni      19.37489443      22.91140104       3.49662304       0.60000000      -0.00695015       0.00428496      -0.02264016       0.01501651
Ni      17.60756980      21.13653606       7.01583530       0.60000000      -0.00705185       0.00489301       0.00735198       0.01061180
Ni      17.60637029      22.89640896       8.78043194       0.60000000      -0.00698888       0.00028492       0.00328186       0.00623815
Ni      19.36693076      21.13033789       8.77656306       0.60000000      -0.00697967       0.00229589       0.00388368       0.00677975
Ni      19.37103318      22.90052986       7.01698299       0.60000000      -0.00670229      -0.00068369       0.00111703       0.00367093
Ni      17.60234275      21.12771352      10.54155965       0.60000000      -0.00720518       0.00600986       0.00354152       0.01296262
Ni      17.60230330      22.88869986      12.30930423       0.60000000      -0.00702672      -0.00461223      -0.00842056      -0.00981204
Ni      19.36131479      21.12205091      12.30525959       0.60000000      -0.00706218      -0.00510864       0.00086968      -0.00810817
Ni      19.36484087      22.89010138      10.54263807       0.60000000      -0.00692690       0.00127830       0.00448204       0.00278844
Ni      17.59576648      21.11797619      14.06750836       0.60000000      -0.00711111       0.00150247       0.00900047       0.00640048
Ni      17.59469240      22.87477203      15.83191824       0.60000000      -0.00705387       0.00575871       0.03795180       0.00299957
Cr      19.35743300      21.11869273      15.83127986       0.60000000      -0.00754691      -0.01743160      -0.01105424      -0.00912180
Ni      19.35963346      22.88016540      14.07010971       0.60000000      -0.00676690       0.00296300       0.01712354      -0.00706074
Cr      17.59255772      21.11557212      17.59255772       0.60000000      -0.00750364      -0.00494762       0.00508533      -0.00494762
Cr      17.59367614      22.88122297      19.35648931       0.60000000      -0.00744536       0.00123777      -0.01744274      -0.00718103
Cr      19.34821070      21.11037646      19.34821070       0.60000000      -0.00730469       0.04218957       0.04388158       0.04218957
Cr      19.35648931      22.88122297      17.59367614       0.60000000      -0.00744536      -0.00718103      -0.01744274       0.00123777
Cr      17.58941776      21.11368504      21.11368504       0.60000000      -0.00689646       0.02032355       0.03010816       0.03010816
Cr      17.59179082      22.87979657      22.87979657       0.60000000      -0.00733212      -0.00420606      -0.01743456      -0.01743456
Cr      19.35111793      21.11282866      22.87468441       0.60000000      -0.00716491      -0.01283662      -0.00635828       0.00760207
Cr      19.35111793      22.87468441      21.11282866       0.60000000      -0.00716491      -0.01283662       0.00760207      -0.00635828
Cr      17.59547602      21.11905663      24.64667625       0.60000000      -0.00731034      -0.01309245      -0.00435288      -0.02068510
Cr      17.59745201      22.88145240      26.41249245       0.60000000      -0.00678686      -0.01495359       0.00745380      -0.00760642
Cr      19.35518648      21.11831236      26.41231471       0.60000000      -0.00682707       0.01151251      -0.00753952      -0.00194255
Cr      19.35057451      22.87673110      24.63946202       0.60000000      -0.00688045       0.02382186      -0.00284056       0.01831651
Ni      17.59723552      21.11990648      28.17798995       0.60000000      -0.00683769       0.01279442       0.01536892       0.00996539
Ni      17.60033881      22.88400213      29.94725968       0.60000000      -0.00666847       0.00204166       0.00606982       0.00235006
Ni      19.36183915      21.12389240      29.94874252       0.60000000      -0.00665055      -0.00752701      -0.01522507      -0.00169950
Cr      19.35750323      22.88216693      28.17990821       0.60000000      -0.00669528       0.00901766      -0.00792722      -0.01799201
Ni      17.60300042      21.12549780      31.71952091       0.60000000      -0.00639871       0.01502092       0.02362078      -0.00045505
Ni      17.60853254      22.89388046      33.48722592       0.60000000      -0.00614787       0.00110930      -0.00911596      -0.00380425
Ni      19.37008722      21.13210993      33.48890599       0.60000000      -0.00619824      -0.00119718      -0.00517063      -0.00673881
Ni      19.36381779      22.88738336      31.71688396       0.60000000      -0.00628136       0.00941650       0.00508106       0.00148365
Ni      17.61087214      21.13489725      35.25621338       0.60000000      -0.00598963       0.00126612       0.00042318      -0.00116373
Ni      17.61472662      22.90034300      37.02220789       0.60000000      -0.00660494      -0.00136232      -0.00149215       0.00220868
Ni      19.37614217      21.13803262      37.02325517       0.60000000      -0.00666837       0.00107457       0.00031587       0.00563298
Ni      19.37672185      22.89883828      35.25527463       0.60000000      -0.00579018      -0.01278762      -0.00673241       0.00215360
Ni      17.61260411      21.13730211      38.78890303       0.60000000      -0.01047811       0.01258932       0.01070916      -0.02608556
Ni      17.61629676      22.90349611      40.54663907       0.60000000      -0.00455940      -0.01020879       0.02667419      -0.22586258
Ni      19.37874420      21.14112079      40.54777802       0.60000000      -0.00436333       0.00063223       0.01393914      -0.23455692
Ni      19.38007210      22.90472232      38.78861724       0.60000000      -0.01014006      -0.00081360      -0.00144874      -0.01960415
Ni      17.61412883      24.67415454      -0.01835582       0.60000000      -0.00565706       0.00368347      -0.01199713       0.20814162
Ni      17.61164896      26.44007549       1.74188696       0.60000000      -0.01079777       0.00013002      -0.00029921      -0.01262000
Ni      19.37567859      24.67438038       1.73986866       0.60000000      -0.01106470      -0.00023106      -0.00050459      -0.01072200
Ni      19.37659868      26.43636475      -0.01806659       0.60000000      -0.00571904       0.01718614       0.00212974       0.20564305
Ni      17.60962096      24.67944780       3.49915270       0.60000000      -0.00713275       0.01162190      -0.03298144       0.01313843
Ni      17.60952488      26.43767244       5.26188930       0.60000000      -0.00717553       0.00016663      -0.00057265       0.00573388
Ni      19.37222674      24.67061799       5.25805215       0.60000000      -0.00709183       0.00413941       0.00394531       0.00699055
Ni      19.37216914      26.44140513       3.49962409       0.60000000      -0.00717352       0.01428619      -0.02541142       0.02114200
Ni      17.60829073      24.66641512       7.02098099       0.60000000      -0.00678879       0.00175248       0.00249605       0.00397520
Ni      17.60692524      26.42560296       8.78634250       0.60000000      -0.00676064       0.00529904       0.00628121       0.00791988
Ni      19.36826875      24.65999749       8.78163107       0.60000000      -0.00670492       0.00420171       0.00608985       0.00914859
Ni      19.37041513      26.43069134       7.02252249       0.60000000      -0.00675568       0.00468094       0.00001708       0.00747898
Ni      17.60616604      24.65695119      10.54789380       0.60000000      -0.00689622      -0.00216230       0.00095299      -0.00037161
Ni      17.60644589      26.41858847      12.31534015       0.60000000      -0.00685125      -0.00466131      -0.00094015      -0.00546441
Ni      19.36492457      24.65079245      12.30983213       0.60000000      -0.00706016      -0.00187936       0.00433135       0.00004247
Ni      19.36698552      26.42121662      10.54901135       0.60000000      -0.00673166       0.00289345       0.00169405       0.00160198
Ni      17.60259228      24.64708202      14.07557483       0.60000000      -0.00683841      -0.01423517       0.01119435      -0.01229597
Ni      17.60059016      26.40783515      15.83962556       0.60000000      -0.00674973       0.00753950       0.02563635      -0.00758920
Ni      19.35794510      24.63972390      15.83363242       0.60000000      -0.00707270       0.01386606       0.03535555       0.00906002
Ni      19.36401495      26.41122218      14.07678504       0.60000000      -0.00690703       0.00033593       0.00922632      -0.00779396
Ni      17.59517581      24.63855243      17.59517581       0.60000000      -0.00707528       0.00544187       0.03039914       0.00544187
Ni      17.59643142      26.40891067      19.35784195       0.60000000      -0.00700992      -0.00209760       0.00053049       0.00148921
Cr      19.35528394      24.64702015      19.35528394       0.60000000      -0.00668384      -0.00533540      -0.02225444      -0.00533540
Ni      19.35784195      26.40891067      17.59643142       0.60000000      -0.00700992       0.00148921       0.00053049      -0.00209760
Cr      17.59547602      24.64667625      21.11905663       0.60000000      -0.00731034      -0.01309245      -0.02068510      -0.00435288
Cr      17.59745201      26.41249245      22.88145240       0.60000000      -0.00678686      -0.01495359      -0.00760642       0.00745380
Cr      19.35057451      24.63946202      22.87673110       0.60000000      -0.00688045       0.02382186       0.01831651      -0.00284056
Cr      19.35518648      26.41231471      21.11831236       0.60000000      -0.00682707       0.01151251      -0.00194255      -0.00753952
Cr      17.59172654      24.64200738      24.64200738       0.60000000      -0.00674971       0.01990343       0.02824695       0.02824695
Cr      17.59778286      26.40750593      26.40750593       0.60000000      -0.00665356      -0.00781787       0.00113914       0.00113914
Cr      19.35487725      24.64026393      26.40494422       0.60000000      -0.00687149       0.01229353      -0.00078293       0.00456853
Cr      19.35487725      26.40494422      24.64026393       0.60000000      -0.00687149       0.01229353       0.00456853      -0.00078293
Cr      17.59902781      24.64595330      28.17667995       0.60000000      -0.00636283      -0.00302865      -0.00306814       0.00661618
Ni      17.60447740      26.41069156      29.94254748       0.60000000      -0.00628459       0.00303955       0.00370928       0.00919710
Ni      19.36162266      24.64545790      29.94498394       0.60000000      -0.00620419       0.00348118       0.00452308      -0.00331480
Ni      19.35952960      26.40379876      28.17045171       0.60000000      -0.00621594       0.01561291       0.02298192       0.01755864
Ni      17.60476117      24.64996674      31.71454245       0.60000000      -0.00622991       0.01236247       0.01040941       0.00390035
Ni      17.61492886      26.41888869      33.48203469       0.60000000      -0.00579519      -0.00864242      -0.00362355       0.00098999
Ni      19.37234024      24.65516426      33.48419754       0.60000000      -0.00590700       0.00191762       0.00543301      -0.00202178
Ni      19.36807071      26.41198930      31.71152322       0.60000000      -0.00596151       0.01316662       0.01016354      -0.00076827
Ni      17.61556019      24.65993718      35.25308483       0.60000000      -0.00582887      -0.00981301       0.00186364       0.00378990
Ni      17.61792436      26.42773479      37.01857846       0.60000000      -0.00634258       0.00762048       0.00358101       0.00648123
Ni      19.38001985      24.66556817      37.02157071       0.60000000      -0.00630923       0.00721908       0.00697194       0.00770583
Ni      19.37961182      26.42400115      35.25118081       0.60000000      -0.00581511      -0.00186471       0.00058375       0.00376502
Ni      17.61736239      24.66691035      38.78644319       0.60000000      -0.00992667       0.00247001       0.00011788      -0.01857956
Ni      17.61967122      26.43186226      40.54453224       0.60000000      -0.00475346      -0.02643191       0.02619598      -0.21272816
Ni      19.38263261      24.66983197      40.54663907       0.60000000      -0.00442784      -0.02107177       0.01563934      -0.22968189
Ni      19.38547926      26.43510414      38.78669546       0.60000000      -0.00977894      -0.01453717      -0.01787348      -0.02821709
Ni      17.61327672      28.20068115      -0.01646409       0.60000000      -0.00610609       0.01520862      -0.00318149       0.18078506
Ni      17.61149759      29.96599561       1.74478405       0.60000000      -0.01030947       0.00065174       0.00046085      -0.01371351
Ni      19.37431960      28.20188451       1.74256401       0.60000000      -0.01063960       0.00076720       0.00024061      -0.01325418
Ni      19.37596535      29.96245072      -0.01573116       0.60000000      -0.00617695       0.02566236       0.00945928       0.17842646
Ni      17.60894350      28.20705349       3.50265847       0.60000000      -0.00735786       0.01295962      -0.02703752       0.02025126
Ni      17.60953084      29.96558373       5.26808768       0.60000000      -0.00740777      -0.00069424      -0.00286383       0.00125851
Ni      19.37237098      28.20113772       5.26439072       0.60000000      -0.00718189      -0.00075250      -0.00465102       0.00037963
Ni      19.37196670      29.96811478       3.50379840       0.60000000      -0.00730154       0.01300458      -0.02244409       0.02375707
Ni      17.60809177      28.19640407       7.02717630       0.60000000      -0.00685985       0.00373455       0.00063644       0.00324544
Ni      17.60678174      29.95731728       8.79163186       0.60000000      -0.00665824       0.00649132      -0.00145393       0.01029375
Ni      19.36893096      28.19110410       8.78868294       0.60000000      -0.00662671       0.00393693       0.00146924       0.00503415
Ni      19.37199182      29.96067066       7.02995642       0.60000000      -0.00669570       0.00063876      -0.00186783       0.00276488
Ni      17.60625646      28.18765721      10.55252402       0.60000000      -0.00669053       0.00485683       0.00131001       0.00366500
Ni      17.60657289      29.95040534      12.31894351       0.60000000      -0.00671362       0.00229216       0.00610911       0.00022772
Ni      19.36680676      28.18328731      12.31584617       0.60000000      -0.00676824      -0.00244377       0.00203023      -0.00080812
Ni      19.36773152      29.95358995      10.55443113       0.60000000      -0.00653117       0.00514358       0.00137036       0.00491026
Ni      17.60757228      28.18010102      14.08200101       0.60000000      -0.00665769      -0.01789366       0.00566732      -0.01373091
Ni      17.60666516      29.94616231      15.84529842       0.60000000      -0.00622197       0.00020359       0.02024388      -0.00683965
Ni      19.36374293      28.17655332      15.84013621       0.60000000      -0.00654839      -0.00201804       0.01788641       0.00429117
Ni      19.36615666      29.94694362      14.08160863       0.60000000      -0.00649450       0.00313177       0.01455257      -0.00594608
Ni      17.60114982      28.17845296      17.60114982       0.60000000      -0.00669470       0.01099294       0.00185699       0.01099294
Ni      17.60272462      29.95022469      19.36490947       0.60000000      -0.00657492       0.00267638      -0.01712232      -0.00547894
Ni      19.35794338      28.17819564      19.35794338       0.60000000      -0.00705393       0.01454203       0.01660614       0.01454203
Ni      19.36490947      29.95022469      17.60272462       0.60000000      -0.00657492      -0.00547894      -0.01712232       0.00267638
Ni      17.59723552      28.17798995      21.11990648       0.60000000      -0.00683769       0.01279442       0.00996539       0.01536892
Ni      17.60033881      29.94725968      22.88400213       0.60000000      -0.00666847       0.00204166       0.00235006       0.00606982
Cr      19.35750323      28.17990821      22.88216693       0.60000000      -0.00669528       0.00901766      -0.01799201      -0.00792722
Ni      19.36183915      29.94874252      21.12389240       0.60000000      -0.00665055      -0.00752701      -0.00169950      -0.01522507
Cr      17.59902781      28.17667995      24.64595330       0.60000000      -0.00636283      -0.00302865       0.00661618      -0.00306814
Ni      17.60447740      29.94254748      26.41069156       0.60000000      -0.00628459       0.00303955       0.00919710       0.00370928
Ni      19.35952960      28.17045171      26.40379876       0.60000000      -0.00621594       0.01561291       0.01755864       0.02298192
Ni      19.36162266      29.94498394      24.64545790       0.60000000      -0.00620419       0.00348118      -0.00331480       0.00452308
Ni      17.60471151      28.17184863      28.17184863       0.60000000      -0.00621722      -0.00374241       0.02391655       0.02391655
Ni      17.61282871      29.94167306      29.94167306       0.60000000      -0.00620506       0.01449958       0.00054623       0.00054623
Ni      19.36686341      28.17253085      29.93806332       0.60000000      -0.00614987       0.00887628       0.00298191       0.01341765
Ni      19.36686341      29.93806332      28.17253085       0.60000000      -0.00614987       0.00887628       0.01341765       0.00298191
Ni      17.61316884      28.17790358      31.71053793       0.60000000      -0.00587628       0.00781846       0.00898408       0.00072308
Ni      17.61974231      29.94700929      33.47762783       0.60000000      -0.00565099      -0.01140665       0.00283508       0.00956313
Ni      19.37867027      28.18168013      33.47901709       0.60000000      -0.00561075      -0.01054111       0.00435237       0.00439157
Ni      19.37774331      29.94200771      31.70891434       0.60000000      -0.00567179      -0.01269952       0.00355442      -0.00536533
Ni      17.61879088      28.18693622      35.24790768       0.60000000      -0.00575668      -0.00069425       0.00289782       0.00972351
Ni      17.61949367      29.95552244      37.01496219       0.60000000      -0.00620986       0.01051870       0.00236258       0.00132844
Ni      19.38306138      28.19353970      37.01788093       0.60000000      -0.00620831       0.00584454       0.00161152       0.00436062
Ni      19.38055366      29.95217278      35.24706791       0.60000000      -0.00565965       0.00772187       0.00034823       0.00297062
Ni      17.62166759      28.19655314      38.78338840       0.60000000      -0.00942474      -0.00963996      -0.01593654      -0.02210501
Ni      17.62201042      29.95940295      40.54183092       0.60000000      -0.00520489      -0.03452253       0.02273672      -0.18540266
Ni      19.38567283      28.19793056      40.54455037       0.60000000      -0.00470034      -0.03513840       0.01549092      -0.20672899
Ni      19.38833808      29.96339779      38.78359517       0.60000000      -0.00941376      -0.02308163      -0.02644491      -0.03120490
Ni      17.61338426      31.72573725      -0.01406388       0.60000000      -0.00655361       0.02041648       0.00361824       0.15177782
Ni      17.61234968      33.49004278       1.74788533       0.60000000      -0.00984538       0.00077125       0.00090494      -0.01241056
Ni      19.37447680      31.72724128       1.74586687       0.60000000      -0.01018905       0.00123433       0.00082016      -0.01333189
Ni      19.37625886      33.48716144      -0.01309500       0.60000000      -0.00662496       0.02662409       0.01257413       0.14802152
Ni      17.60990939      31.73146869       3.50658445       0.60000000      -0.00749775       0.00847645      -0.02119221       0.02320186
Ni      17.61050380      33.48974842       5.27280911       0.60000000      -0.00736152       0.00020914       0.00117001       0.00030068
Ni      19.37362567      31.72712175       5.26989781       0.60000000      -0.00732061      -0.00218148      -0.00126857       0.00219279
Ni      19.37326519      33.49199435       3.50802787       0.60000000      -0.00743218       0.00941116      -0.01669260       0.02362137
Ni      17.60878134      31.72505126       7.03306613       0.60000000      -0.00674613       0.00272986      -0.00289645       0.00518356
Ni      17.60797271      33.48684319       8.79773448       0.60000000      -0.00659834       0.00463064      -0.00208194       0.00512836
Ni      19.37130585      31.72231751       8.79478949       0.60000000      -0.00648718       0.00139254      -0.00378604       0.00791616
Ni      19.37362354      33.48726297       7.03546479       0.60000000      -0.00666655      -0.00092498       0.00049183       0.00379249
Ni      17.60656240      31.72038300      10.55691215       0.60000000      -0.00656428       0.00522901      -0.00551011       0.00969525
Ni      17.60744436      33.48583470      12.32157273       0.60000000      -0.00650106       0.00275339      -0.00185610       0.00408980
Ni      19.36777385      31.71770785      12.32038214       0.60000000      -0.00651381       0.00192241       0.00492651      -0.00212750
Ni      19.37054482      33.48668916      10.55924753       0.60000000      -0.00649993       0.00257752      -0.00574399       0.00713286
Ni      17.60805754      31.71605509      14.08457345       0.60000000      -0.00647678      -0.00762562       0.01046957      -0.00943026
Ni      17.60881626      33.48619079      15.84681313       0.60000000      -0.00617413      -0.00227313       0.00896637      -0.00335659
Ni      19.36715317      31.71733876      15.84381185       0.60000000      -0.00630887      -0.00063442       0.01215390       0.00113685
Ni      19.36892039      33.48584590      14.08336565       0.60000000      -0.00627341       0.00426272       0.00667328       0.00214237
Ni      17.60679708      31.71829311      17.60679708       0.60000000      -0.00648407      -0.00027031       0.00697713      -0.00027031
Ni      17.60766976      33.48909342      19.37008962       0.60000000      -0.00620960       0.00081239      -0.00136645      -0.00538310
Ni      19.36507236      31.71985015      19.36507236       0.60000000      -0.00631971       0.01692188       0.00342976       0.01692188
Ni      19.37008962      33.48909342      17.60766976       0.60000000      -0.00620960      -0.00538310      -0.00136645       0.00081239
Ni      17.60300042      31.71952091      21.12549780       0.60000000      -0.00639871       0.01502092      -0.00045505       0.02362078
Ni      17.60853254      33.48722592      22.89388046       0.60000000      -0.00614787       0.00110930      -0.00380425      -0.00911596
Ni      19.36381779      31.71688396      22.88738336       0.60000000      -0.00628136       0.00941650       0.00148365       0.00508106
Ni      19.37008722      33.48890599      21.13210993       0.60000000      -0.00619824      -0.00119718      -0.00673881      -0.00517063
Ni      17.60476117      31.71454245      24.64996674       0.60000000      -0.00622991       0.01236247       0.00390035       0.01040941
Ni      17.61492886      33.48203469      26.41888869       0.60000000      -0.00579519      -0.00864242       0.00098999      -0.00362355
Ni      19.36807071      31.71152322      26.41198930       0.60000000      -0.00596151       0.01316662      -0.00076827       0.01016354
Ni      19.37234024      33.48419754      24.65516426       0.60000000      -0.00590700       0.00191762      -0.00202178       0.00543301
Ni      17.61316884      31.71053793      28.17790358       0.60000000      -0.00587628       0.00781846       0.00072308       0.00898408
Ni      17.61974231      33.47762783      29.94700929       0.60000000      -0.00565099      -0.01140665       0.00956313       0.00283508
Ni      19.37774331      31.70891434      29.94200771       0.60000000      -0.00567179      -0.01269952      -0.00536533       0.00355442
Ni      19.37867027      33.47901709      28.18168013       0.60000000      -0.00561075      -0.01054111       0.00439157       0.00435237
Ni      17.62052699      31.70918515      31.70918515       0.60000000      -0.00555191      -0.01863266       0.01280285       0.01280285
Ni      17.61708967      33.47886817      33.47886817       0.60000000      -0.00591503       0.01027997       0.00134437       0.00134437
Ni      19.37975628      31.71181589      33.47701683       0.60000000      -0.00551950       0.00337599       0.01203721       0.01165297
Ni      19.37975628      33.47701683      31.71181589       0.60000000      -0.00551950       0.00337599       0.01165297       0.01203721
Ni      17.61758153      31.71659091      35.24626424       0.60000000      -0.00573298       0.01203924      -0.00427029      -0.00281429
Ni      17.61984935      33.48414659      37.01262745       0.60000000      -0.00629001       0.00753733      -0.00588777      -0.00599702
Ni      19.38343433      31.72140622      37.01457821       0.60000000      -0.00619122       0.00840398      -0.00385340      -0.00304695
Ni      19.38020057      33.48189106      35.24629398       0.60000000      -0.00566659       0.01211789      -0.00323728      -0.00291834
Ni      17.62359987      31.72407103      38.77980450       0.60000000      -0.00921467      -0.01614357      -0.02076394      -0.02184456
Ni      17.62282448      33.48535049      40.53885208       0.60000000      -0.00589584      -0.03392550       0.01851907      -0.15272417
Ni      19.38685803      31.72429996      40.54164531       0.60000000      -0.00533181      -0.03824931       0.01467982      -0.17393395
Ni      19.38834311      33.48886363      38.77959834       0.60000000      -0.00928008      -0.01937977      -0.02219264      -0.02475153
Ni      17.61410568      35.24965745      -0.01159394       0.60000000      -0.00691796       0.02034218       0.00682538       0.12373724
Ni      17.61364298      37.01306642       1.75076510       0.60000000      -0.00945321       0.00072665       0.00112862      -0.00984489
Ni      19.37549479      35.25101357       1.74911248       0.60000000      -0.00969016       0.00121846       0.00097568      -0.01145591
Ni      19.37705048      37.01093025      -0.01057167       0.60000000      -0.00698250       0.02331005       0.01229314       0.11861351
Ni      17.61164051      35.25406254       3.51028488       0.60000000      -0.00752740       0.00430113      -0.01437787       0.02202329
Ni      17.61181443      37.01387142       5.27605722       0.60000000      -0.00775243       0.00103954       0.00322663      -0.00236449
Ni      19.37420470      35.25087545       5.27469330       0.60000000      -0.00731620       0.00050260       0.00323614      -0.00254241
Ni      19.37507021      37.01455198       3.51174259       0.60000000      -0.00762717       0.00343205      -0.01165378       0.01987824
Ni      17.61003525      35.25046820       7.03803584       0.60000000      -0.00685906       0.00161219       0.00446698      -0.00235401
Ni      17.60976674      37.01721378       8.79892423       0.60000000      -0.00737223       0.00285429      -0.00167663       0.00348509
Ni      19.37260297      35.25149464       8.79913915       0.60000000      -0.00664296       0.00085828      -0.00218070       0.00195034
Ni      19.37373308      37.01458251       7.03776579       0.60000000      -0.00731550       0.00212250       0.00210826      -0.00049986
Ni      17.60795777      35.25301775      10.56034492       0.60000000      -0.00668778       0.00558636      -0.00535587       0.00561174
Ni      17.60872428      37.02066796      12.32232722       0.60000000      -0.00721299       0.00368940      -0.00340240       0.00428766
Ni      19.37088599      35.25372001      12.32202206       0.60000000      -0.00641640       0.00077936      -0.00424143       0.00408349
Ni      19.37193054      37.01879043      10.56039108       0.60000000      -0.00720665       0.00305201      -0.00358956       0.00411724
Ni      17.60879620      35.25411730      14.08441095       0.60000000      -0.00628578       0.00001661      -0.00107778       0.00335562
Ni      17.60942323      37.02245543      15.84715862       0.60000000      -0.00700562       0.00177925       0.00198410       0.00319192
Ni      19.37131653      35.25549284      15.84677859       0.60000000      -0.00610668      -0.00055386       0.00134420       0.00138745
Ni      19.37166652      37.02165636      14.08483988       0.60000000      -0.00697016       0.00190251      -0.00052240       0.00336289
Ni      17.60943381      35.25570139      17.60943381       0.60000000      -0.00605579      -0.00011870       0.00264120      -0.00011870
Ni      17.61137621      37.02283603      19.37326592       0.60000000      -0.00681114      -0.00401732       0.00663964      -0.00266462
Ni      19.37306465      35.25648512      19.37306465       0.60000000      -0.00593214       0.00016883       0.00188065       0.00016883
Ni      19.37326592      37.02283603      17.61137621       0.60000000      -0.00681114      -0.00266462       0.00663964      -0.00401732
Ni      17.61087214      35.25621338      21.13489725       0.60000000      -0.00598963       0.00126612      -0.00116373       0.00042318
Ni      17.61472662      37.02220789      22.90034300       0.60000000      -0.00660494      -0.00136232       0.00220868      -0.00149215
Ni      19.37672185      35.25527463      22.89883828       0.60000000      -0.00579018      -0.01278762       0.00215360      -0.00673241
Ni      19.37614217      37.02325517      21.13803262       0.60000000      -0.00666837       0.00107457       0.00563298       0.00031587
Ni      17.61556019      35.25308483      24.65993718       0.60000000      -0.00582887      -0.00981301       0.00378990       0.00186364
Ni      17.61792436      37.01857846      26.42773479       0.60000000      -0.00634258       0.00762048       0.00648123       0.00358101
Ni      19.37961182      35.25118081      26.42400115       0.60000000      -0.00581511      -0.00186471       0.00376502       0.00058375
Ni      19.38001985      37.02157071      24.66556817       0.60000000      -0.00630923       0.00721908       0.00770583       0.00697194
Ni      17.61879088      35.24790768      28.18693622       0.60000000      -0.00575668      -0.00069425       0.00972351       0.00289782
Ni      17.61949367      37.01496219      29.95552244       0.60000000      -0.00620986       0.01051870       0.00132844       0.00236258
Ni      19.38055366      35.24706791      29.95217278       0.60000000      -0.00565965       0.00772187       0.00297062       0.00034823
Ni      19.38306138      37.01788093      28.19353970       0.60000000      -0.00620831       0.00584454       0.00436062       0.00161152
Ni      17.61758153      35.24626424      31.71659091       0.60000000      -0.00573298       0.01203924      -0.00281429      -0.00427029
Ni      17.61984935      37.01262745      33.48414659       0.60000000      -0.00629001       0.00753733      -0.00599702      -0.00588777
Ni      19.38020057      35.24629398      33.48189106       0.60000000      -0.00566659       0.01211789      -0.00291834      -0.00323728
Ni      19.38343433      37.01457821      31.72140622       0.60000000      -0.00619122       0.00840398      -0.00304695      -0.00385340
Ni      17.61790851      35.24711954      35.24711954       0.60000000      -0.00606499       0.01220041      -0.01113130      -0.01113130
Ni      17.62173982      37.01130379      37.01130379       0.60000000      -0.00686021       0.00310879      -0.00704625      -0.00704625
Ni      19.38462055      35.24885461      37.01256822       0.60000000      -0.00653125       0.00364994      -0.00976519      -0.00819767
Ni      19.38462055      37.01256822      35.24885461       0.60000000      -0.00653125       0.00364994      -0.00819767      -0.00976519
Ni      17.62355627      35.24927912      38.77618242       0.60000000      -0.00915506      -0.01196931      -0.01410598      -0.01262921
Ni      17.62264563      37.00994034      40.53605451       0.60000000      -0.00659852      -0.02862327       0.01428841      -0.12195009
Ni      19.38657161      35.24901134      40.53847256       0.60000000      -0.00613067      -0.03393185       0.01259670      -0.14052097
Ni      19.38706734      37.01258604      38.77577566       0.60000000      -0.00932740      -0.00798875      -0.01229058      -0.01081234
Ni      17.61507861      38.77295995      -0.00933256       0.60000000      -0.00879325       0.01783719       0.01290805       0.09881539
Ni      17.61497042      40.53575425       1.75321446       0.60000000      -0.00885939       0.01935326      -0.09764921      -0.01182700
Ni      19.37677960      38.77403634       1.75194395       0.60000000      -0.01124625       0.00105214       0.00692203      -0.00792394
Ni      19.37798167      40.53423496      -0.00838068       0.60000000      -0.00671020       0.03870905      -0.08417008       0.09575904
Ni      17.61347928      38.77611653       3.51344469       0.60000000      -0.00969364       0.00065374      -0.00143567       0.00755951
Ni      17.61364298      40.53870870       5.27640737       0.60000000      -0.00661398       0.02373689      -0.12313599      -0.00710433
Ni      19.37507021      38.77757861       5.27476922       0.60000000      -0.00979455       0.00308642      -0.01320097       0.01021807
Ni      19.37677960      40.53682783       3.51473544       0.60000000      -0.00698549       0.02451159      -0.11068631      -0.00759396
Ni      17.61164051      38.78016197       7.03638432       0.60000000      -0.00990459       0.00355801      -0.01653370       0.00922183
Ni      17.61234968      40.54209299       8.79993553       0.60000000      -0.00603035       0.02720655      -0.15273228      -0.00601165
Ni      19.37326519      38.78192903       8.79796256       0.60000000      -0.01006815       0.00611390      -0.02022913       0.00966845
Ni      19.37549479      40.54001561       7.03811451       0.60000000      -0.00626659       0.03025710      -0.13867384      -0.00820346
Ni      17.60990939      38.78465781      10.55977357       0.60000000      -0.01032829       0.00569896      -0.02469025       0.01011295
Ni      17.61149759      40.54529871      12.32408714       0.60000000      -0.00536898       0.02712058      -0.18227623      -0.00087222
Ni      19.37196670      38.78627497      12.32195859       0.60000000      -0.01041621       0.00962448      -0.02870601       0.01202827
Ni      19.37447680      40.54343786      10.56206345       0.60000000      -0.00565103       0.03382537      -0.17004620      -0.00659711
Ni      17.60894350      38.78839367      14.08399865       0.60000000      -0.01059519       0.01138353      -0.03360760       0.01327867
Ni      17.61164896      40.54740484      15.84921631       0.60000000      -0.00475711       0.02090101      -0.20676478       0.00920341
Ni      19.37216914      38.78913493      15.84735389       0.60000000      -0.01065844       0.01368795      -0.03459643       0.01542297
Ni      19.37431960      40.54629902      14.08697853       0.60000000      -0.00495940       0.03165368      -0.19945340      -0.00083031
Ni      17.60962096      38.78991606      17.60962096       0.60000000      -0.01074438       0.01502176      -0.03683444       0.01502176
Ni      17.61327943      40.54779115      19.37567859       0.60000000      -0.00447439       0.00767453      -0.22246853       0.02048488
Ni      19.37489443      38.78967243      19.37489443       0.60000000      -0.01056239       0.01163980      -0.02778622       0.01163980
Ni      19.37567859      40.54779115      17.61327943       0.60000000      -0.00447439       0.02048488      -0.22246853       0.00767453
Ni      17.61260411      38.78890303      21.13730211       0.60000000      -0.01047811       0.01258932      -0.02608556       0.01070916
Ni      17.61629676      40.54663907      22.90349611       0.60000000      -0.00455940      -0.01020879      -0.22586258       0.02667419
Ni      19.38007210      38.78861724      22.90472232       0.60000000      -0.01014006      -0.00081360      -0.01960415      -0.00144874
Ni      19.37874420      40.54777802      21.14112079       0.60000000      -0.00436333       0.00063223      -0.23455692       0.01393914
Ni      17.61736239      38.78644319      24.66691035       0.60000000      -0.00992667       0.00247001      -0.01857956       0.00011788
Ni      17.61967122      40.54453224      26.43186226       0.60000000      -0.00475346      -0.02643191      -0.21272816       0.02619598
Ni      19.38547926      38.78669546      26.43510414       0.60000000      -0.00977894      -0.01453717      -0.02821709      -0.01787348
Ni      19.38263261      40.54663907      24.66983197       0.60000000      -0.00442784      -0.02107177      -0.22968189       0.01563934
Ni      17.62166759      38.78338840      28.19655314       0.60000000      -0.00942474      -0.00963996      -0.02210501      -0.01593654
Ni      17.62201042      40.54183092      29.95940295       0.60000000      -0.00520489      -0.03452253      -0.18540266       0.02273672
Ni      19.38833808      38.78359517      29.96339779       0.60000000      -0.00941376      -0.02308163      -0.03120490      -0.02644491
Ni      19.38567283      40.54455037      28.19793056       0.60000000      -0.00470034      -0.03513840      -0.20672899       0.01549092
Ni      17.62359987      38.77980450      31.72407103       0.60000000      -0.00921467      -0.01614357      -0.02184456      -0.02076394
Ni      17.62282448      40.53885208      33.48535049       0.60000000      -0.00589584      -0.03392550      -0.15272417       0.01851907
Ni      19.38834311      38.77959834      33.48886363       0.60000000      -0.00928008      -0.01937977      -0.02475153      -0.02219264
Ni      19.38685803      40.54164531      31.72429996       0.60000000      -0.00533181      -0.03824931      -0.17393395       0.01467982
Ni      17.62355627      38.77618242      35.24927912       0.60000000      -0.00915506      -0.01196931      -0.01262921      -0.01410598
Ni      17.62264563      40.53605451      37.00994034       0.60000000      -0.00659852      -0.02862327      -0.12195009       0.01428841
Ni      19.38706734      38.77577566      37.01258604       0.60000000      -0.00932740      -0.00798875      -0.01081234      -0.01229058
Ni      19.38657161      40.53847256      35.24901134       0.60000000      -0.00613067      -0.03393185      -0.14052097       0.01259670
Ni      17.62280217      38.77314357      38.77314357       0.60000000      -0.01099229      -0.00256637       0.00068239       0.00068239
Ni      17.62212174      40.53373723      40.53373723       0.60000000      -0.00657246      -0.04472229      -0.08965824      -0.08965824
Ni      19.38569479      38.77273466      40.53562322       0.60000000      -0.00861413      -0.02717849       0.01580998      -0.11140044
Ni      19.38569479      40.53562322      38.77273466       0.60000000      -0.00861413      -0.02717849      -0.11140044       0.01580998
Ni      21.14724140      -0.00738609      -0.00738609       0.60000000      -0.00664264      -0.03751116       0.09044377       0.09044377
Ni      21.14827066       1.75320572       1.75320572       0.60000000      -0.01104915      -0.00071783      -0.00594286      -0.00594286
Ni      22.91049220      -0.00838068       1.75423891       0.60000000      -0.00876950      -0.02048232       0.09624287      -0.01724805
Ni      22.91049220       1.75423891      -0.00838068       0.60000000      -0.00876950      -0.02048232      -0.01724805       0.09624287
Ni      21.14813793      -0.00941841       3.51605005       0.60000000      -0.00698849      -0.02341552       0.11410744      -0.01437040
Ni      21.14957869       1.75056136       5.27647616       0.60000000      -0.00962470      -0.00090630      -0.00793878      -0.00014851
Ni      22.91162985      -0.01057167       5.27775009       0.60000000      -0.00688097      -0.02553913       0.12322411      -0.01431924
Ni      22.91199218       1.75194395       3.51473544       0.60000000      -0.00944555      -0.00061302      -0.00681287      -0.00034702
Ni      21.14896787      -0.01186636       7.03981773       0.60000000      -0.00662969      -0.02875867       0.14563874      -0.01726411
Ni      21.15072157       1.74735969       8.80023019       0.60000000      -0.01011625      -0.00120459      -0.00948033      -0.00036614
Ni      22.91256453      -0.01309500       8.80166195       0.60000000      -0.00650259      -0.02984350       0.15424873      -0.01577949
Ni      22.91363329       1.74911248       7.03811451       0.60000000      -0.00977996      -0.00095485      -0.00898218      -0.00039746
Ni      21.14930191      -0.01458655      10.56420222       0.60000000      -0.00616578      -0.03208842       0.17980587      -0.01873350
Ni      21.15087031       1.74385413      12.32490103       0.60000000      -0.01070131      -0.00135602      -0.01005781      -0.00078715
Ni      22.91273188      -0.01573116      12.32624651       0.60000000      -0.00605074      -0.03025878       0.18538002      -0.01421932
Ni      22.91482793       1.74586687      10.56206345       0.60000000      -0.01031934      -0.00115563      -0.01048448      -0.00054926
Ni      21.14855161      -0.01722602      14.08952732       0.60000000      -0.00568605      -0.03000305       0.20997470      -0.01698987
Ni      21.14906032       1.74064512      15.85097976       0.60000000      -0.01111456      -0.00137205      -0.00947462      -0.00122197
Ni      22.91154538      -0.01806659      15.85177931       0.60000000      -0.00563164      -0.02313792       0.21069088      -0.00826029
Ni      22.91454343       1.74256401      14.08697853       0.60000000      -0.01083855      -0.00117192      -0.01095706      -0.00072823
Ni      21.14643700      -0.01921861      17.61600968       0.60000000      -0.00534945      -0.01970031       0.22867986      -0.01125180
Ni      21.14530828       1.73865106      19.37874420       0.60000000      -0.01125689      -0.00117741      -0.00843746      -0.00118684
Ni      22.90896806      -0.01953562      19.37839408       0.60000000      -0.00536968      -0.00720261       0.22614548       0.00171973
Ni      22.91198122       1.73986866      17.61327943       0.60000000      -0.01109143      -0.00098168      -0.01024726      -0.00082690
Ni      21.14348856      -0.01997079      21.14348856       0.60000000      -0.00526386      -0.00218748       0.23276636      -0.00218748
Ni      21.14112079       1.73865106      22.90768487       0.60000000      -0.01122505      -0.00061240      -0.00879128      -0.00065843
Ni      22.90582427      -0.01964331      22.90582427       0.60000000      -0.00531673       0.01344599       0.23019417       0.01344599
Ni      22.90768487       1.73865106      21.14112079       0.60000000      -0.01122505      -0.00065843      -0.00879128      -0.00061240
Ni      21.14080397      -0.01921861      24.67123130       0.60000000      -0.00542580       0.01670051       0.22358570       0.00813025
Ni      21.13823684       1.74064512      26.43631740       0.60000000      -0.01088865       0.00046380      -0.01144643       0.00003983
Ni      22.90327777      -0.01829721      26.43328589       0.60000000      -0.00549018       0.03059379       0.22064097       0.02309148
Ni      22.90349611       1.73948966      24.66983197       0.60000000      -0.01103413       0.00006460      -0.00958800      -0.00005836
Ni      21.13921328      -0.01722602      28.19823757       0.60000000      -0.00578873       0.02952188       0.20294111       0.01632103
Ni      21.13725057       1.74385413      29.96321984       0.60000000      -0.01049404       0.00140801      -0.01302190       0.00067936
Ni      22.90197926      -0.01591416      29.95988638       0.60000000      -0.00589087       0.03804528       0.19686644       0.02728759
Ni      22.90100319       1.74212565      28.19793056       0.60000000      -0.01070906       0.00115381      -0.01151100       0.00053462
Ni      21.13882525      -0.01458655      31.72392494       0.60000000      -0.00626454       0.03300739       0.17351867       0.01966579
Ni      21.13767805       1.74735969      33.48816942       0.60000000      -0.01000887       0.00169251      -0.01222872       0.00094283
Ni      22.90181599      -0.01313866      33.48525239       0.60000000      -0.00639297       0.03637957       0.16414069       0.02583819
Ni      22.90041881       1.74563153      31.72429996       0.60000000      -0.01028768       0.00188129      -0.01199566       0.00088413
Ni      21.13925501      -0.01186636      35.24840515       0.60000000      -0.00671523       0.02982250       0.14096536       0.01849647
Ni      21.13875410       1.75056136      37.01185663       0.60000000      -0.00956935       0.00147082      -0.00983678       0.00100973
Ni      22.90230547      -0.01048748      37.00960229       0.60000000      -0.00683056       0.03022560       0.13053523       0.02137409
Ni      22.90101778       1.74911682      35.24901134       0.60000000      -0.00977718       0.00189590      -0.01062370       0.00083257
Ni      21.14004149      -0.00941841      38.77212936       0.60000000      -0.00865534       0.02434139       0.11092500       0.02072292
Ni      21.13992840       1.75320572      40.53499335       0.60000000      -0.00895154       0.02382566      -0.01303502      -0.09733005
Ni      22.90301395      -0.00822346      40.53334442       0.60000000      -0.00666222       0.04590222       0.10249382      -0.07508308
Ni      22.90202991       1.75210147      38.77273466       0.60000000      -0.01122113       0.00150238      -0.00757880       0.00642588
Ni      21.14813793       3.51605005      -0.00941841       0.60000000      -0.00698849      -0.02341552      -0.01437040       0.11410744
Ni      21.14957869       5.27647616       1.75056136       0.60000000      -0.00962470      -0.00090630      -0.00014851      -0.00793878
Ni      22.91199218       3.51473544       1.75194395       0.60000000      -0.00944555      -0.00061302      -0.00034702      -0.00681287
Ni      22.91162985       5.27775009      -0.01057167       0.60000000      -0.00688097      -0.02553913      -0.01431924       0.12322411
Ni      21.14980227       3.51335916       3.51335916       0.60000000      -0.00751477      -0.00027261       0.00396044       0.00396044
Ni      21.14846998       5.27428667       5.27428667       0.60000000      -0.00742274       0.00421339      -0.00000549      -0.00000549
Ni      22.91425098       3.51174259       5.27476922       0.60000000      -0.00749623      -0.01104252       0.00939162       0.00534008
Ni      22.91425098       5.27476922       3.51174259       0.60000000      -0.00749623      -0.01104252       0.00534008       0.00939162
Ni      21.15179391       3.50984576       7.03639362       0.60000000      -0.00728946      -0.01834566       0.00965723       0.00764326
Ni      21.14770484       5.27032069       8.79881281       0.60000000      -0.00734042       0.00342048      -0.00232007      -0.00412453
Ni      22.91669171       3.50802787       8.79796256       0.60000000      -0.00730922      -0.02565199       0.00981491       0.00732912
Ni      22.91063916       5.27276656       7.03618865       0.60000000      -0.00735215       0.00581190      -0.00088693      -0.00012708
Ni      21.15336239       3.50557741      10.56014380       0.60000000      -0.00718489      -0.02480736       0.00593389       0.00806068
Ni      21.14800885       5.26418818      12.32247247       0.60000000      -0.00736034      -0.00194151      -0.00038921      -0.00077740
Ni      22.91810667       3.50379840      12.32195859       0.60000000      -0.00720436      -0.03293434       0.00565533       0.00882709
Ni      22.91117883       5.26804631      10.56038738       0.60000000      -0.00735301       0.00117888      -0.00056193      -0.00189307
Ni      21.15281734       3.50099600      14.08527426       0.60000000      -0.00705736      -0.03042517       0.00428427       0.00605326
Ni      21.14440580       5.25838829      15.84683238       0.60000000      -0.00713614       0.00319517       0.00180759       0.00364065
Ni      22.91658987       3.49962409      15.84735389       0.60000000      -0.00715361      -0.03425879       0.00921413       0.01045217
Ni      22.91043220       5.26204118      14.08488866       0.60000000      -0.00722813       0.00232291       0.00226027      -0.00102394
Ni      21.14876253       3.49716161      17.61260411       0.60000000      -0.00708004      -0.02330134       0.01257503       0.00270415
Ni      21.14127970       5.25530802      19.37482771       0.60000000      -0.00706408      -0.00347763      -0.00113281      -0.00228110
Ni      22.91140104       3.49662304      19.37489443       0.60000000      -0.00695015      -0.02264016       0.01501651       0.00428496
Ni      22.90756540       5.25812672      17.60968048       0.60000000      -0.00709685       0.00114690      -0.00213775       0.00121188
Ni      21.14249237       3.49561127      21.14249237       0.60000000      -0.00686876      -0.00711431       0.01583944      -0.00711431
Ni      21.13770493       5.25546380      22.90416602       0.60000000      -0.00703717       0.00168922       0.00929533       0.00092858
Ni      22.90472232       3.49617717      22.90472232       0.60000000      -0.00683206      -0.00100345       0.02231855      -0.00100345
Ni      22.90416602       5.25546380      21.13770493       0.60000000      -0.00703717       0.00092858       0.00929533       0.00168922
Ni      21.13730211       3.49716161      24.67346053       0.60000000      -0.00693996       0.00950683       0.02193979      -0.01584993
Ni      21.13544662       5.26088404      26.43392702       0.60000000      -0.00704823       0.00114716      -0.00013525      -0.00042657
Ni      22.89994853       3.49873233      26.43510414       0.60000000      -0.00686020       0.00969928       0.02669881      -0.01287330
Ni      22.90085124       5.25864867      24.66725109       0.60000000      -0.00695509      -0.00142222       0.00155110      -0.00215528
Ni      21.13508490       3.50099600      28.20262798       0.60000000      -0.00710978       0.01402666       0.02573020      -0.02136238
Ni      21.13640374       5.26669833      29.96270831       0.60000000      -0.00712345      -0.00211581       0.00282707      -0.00359660
Ni      22.89839729       3.50314019      29.96339779       0.60000000      -0.00698777       0.01462730       0.02475821      -0.01753958
Ni      22.89911422       5.26387732      28.19599437       0.60000000      -0.00701299      -0.00034428       0.00191066      -0.00088801
Ni      21.13537092       3.50557741      31.72858951       0.60000000      -0.00722233       0.01388929       0.02328256      -0.01790944
Ni      21.13771496       5.27205687      33.48801618       0.60000000      -0.00722608      -0.00325224       0.00168873       0.00069687
Ni      22.89907298       3.50781775      33.48886363       0.60000000      -0.00717041       0.01324031       0.02211816      -0.01352473
Ni      22.90051694       5.26928109      31.72356573       0.60000000      -0.00704567      -0.00272432       0.00404465      -0.00053279
Ni      21.13686295       3.50984576      35.25226324       0.60000000      -0.00739615       0.00794336       0.02272422      -0.01278211
Ni      21.13761058       5.27585264      37.01260645       0.60000000      -0.00755994       0.00011379      -0.00305568       0.00286797
Ni      22.90056281       3.51185449      37.01258604       0.60000000      -0.00746473       0.00510179       0.01815847      -0.00994002
Ni      22.90112164       5.27437516      35.24901113       0.60000000      -0.00711786      -0.00232792      -0.00083876       0.00138026
Ni      21.13857452       3.51335916      38.77501763       0.60000000      -0.00955993       0.00149150       0.00774314      -0.00134875
Ni      21.13875410       5.27647616      40.53777143       0.60000000      -0.00657765       0.03055303      -0.00865056      -0.12311469
Ni      22.90202991       3.51499004      40.53562322       0.60000000      -0.00696962       0.02873280      -0.00816075      -0.10774152
Ni      22.90056281       5.27504411      38.77577566       0.60000000      -0.00957195       0.00489539       0.00972264      -0.01077454
Ni      21.14896787       7.03981773      -0.01186636       0.60000000      -0.00662969      -0.02875867      -0.01726411       0.14563874
Ni      21.15072157       8.80023019       1.74735969       0.60000000      -0.01011625      -0.00120459      -0.00036614      -0.00948033
Ni      22.91363329       7.03811451       1.74911248       0.60000000      -0.00977996      -0.00095485      -0.00039746      -0.00898218
Ni      22.91256453       8.80166195      -0.01309500       0.60000000      -0.00650259      -0.02984350      -0.01577949       0.15424873
Ni      21.15179391       7.03639362       3.50984576       0.60000000      -0.00728946      -0.01834566       0.00764326       0.00965723
Ni      21.14770484       8.79881281       5.27032069       0.60000000      -0.00734042       0.00342048      -0.00412453      -0.00232007
Ni      22.91063916       7.03618865       5.27276656       0.60000000      -0.00735215       0.00581190      -0.00012708      -0.00088693
Ni      22.91669171       8.79796256       3.50802787       0.60000000      -0.00730922      -0.02565199       0.00732912       0.00981491
Ni      21.14462638       7.03582746       7.03582746       0.60000000      -0.00730276       0.00875776      -0.00292195      -0.00292195
Ni      21.14151296       8.79750436       8.79750436       0.60000000      -0.00739495       0.00257458      -0.00856248      -0.00856248
Ni      22.90564889       7.03379710       8.79799818       0.60000000      -0.00727520       0.00776652      -0.00325596      -0.00259778
Ni      22.90564889       8.79799818       7.03379710       0.60000000      -0.00727520       0.00776652      -0.00259778      -0.00325596
Ni      21.14370279       7.03046903      10.56078269       0.60000000      -0.00729878      -0.00014539      -0.00433178      -0.00486136
Ni      21.13712733       8.78906095      12.32053776       0.60000000      -0.00723018       0.00573556       0.00197148       0.00228257
Ni      22.90524888       7.02793904      12.32286810       0.60000000      -0.00731453       0.00243828      -0.00107590      -0.00283861
Ni      22.90092019       8.79459660      10.55968948       0.60000000      -0.00728496       0.00798774      -0.00514332      -0.00407369
Ni      21.14113835       7.02300773      14.08353669       0.60000000      -0.00722222      -0.00067022      -0.00316155      -0.00005690
Ni      21.13349481       8.78072687      15.84380816       0.60000000      -0.00710223       0.00865229       0.00864773       0.00158967
Ni      22.90325189       7.02108841      15.84568121       0.60000000      -0.00708443       0.00138765       0.00419735       0.00533337
Ni      22.89886324       8.78760813      14.08327902       0.60000000      -0.00715547       0.00545557       0.00242094       0.00341078
Ni      21.13653606       7.01583530      17.60756980       0.60000000      -0.00705185       0.00735198       0.01061180       0.00489301
Ni      21.13033789       8.77656306      19.36693076       0.60000000      -0.00697967       0.00388368       0.00677975       0.00229589
Ni      22.90052986       7.01698299      19.37103318       0.60000000      -0.00670229       0.00111703       0.00367093      -0.00068369
Ni      22.89640896       8.78043194      17.60637029       0.60000000      -0.00698888       0.00328186       0.00623815       0.00028492
Ni      21.13487883       7.01525868      21.13487883       0.60000000      -0.00670347       0.00084252       0.00414522       0.00084252
Ni      21.12967897       8.77831421      22.89365496       0.60000000      -0.00669612       0.00747397       0.01235462       0.00837491
Ni      22.89843939       7.01816928      22.89843939       0.60000000      -0.00678665       0.00069533       0.00564227       0.00069533
Ni      22.89365496       8.77831421      21.12967897       0.60000000      -0.00669612       0.00837491       0.01235462       0.00747397
Ni      21.13384145       7.01932635      24.66443741       0.60000000      -0.00676183       0.00118808       0.00707738       0.00013225
Ni      21.13066078       8.78582021      26.42496930       0.60000000      -0.00654122       0.00273175      -0.00019912      -0.00047352
Ni      22.89721081       7.02394958      26.42774463       0.60000000      -0.00654228       0.00268692       0.00599836       0.00079329
Ni      22.89345750       8.78325332      24.65847095       0.60000000      -0.00660751       0.00160173       0.00309553      -0.00095892
Ni      21.13410911       7.02621027      28.19422497       0.60000000      -0.00658040       0.00295751       0.00645907       0.00075333
Ni      21.13288389       8.79267750      29.95555039       0.60000000      -0.00647507       0.00461229       0.00575098       0.00055265
Ni      22.89875965       7.03059483      29.95685693       0.60000000      -0.00650625      -0.00109606       0.00350690      -0.00060772
Ni      22.89448356       8.79081505      28.18880859       0.60000000      -0.00645104       0.00438274       0.00414228       0.00187955
Ni      21.13722665       7.03288781      31.72303083       0.60000000      -0.00660770      -0.00499419       0.00383895      -0.00066909
Ni      21.13628763       8.79806244      33.48610585       0.60000000      -0.00643655      -0.00162474       0.00512769      -0.00320060
Ni      22.90145159       7.03594410      33.48513185       0.60000000      -0.00655384      -0.00570313       0.00234085      -0.00110449
Ni      22.89788892       8.79711858      31.71937920       0.60000000      -0.00639966       0.00189321       0.00546076      -0.00121489
Ni      21.13755720       7.03756361      35.24962330       0.60000000      -0.00663333      -0.00138217      -0.00022056       0.00210105
Ni      21.13641126       8.79916761      37.01596438       0.60000000      -0.00716135       0.00005521       0.00183856      -0.00163056
Ni      22.90066077       7.03794004      37.01286504       0.60000000      -0.00707825      -0.00087577      -0.00025380       0.00120895
Ni      22.90051477       8.79992122      35.24988875       0.60000000      -0.00647934      -0.00345654       0.00361648      -0.00380820
Ni      21.13686295       7.03639362      38.77881110       0.60000000      -0.00978067       0.00611778       0.01014946      -0.01597292
Ni      21.13767805       8.80023019      40.54103993       0.60000000      -0.00598042       0.03689112      -0.00934199      -0.15375158
Ni      22.90101778       7.03857804      40.53847256       0.60000000      -0.00631102       0.03648540      -0.00983896      -0.13544281
Ni      22.89907298       8.79855246      38.77959834       0.60000000      -0.00979432       0.00988787       0.01142319      -0.01555794
Ni      21.14930191      10.56420222      -0.01458655       0.60000000      -0.00616578      -0.03208842      -0.01873350       0.17980587
Ni      21.15087031      12.32490103       1.74385413       0.60000000      -0.01070131      -0.00135602      -0.00078715      -0.01005781
Ni      22.91482793      10.56206345       1.74586687       0.60000000      -0.01031934      -0.00115563      -0.00054926      -0.01048448
Ni      22.91273188      12.32624651      -0.01573116       0.60000000      -0.00605074      -0.03025878      -0.01421932       0.18538002
Ni      21.15336239      10.56014380       3.50557741       0.60000000      -0.00718489      -0.02480736       0.00806068       0.00593389
Ni      21.14800885      12.32247247       5.26418818       0.60000000      -0.00736034      -0.00194151      -0.00077740      -0.00038921
Ni      22.91117883      10.56038738       5.26804631       0.60000000      -0.00735301       0.00117888      -0.00189307      -0.00056193
Ni      22.91810667      12.32195859       3.50379840       0.60000000      -0.00720436      -0.03293434       0.00882709       0.00565533
Ni      21.14370279      10.56078269       7.03046903       0.60000000      -0.00729878      -0.00014539      -0.00486136      -0.00433178
Ni      21.13712733      12.32053776       8.78906095       0.60000000      -0.00723018       0.00573556       0.00228257       0.00197148
Ni      22.90092019      10.55968948       8.79459660       0.60000000      -0.00728496       0.00798774      -0.00407369      -0.00514332
Ni      22.90524888      12.32286810       7.02793904       0.60000000      -0.00731453       0.00243828      -0.00283861      -0.00107590
Ni      21.13554516      10.55673959      10.55673959       0.60000000      -0.00714776       0.00785823      -0.00299117      -0.00299117
Ni      21.13044456      12.31470166      12.31470166       0.60000000      -0.00716740       0.00786804       0.00359724       0.00359724
Ni      22.89570094      10.55378204      12.31935648       0.60000000      -0.00711546       0.00957715       0.00474953       0.00347057
Ni      22.89570094      12.31935648      10.55378204       0.60000000      -0.00711546       0.00957715       0.00347057       0.00474953
Ni      21.13128278      10.54718294      14.07998676       0.60000000      -0.00729511       0.00757082       0.00710350       0.00091195
Ni      21.12679328      12.30725684      15.83789010       0.60000000      -0.00709909      -0.00291217       0.00395304       0.00439769
Ni      22.89374485      10.54695848      15.84365829       0.60000000      -0.00715369       0.00418530       0.00768905      -0.00014715
Ni      22.89303605      12.31298857      14.07866939       0.60000000      -0.00715685      -0.00002969       0.00471851       0.00090769
Ni      21.12771352      10.54155965      17.60234275       0.60000000      -0.00720518       0.00354152       0.01296262       0.00600986
Ni      21.12205091      12.30525959      19.36131479       0.60000000      -0.00706218       0.00086968      -0.00810817      -0.00510864
Ni      22.89010138      10.54263807      19.36484087       0.60000000      -0.00692690       0.00448204       0.00278844       0.00127830
Ni      22.88869986      12.30930423      17.60230330       0.60000000      -0.00702672      -0.00842056      -0.00981204      -0.00461223
Ni      21.12528462      10.54032869      21.12528462       0.60000000      -0.00677940       0.00433996       0.00123299       0.00433996
Ni      21.12290231      12.30574663      22.88439709       0.60000000      -0.00704475       0.01397576       0.00554423       0.01440245
Ni      22.88850992      10.54306753      22.88850992       0.60000000      -0.00677070       0.00595383       0.00345921       0.00595383
Ni      22.88439709      12.30574663      21.12290231       0.60000000      -0.00704475       0.01440245       0.00554423       0.01397576
Ni      21.12707900      10.54460857      24.65404534       0.60000000      -0.00684720       0.00273893       0.00648065       0.00433831
Ni      21.12634967      12.31242319      26.41592028       0.60000000      -0.00679691      -0.00754735      -0.00724761      -0.00112313
Ni      22.88983133      10.54960689      26.41903784       0.60000000      -0.00654223       0.00549036       0.00199949       0.00678106
Ni      22.88598831      12.30863457      24.64948181       0.60000000      -0.00672968       0.00379889      -0.00175246      -0.00040074
Ni      21.12889459      10.55271134      28.18666362       0.60000000      -0.00648308       0.00459404      -0.00077587       0.00113469
Ni      21.12720446      12.31884598      29.95003669       0.60000000      -0.00661009       0.00927715      -0.00211275       0.00112809
Ni      22.89299497      10.55796312      29.95175750       0.60000000      -0.00636467       0.00055730      -0.00264374       0.00078147
Ni      22.88808320      12.31665752      28.18172828       0.60000000      -0.00657933       0.00265991      -0.00553181       0.00504724
Ni      21.13210466      10.55838102      31.71929512       0.60000000      -0.00642390       0.00118400       0.00382642      -0.00175035
Ni      21.13197053      12.32225890      33.48521659       0.60000000      -0.00640558       0.00156846       0.00199949       0.00229126
Ni      22.89736742      10.56188929      33.48471933       0.60000000      -0.00642521      -0.00011237       0.00323292      -0.00461522
Ni      22.89240153      12.32272548      31.71654629       0.60000000      -0.00634851       0.00204868      -0.00177012       0.00650811
Ni      21.13522814      10.56083595      35.25238553       0.60000000      -0.00649379       0.00023022       0.00610057      -0.00675861
Ni      21.13486105      12.32315450      37.01950979       0.60000000      -0.00692373       0.00181082       0.00228541      -0.00076241
Ni      22.89919270      10.56176369      37.01667742       0.60000000      -0.00693701      -0.00109088       0.00356184      -0.00300160
Ni      22.89713411      12.32457774      35.25183254       0.60000000      -0.00625127       0.00040588       0.00167218      -0.00204727
Ni      21.13537092      10.56014380      38.78315590       0.60000000      -0.01015017       0.00943741       0.01192178      -0.02241584
Ni      21.13725057      12.32490103      40.54426675       0.60000000      -0.00529488       0.03909137      -0.00759402      -0.18568879
Ni      22.90041881      10.56297688      40.54164531       0.60000000      -0.00570940       0.04209818      -0.01087483      -0.16737056
Ni      22.89839729      12.32333758      38.78359517       0.60000000      -0.01005955       0.01081844       0.01480500      -0.02117307
Ni      21.14855161      14.08952732      -0.01722602       0.60000000      -0.00568605      -0.03000305      -0.01698987       0.20997470
Ni      21.14906032      15.85097976       1.74064512       0.60000000      -0.01111456      -0.00137205      -0.00122197      -0.00947462
Ni      22.91454343      14.08697853       1.74256401       0.60000000      -0.01083855      -0.00117192      -0.00072823      -0.01095706
Ni      22.91154538      15.85177931      -0.01806659       0.60000000      -0.00563164      -0.02313792      -0.00826029       0.21069088
Ni      21.15281734      14.08527426       3.50099600       0.60000000      -0.00705736      -0.03042517       0.00605326       0.00428427
Ni      21.14440580      15.84683238       5.25838829       0.60000000      -0.00713614       0.00319517       0.00364065       0.00180759
Ni      22.91043220      14.08488866       5.26204118       0.60000000      -0.00722813       0.00232291      -0.00102394       0.00226027
Ni      22.91658987      15.84735389       3.49962409       0.60000000      -0.00715361      -0.03425879       0.01045217       0.00921413
Ni      21.14113835      14.08353669       7.02300773       0.60000000      -0.00722222      -0.00067022      -0.00005690      -0.00316155
Ni      21.13349481      15.84380816       8.78072687       0.60000000      -0.00710223       0.00865229       0.00158967       0.00864773
Ni      22.89886324      14.08327902       8.78760813       0.60000000      -0.00715547       0.00545557       0.00341078       0.00242094
Ni      22.90325189      15.84568121       7.02108841       0.60000000      -0.00708443       0.00138765       0.00533337       0.00419735
Ni      21.13128278      14.07998676      10.54718294       0.60000000      -0.00729511       0.00757082       0.00091195       0.00710350
Ni      21.12679328      15.83789010      12.30725684       0.60000000      -0.00709909      -0.00291217       0.00439769       0.00395304
Ni      22.89303605      14.07866939      12.31298857       0.60000000      -0.00715685      -0.00002969       0.00090769       0.00471851
Ni      22.89374485      15.84365829      10.54695848       0.60000000      -0.00715369       0.00418530      -0.00014715       0.00768905
Ni      21.12635552      14.07299923      14.07299923       0.60000000      -0.00691040      -0.00556741      -0.00131946      -0.00131946
Ni      21.11559852      15.83117116      15.83117116       0.60000000      -0.00687872       0.01667679       0.00082107       0.00082107
Ni      22.88722723      14.07283216      15.83677191       0.60000000      -0.00697935      -0.00933065      -0.00272928       0.00252185
Ni      22.88722723      15.83677191      14.07283216       0.60000000      -0.00697935      -0.00933065       0.00252185      -0.00272928
Ni      21.11797619      14.06750836      17.59576648       0.60000000      -0.00711111       0.00900047       0.00640048       0.00150247
Cr      21.11869273      15.83127986      19.35743300       0.60000000      -0.00754691      -0.01105424      -0.00912180      -0.01743160
Ni      22.88016540      14.07010971      19.35963346       0.60000000      -0.00676690       0.01712354      -0.00706074       0.00296300
Ni      22.87477203      15.83191824      17.59469240       0.60000000      -0.00705387       0.03795180       0.00299957       0.00575871
Cr      21.12231624      14.06995174      21.12231624       0.60000000      -0.00720598      -0.00667257      -0.01203634      -0.00667257
Cr      21.11985478      15.83154282      22.88151295       0.60000000      -0.00722707       0.01180064       0.01520782       0.01150360
Cr      22.88576971      14.07121378      22.88576971       0.60000000      -0.00727626      -0.00636830      -0.00701980      -0.00636830
Cr      22.88151295      15.83154282      21.11985478       0.60000000      -0.00722707       0.01150360       0.01520782       0.01180064
Ni      21.12320451      14.07158563      24.64447060       0.60000000      -0.00703482      -0.00700908      -0.00127280       0.01483588
Ni      21.12133166      15.83543452      26.40775759       0.60000000      -0.00690203       0.00372776       0.00843931       0.01876853
Ni      22.88391587      14.07357102      26.41062815       0.60000000      -0.00666359       0.01780901       0.00681042       0.01966472
Cr      22.88427518      15.83402899      24.64817600       0.60000000      -0.00685585      -0.01029996      -0.00114847      -0.01401990
Ni      21.12525348      14.07834958      28.17775104       0.60000000      -0.00674524      -0.00298014      -0.00426256       0.01938380
Ni      21.12498207      15.84045080      29.94777205       0.60000000      -0.00633991       0.00276042       0.00623985       0.00084755
Ni      22.88711917      14.08080578      29.94662195       0.60000000      -0.00642213       0.00817599       0.00073127       0.01260979
Ni      22.88394194      15.83802204      28.17777746       0.60000000      -0.00690494       0.00368446       0.00273166      -0.00074273
Ni      21.12797340      14.08269577      31.71628863       0.60000000      -0.00628473       0.00401862      -0.00463554       0.01427245
Ni      21.13088018      15.84519528      33.48767145       0.60000000      -0.00615866      -0.00078084       0.00331763       0.00011055
Ni      22.89366927      14.08533328      33.48499832       0.60000000      -0.00607597       0.00070880       0.00100976       0.00426096
Ni      22.88824304      15.84302150      31.71752037       0.60000000      -0.00635887       0.01094095       0.01075404      -0.00181778
Ni      21.13350066      14.08486291      35.25410551       0.60000000      -0.00615328      -0.00129511       0.00361297       0.00000062
Ni      21.13552116      15.84955747      37.02198831       0.60000000      -0.00678198      -0.00296156      -0.00541208       0.00343284
Ni      22.89821821      14.08780981      37.01974653       0.60000000      -0.00668896      -0.00126954      -0.00226732       0.00037424
Ni      22.89633039      15.84953680      35.25429436       0.60000000      -0.00603123       0.00435593       0.00026495      -0.00115527
Ni      21.13508490      14.08527426      38.78690624       0.60000000      -0.01040525       0.01211304       0.01489029      -0.02868154
Ni      21.13823684      15.85097976      40.54665203       0.60000000      -0.00468599       0.03233015      -0.00321126      -0.21443234
Ni      22.90100319      14.08874547      40.54455037       0.60000000      -0.00504257       0.04050592      -0.01043894      -0.19926830
Ni      22.89994853      15.85032365      38.78669546       0.60000000      -0.01021572       0.01006889       0.01327431      -0.02195626
Ni      21.14643700      17.61600968      -0.01921861       0.60000000      -0.00534945      -0.01970031      -0.01125180       0.22867986
Ni      21.14530828      19.37874420       1.73865106       0.60000000      -0.01125689      -0.00117741      -0.00118684      -0.00843746
Ni      22.91198122      17.61327943       1.73986866       0.60000000      -0.01109143      -0.00098168      -0.00082690      -0.01024726
Ni      22.90896806      19.37839408      -0.01953562       0.60000000      -0.00536968      -0.00720261       0.00171973       0.22614548
Ni      21.14876253      17.61260411       3.49716161       0.60000000      -0.00708004      -0.02330134       0.00270415       0.01257503
Ni      21.14127970      19.37482771       5.25530802       0.60000000      -0.00706408      -0.00347763      -0.00228110      -0.00113281
Ni      22.90756540      17.60968048       5.25812672       0.60000000      -0.00709685       0.00114690       0.00121188      -0.00213775
Ni      22.91140104      19.37489443       3.49662304       0.60000000      -0.00695015      -0.02264016       0.00428496       0.01501651
Ni      21.13653606      17.60756980       7.01583530       0.60000000      -0.00705185       0.00735198       0.00489301       0.01061180
Ni      21.13033789      19.36693076       8.77656306       0.60000000      -0.00697967       0.00388368       0.00229589       0.00677975
Ni      22.89640896      17.60637029       8.78043194       0.60000000      -0.00698888       0.00328186       0.00028492       0.00623815
Ni      22.90052986      19.37103318       7.01698299       0.60000000      -0.00670229       0.00111703      -0.00068369       0.00367093
Ni      21.12771352      17.60234275      10.54155965       0.60000000      -0.00720518       0.00354152       0.00600986       0.01296262
Ni      21.12205091      19.36131479      12.30525959       0.60000000      -0.00706218       0.00086968      -0.00510864      -0.00810817
Ni      22.88869986      17.60230330      12.30930423       0.60000000      -0.00702672      -0.00842056      -0.00461223      -0.00981204
Ni      22.89010138      19.36484087      10.54263807       0.60000000      -0.00692690       0.00448204       0.00127830       0.00278844
Ni      21.11797619      17.59576648      14.06750836       0.60000000      -0.00711111       0.00900047       0.00150247       0.00640048
Cr      21.11869273      19.35743300      15.83127986       0.60000000      -0.00754691      -0.01105424      -0.01743160      -0.00912180
Ni      22.87477203      17.59469240      15.83191824       0.60000000      -0.00705387       0.03795180       0.00575871       0.00299957
Ni      22.88016540      19.35963346      14.07010971       0.60000000      -0.00676690       0.01712354       0.00296300      -0.00706074
Cr      21.11557212      17.59255772      17.59255772       0.60000000      -0.00750364       0.00508533      -0.00494762      -0.00494762
Cr      21.11037646      19.34821070      19.34821070       0.60000000      -0.00730469       0.04388158       0.04218957       0.04218957
Cr      22.88122297      17.59367614      19.35648931       0.60000000      -0.00744536      -0.01744274       0.00123777      -0.00718103
Cr      22.88122297      19.35648931      17.59367614       0.60000000      -0.00744536      -0.01744274      -0.00718103       0.00123777
Cr      21.11368504      17.58941776      21.11368504       0.60000000      -0.00689646       0.03010816       0.02032355       0.03010816
Cr      21.11282866      19.35111793      22.87468441       0.60000000      -0.00716491      -0.00635828      -0.01283662       0.00760207
Cr      22.87979657      17.59179082      22.87979657       0.60000000      -0.00733212      -0.01743456      -0.00420606      -0.01743456
Cr      22.87468441      19.35111793      21.11282866       0.60000000      -0.00716491       0.00760207      -0.01283662      -0.00635828
Cr      21.11905663      17.59547602      24.64667625       0.60000000      -0.00731034      -0.00435288      -0.01309245      -0.02068510
Cr      21.11831236      19.35518648      26.41231471       0.60000000      -0.00682707      -0.00753952       0.01151251      -0.00194255
Cr      22.88145240      17.59745201      26.41249245       0.60000000      -0.00678686       0.00745380      -0.01495359      -0.00760642
Cr      22.87673110      19.35057451      24.63946202       0.60000000      -0.00688045      -0.00284056       0.02382186       0.01831651
Ni      21.11990648      17.59723552      28.17798995       0.60000000      -0.00683769       0.01536892       0.01279442       0.00996539
Ni      21.12389240      19.36183915      29.94874252       0.60000000      -0.00665055      -0.01522507      -0.00752701      -0.00169950
Ni      22.88400213      17.60033881      29.94725968       0.60000000      -0.00666847       0.00606982       0.00204166       0.00235006
Cr      22.88216693      19.35750323      28.17990821       0.60000000      -0.00669528      -0.00792722       0.00901766      -0.01799201
Ni      21.12549780      17.60300042      31.71952091       0.60000000      -0.00639871       0.02362078       0.01502092      -0.00045505
Ni      21.13210993      19.37008722      33.48890599       0.60000000      -0.00619824      -0.00517063      -0.00119718      -0.00673881
Ni      22.89388046      17.60853254      33.48722592       0.60000000      -0.00614787      -0.00911596       0.00110930      -0.00380425
Ni      22.88738336      19.36381779      31.71688396       0.60000000      -0.00628136       0.00508106       0.00941650       0.00148365
Ni      21.13489725      17.61087214      35.25621338       0.60000000      -0.00598963       0.00042318       0.00126612      -0.00116373
Ni      21.13803262      19.37614217      37.02325517       0.60000000      -0.00666837       0.00031587       0.00107457       0.00563298
Ni      22.90034300      17.61472662      37.02220789       0.60000000      -0.00660494      -0.00149215      -0.00136232       0.00220868
Ni      22.89883828      19.37672185      35.25527463       0.60000000      -0.00579018      -0.00673241      -0.01278762       0.00215360
Ni      21.13730211      17.61260411      38.78890303       0.60000000      -0.01047811       0.01070916       0.01258932      -0.02608556
Ni      21.14112079      19.37874420      40.54777802       0.60000000      -0.00436333       0.01393914       0.00063223      -0.23455692
Ni      22.90349611      17.61629676      40.54663907       0.60000000      -0.00455940       0.02667419      -0.01020879      -0.22586258
Ni      22.90472232      19.38007210      38.78861724       0.60000000      -0.01014006      -0.00144874      -0.00081360      -0.01960415
Ni      21.14348856      21.14348856      -0.01997079       0.60000000      -0.00526386      -0.00218748      -0.00218748       0.23276636
Ni      21.14112079      22.90768487       1.73865106       0.60000000      -0.01122505      -0.00061240      -0.00065843      -0.00879128
Ni      22.90768487      21.14112079       1.73865106       0.60000000      -0.01122505      -0.00065843      -0.00061240      -0.00879128
Ni      22.90582427      22.90582427      -0.01964331       0.60000000      -0.00531673       0.01344599       0.01344599       0.23019417
Ni      21.14249237      21.14249237       3.49561127       0.60000000      -0.00686876      -0.00711431      -0.00711431       0.01583944
Ni      21.13770493      22.90416602       5.25546380       0.60000000      -0.00703717       0.00168922       0.00092858       0.00929533
Ni      22.90416602      21.13770493       5.25546380       0.60000000      -0.00703717       0.00092858       0.00168922       0.00929533
Ni      22.90472232      22.90472232       3.49617717       0.60000000      -0.00683206      -0.00100345      -0.00100345       0.02231855
Ni      21.13487883      21.13487883       7.01525868       0.60000000      -0.00670347       0.00084252       0.00084252       0.00414522
Ni      21.12967897      22.89365496       8.77831421       0.60000000      -0.00669612       0.00747397       0.00837491       0.01235462
Ni      22.89365496      21.12967897       8.77831421       0.60000000      -0.00669612       0.00837491       0.00747397       0.01235462
Ni      22.89843939      22.89843939       7.01816928       0.60000000      -0.00678665       0.00069533       0.00069533       0.00564227
Ni      21.12528462      21.12528462      10.54032869       0.60000000      -0.00677940       0.00433996       0.00433996       0.00123299
Ni      21.12290231      22.88439709      12.30574663       0.60000000      -0.00704475       0.01397576       0.01440245       0.00554423
Ni      22.88439709      21.12290231      12.30574663       0.60000000      -0.00704475       0.01440245       0.01397576       0.00554423
Ni      22.88850992      22.88850992      10.54306753       0.60000000      -0.00677070       0.00595383       0.00595383       0.00345921
Cr      21.12231624      21.12231624      14.06995174       0.60000000      -0.00720598      -0.00667257      -0.00667257      -0.01203634
Cr      21.11985478      22.88151295      15.83154282       0.60000000      -0.00722707       0.01180064       0.01150360       0.01520782
Cr      22.88151295      21.11985478      15.83154282       0.60000000      -0.00722707       0.01150360       0.01180064       0.01520782
Cr      22.88576971      22.88576971      14.07121378       0.60000000      -0.00727626      -0.00636830      -0.00636830      -0.00701980
Cr      21.11368504      21.11368504      17.58941776       0.60000000      -0.00689646       0.03010816       0.03010816       0.02032355
Cr      21.11282866      22.87468441      19.35111793       0.60000000      -0.00716491      -0.00635828       0.00760207      -0.01283662
Cr      22.87468441      21.11282866      19.35111793       0.60000000      -0.00716491       0.00760207      -0.00635828      -0.01283662
Cr      22.87979657      22.87979657      17.59179082       0.60000000      -0.00733212      -0.01743456      -0.01743456      -0.00420606
Cr      21.11175346      21.11175346      21.11175346       0.60000000      -0.00743215      -0.02746317      -0.02746317      -0.02746317
Cr      21.10772469      22.87105736      22.87105736       0.60000000      -0.00706933       0.02767049       0.02304659       0.02304659
Cr      22.87105736      21.10772469      22.87105736       0.60000000      -0.00706933       0.02304659       0.02767049       0.02304659
Cr      22.87105736      22.87105736      21.10772469       0.60000000      -0.00706933       0.02304659       0.02304659       0.02767049
Cr      21.10889212      21.10889212      24.63750282       0.60000000      -0.00722555       0.02856489       0.02856489       0.02155751
Cr      21.11281240      22.87216389      26.40377299       0.60000000      -0.00673029      -0.00603595       0.02608470       0.00891388
Cr      22.87216389      21.11281240      26.40377299       0.60000000      -0.00673029       0.02608470      -0.00603595       0.00891388
Cr      22.86880353      22.86880353      24.63376161       0.60000000      -0.00688189       0.01191352       0.01191352      -0.00349110
Cr      21.11797486      21.11797486      28.17981866       0.60000000      -0.00632316      -0.00511208      -0.00511208      -0.01236934
Ni      21.12132405      22.88230432      29.94632382       0.60000000      -0.00615604       0.00654339       0.01347397      -0.00115127
Ni      22.88230432      21.12132405      29.94632382       0.60000000      -0.00615604       0.01347397       0.00654339      -0.00115127
Ni      22.87386490      22.87386490      28.17048614       0.60000000      -0.00647831       0.03256940       0.03256940       0.00660349
Ni      21.12553755      21.12553755      31.71730111       0.60000000      -0.00624683       0.00756984       0.00756984       0.00594693
Ni      21.13223787      22.89348087      33.48447846       0.60000000      -0.00591264       0.00721217       0.00582447       0.00455927
Ni      22.89348087      21.13223787      33.48447846       0.60000000      -0.00591264       0.00582447       0.00721217       0.00455927
Ni      22.88709660      22.88709660      31.71371223       0.60000000      -0.00600560       0.00725505       0.00725505      -0.00902317
Ni      21.13786889      21.13786889      35.25606453       0.60000000      -0.00578642      -0.01075401      -0.01075401       0.00052616
Ni      21.14135642      22.90337753      37.02343937       0.60000000      -0.00625515       0.01188210       0.00878614       0.00684014
Ni      22.90337753      21.14135642      37.02343937       0.60000000      -0.00625515       0.00878614       0.01188210       0.00684014
Ni      22.90051278      22.90051278      35.25357745       0.60000000      -0.00596036      -0.00085420      -0.00085420      -0.00020608
Ni      21.14249237      21.14249237      38.78937346       0.60000000      -0.01024034      -0.00238699      -0.00238699      -0.02065924
Ni      21.14530828      22.90768487      40.54777802       0.60000000      -0.00427129      -0.01102630       0.00221270      -0.23880138
Ni      22.90768487      21.14530828      40.54777802       0.60000000      -0.00427129       0.00221270      -0.01102630      -0.23880138
Ni      22.91140104      22.91140104      38.78967243       0.60000000      -0.01004930      -0.02076500      -0.02076500      -0.02988587
Ni      21.14080397      24.67123130      -0.01921861       0.60000000      -0.00542580       0.01670051       0.00813025       0.22358570
Ni      21.13823684      26.43631740       1.74064512       0.60000000      -0.01088865       0.00046380       0.00003983      -0.01144643
Ni      22.90349611      24.66983197       1.73948966       0.60000000      -0.01103413       0.00006460      -0.00005836      -0.00958800
Ni      22.90327777      26.43328589      -0.01829721       0.60000000      -0.00549018       0.03059379       0.02309148       0.22064097
Ni      21.13730211      24.67346053       3.49716161       0.60000000      -0.00693996       0.00950683      -0.01584993       0.02193979
Ni      21.13544662      26.43392702       5.26088404       0.60000000      -0.00704823       0.00114716      -0.00042657      -0.00013525
Ni      22.90085124      24.66725109       5.25864867       0.60000000      -0.00695509      -0.00142222      -0.00215528       0.00155110
Ni      22.89994853      26.43510414       3.49873233       0.60000000      -0.00686020       0.00969928      -0.01287330       0.02669881
Ni      21.13384145      24.66443741       7.01932635       0.60000000      -0.00676183       0.00118808       0.00013225       0.00707738
Ni      21.13066078      26.42496930       8.78582021       0.60000000      -0.00654122       0.00273175      -0.00047352      -0.00019912
Ni      22.89345750      24.65847095       8.78325332       0.60000000      -0.00660751       0.00160173      -0.00095892       0.00309553
Ni      22.89721081      26.42774463       7.02394958       0.60000000      -0.00654228       0.00268692       0.00079329       0.00599836
Ni      21.12707900      24.65404534      10.54460857       0.60000000      -0.00684720       0.00273893       0.00433831       0.00648065
Ni      21.12634967      26.41592028      12.31242319       0.60000000      -0.00679691      -0.00754735      -0.00112313      -0.00724761
Ni      22.88598831      24.64948181      12.30863457       0.60000000      -0.00672968       0.00379889      -0.00040074      -0.00175246
Ni      22.88983133      26.41903784      10.54960689       0.60000000      -0.00654223       0.00549036       0.00678106       0.00199949
Ni      21.12320451      24.64447060      14.07158563       0.60000000      -0.00703482      -0.00700908       0.01483588      -0.00127280
Ni      21.12133166      26.40775759      15.83543452       0.60000000      -0.00690203       0.00372776       0.01876853       0.00843931
Cr      22.88427518      24.64817600      15.83402899       0.60000000      -0.00685585      -0.01029996      -0.01401990      -0.00114847
Ni      22.88391587      26.41062815      14.07357102       0.60000000      -0.00666359       0.01780901       0.01966472       0.00681042
Cr      21.11905663      24.64667625      17.59547602       0.60000000      -0.00731034      -0.00435288      -0.02068510      -0.01309245
Cr      21.11831236      26.41231471      19.35518648       0.60000000      -0.00682707      -0.00753952      -0.00194255       0.01151251
Cr      22.87673110      24.63946202      19.35057451       0.60000000      -0.00688045      -0.00284056       0.01831651       0.02382186
Cr      22.88145240      26.41249245      17.59745201       0.60000000      -0.00678686       0.00745380      -0.00760642      -0.01495359
Cr      21.10889212      24.63750282      21.10889212       0.60000000      -0.00722555       0.02856489       0.02155751       0.02856489
Cr      21.11281240      26.40377299      22.87216389       0.60000000      -0.00673029      -0.00603595       0.00891388       0.02608470
Cr      22.86880353      24.63376161      22.86880353       0.60000000      -0.00688189       0.01191352      -0.00349110       0.01191352
Cr      22.87216389      26.40377299      21.11281240       0.60000000      -0.00673029       0.02608470       0.00891388      -0.00603595
Cr      21.11149023      24.63519307      24.63519307       0.60000000      -0.00674325       0.00134350       0.01516727       0.01516727
Ni      21.11533342      26.40249783      26.40249783       0.60000000      -0.00651098       0.01836968      -0.00334333      -0.00334333
Ni      22.87196054      24.63309182      26.39725298       0.60000000      -0.00658565       0.00967608       0.01155234       0.03273583
Ni      22.87196054      26.39725298      24.63309182       0.60000000      -0.00658565       0.00967608       0.03273583       0.01155234
Ni      21.11717655      24.63880820      28.16956721       0.60000000      -0.00650994       0.00646417       0.00442860       0.01430413
Ni      21.12165228      26.40528795      29.93675184       0.60000000      -0.00607759       0.00889529       0.00768762       0.01462852
Ni      22.88105709      24.64224927      29.93679719       0.60000000      -0.00594497      -0.00476189      -0.00731766       0.01478967
Ni      22.87794215      26.39948229      28.16653095       0.60000000      -0.00610413       0.00928139       0.01788205      -0.00374752
Ni      21.12559943      24.64848771      31.71218803       0.60000000      -0.00596316       0.01925323       0.00869311       0.00307864
Ni      21.13664224      26.41784621      33.48005113       0.60000000      -0.00559963      -0.01315626      -0.00148553       0.00301853
Ni      22.89597713      24.65654103      33.48053446       0.60000000      -0.00554856      -0.01280896      -0.00920548       0.00269188
Ni      22.88688394      26.40876145      31.70472903       0.60000000      -0.00550721       0.01714441       0.01722426       0.01202093
Ni      21.14017857      24.66177220      35.25288640       0.60000000      -0.00579628      -0.00426771      -0.00050958       0.00255800
Ni      21.14603376      26.43157591      37.02018970       0.60000000      -0.00616643       0.00057602       0.00196824       0.00925134
Ni      22.90782844      24.66944472      37.02173144       0.60000000      -0.00609194       0.00034053       0.00179598       0.00935155
Ni      22.90203999      26.42494336      35.24968292       0.60000000      -0.00542660       0.01192781       0.00819959       0.00714047
Ni      21.14876253      24.67346053      38.78890303       0.60000000      -0.00997734      -0.01855880      -0.01938298      -0.02967414
Ni      21.14906032      26.43631740      40.54665203       0.60000000      -0.00432020      -0.03115510       0.00409535      -0.22280711
Ni      22.91198122      24.67438038      40.54779115       0.60000000      -0.00414037      -0.02217674      -0.00949360      -0.23152034
Ni      22.91658987      26.44140513      38.78913493       0.60000000      -0.00979946      -0.03535158      -0.03579086      -0.04018999
Ni      21.13921328      28.19823757      -0.01722602       0.60000000      -0.00578873       0.02952188       0.01632103       0.20294111
Ni      21.13725057      29.96321984       1.74385413       0.60000000      -0.01049404       0.00140801       0.00067936      -0.01302190
Ni      22.90100319      28.19793056       1.74212565       0.60000000      -0.01070906       0.00115381       0.00053462      -0.01151100
Ni      22.90197926      29.95988638      -0.01591416       0.60000000      -0.00589087       0.03804528       0.02728759       0.19686644
Ni      21.13508490      28.20262798       3.50099600       0.60000000      -0.00710978       0.01402666      -0.02136238       0.02573020
Ni      21.13640374      29.96270831       5.26669833       0.60000000      -0.00712345      -0.00211581      -0.00359660       0.00282707
Ni      22.89911422      28.19599437       5.26387732       0.60000000      -0.00701299      -0.00034428      -0.00088801       0.00191066
Ni      22.89839729      29.96339779       3.50314019       0.60000000      -0.00698777       0.01462730      -0.01753958       0.02475821
Ni      21.13410911      28.19422497       7.02621027       0.60000000      -0.00658040       0.00295751       0.00075333       0.00645907
Ni      21.13288389      29.95555039       8.79267750       0.60000000      -0.00647507       0.00461229       0.00055265       0.00575098
Ni      22.89448356      28.18880859       8.79081505       0.60000000      -0.00645104       0.00438274       0.00187955       0.00414228
Ni      22.89875965      29.95685693       7.03059483       0.60000000      -0.00650625      -0.00109606      -0.00060772       0.00350690
Ni      21.12889459      28.18666362      10.55271134       0.60000000      -0.00648308       0.00459404       0.00113469      -0.00077587
Ni      21.12720446      29.95003669      12.31884598       0.60000000      -0.00661009       0.00927715       0.00112809      -0.00211275
Ni      22.88808320      28.18172828      12.31665752       0.60000000      -0.00657933       0.00265991       0.00504724      -0.00553181
Ni      22.89299497      29.95175750      10.55796312       0.60000000      -0.00636467       0.00055730       0.00078147      -0.00264374
Ni      21.12525348      28.17775104      14.07834958       0.60000000      -0.00674524      -0.00298014       0.01938380      -0.00426256
Ni      21.12498207      29.94777205      15.84045080       0.60000000      -0.00633991       0.00276042       0.00084755       0.00623985
Ni      22.88394194      28.17777746      15.83802204       0.60000000      -0.00690494       0.00368446      -0.00074273       0.00273166
Ni      22.88711917      29.94662195      14.08080578       0.60000000      -0.00642213       0.00817599       0.01260979       0.00073127
Ni      21.11990648      28.17798995      17.59723552       0.60000000      -0.00683769       0.01536892       0.00996539       0.01279442
Ni      21.12389240      29.94874252      19.36183915       0.60000000      -0.00665055      -0.01522507      -0.00169950      -0.00752701
Cr      22.88216693      28.17990821      19.35750323       0.60000000      -0.00669528      -0.00792722      -0.01799201       0.00901766
Ni      22.88400213      29.94725968      17.60033881       0.60000000      -0.00666847       0.00606982       0.00235006       0.00204166
Cr      21.11797486      28.17981866      21.11797486       0.60000000      -0.00632316      -0.00511208      -0.01236934      -0.00511208
Ni      21.12132405      29.94632382      22.88230432       0.60000000      -0.00615604       0.00654339      -0.00115127       0.01347397
Ni      22.87386490      28.17048614      22.87386490       0.60000000      -0.00647831       0.03256940       0.00660349       0.03256940
Ni      22.88230432      29.94632382      21.12132405       0.60000000      -0.00615604       0.01347397      -0.00115127       0.00654339
Ni      21.11717655      28.16956721      24.63880820       0.60000000      -0.00650994       0.00646417       0.01430413       0.00442860
Ni      21.12165228      29.93675184      26.40528795       0.60000000      -0.00607759       0.00889529       0.01462852       0.00768762
Ni      22.87794215      28.16653095      26.39948229       0.60000000      -0.00610413       0.00928139      -0.00374752       0.01788205
Ni      22.88105709      29.93679719      24.64224927       0.60000000      -0.00594497      -0.00476189       0.01478967      -0.00731766
Ni      21.12377294      28.16816056      28.16816056       0.60000000      -0.00591964      -0.02361924       0.00656520       0.00656520
Ni      21.12814072      29.93729633      29.93729633       0.60000000      -0.00588283       0.02655737       0.01441064       0.01441064
Ni      22.88258890      28.16809505      29.93370587       0.60000000      -0.00567992       0.02669995       0.01121859       0.01584525
Ni      22.88258890      29.93370587      28.16809505       0.60000000      -0.00567992       0.02669995       0.01584525       0.01121859
Ni      21.13147857      28.17381378      31.70649383       0.60000000      -0.00570548       0.00508524       0.01371780       0.00375755
Ni      21.14060644      29.94564907      33.47581034       0.60000000      -0.00538018      -0.00806052       0.00575271       0.01117466
Ni      22.89789517      28.17985929      33.47550887       0.60000000      -0.00547248      -0.00251695       0.00687596       0.00173063
Ni      22.89481683      29.93983219      31.70455467       0.60000000      -0.00552475      -0.01043969      -0.00035526       0.00405097
Ni      21.14183613      28.18850081      35.24840975       0.60000000      -0.00547952       0.00655159       0.00164293       0.00766493
Ni      21.14719703      29.95925775      37.01685986       0.60000000      -0.00617806       0.00641075      -0.00446013      -0.00282412
Ni      22.91029511      28.19698671      37.01892606       0.60000000      -0.00622065       0.00090865      -0.00459886      -0.00454275
Ni      22.90413925      29.95173615      35.24501853       0.60000000      -0.00526295       0.00780744       0.00548969       0.00697025
Ni      21.15281734      28.20262798      38.78690624       0.60000000      -0.00964386      -0.02934457      -0.03172336      -0.03804452
Ni      21.15087031      29.96321984      40.54426675       0.60000000      -0.00480699      -0.03960090       0.00697135      -0.19280585
Ni      22.91454343      28.20188451      40.54629902       0.60000000      -0.00441301      -0.03657467      -0.00426363      -0.20708315
Ni      22.91810667      29.96811478      38.78627497       0.60000000      -0.00957226      -0.03264384      -0.03529892      -0.04709043
Ni      21.13882525      31.72392494      -0.01458655       0.60000000      -0.00626454       0.03300739       0.01966579       0.17351867
Ni      21.13767805      33.48816942       1.74735969       0.60000000      -0.01000887       0.00169251       0.00094283      -0.01222872
Ni      22.90041881      31.72429996       1.74563153       0.60000000      -0.01028768       0.00188129       0.00088413      -0.01199566
Ni      22.90181599      33.48525239      -0.01313866       0.60000000      -0.00639297       0.03637957       0.02583819       0.16414069
Ni      21.13537092      31.72858951       3.50557741       0.60000000      -0.00722233       0.01388929      -0.01790944       0.02328256
Ni      21.13771496      33.48801618       5.27205687       0.60000000      -0.00722608      -0.00325224       0.00069687       0.00168873
Ni      22.90051694      31.72356573       5.26928109       0.60000000      -0.00704567      -0.00272432      -0.00053279       0.00404465
Ni      22.89907298      33.48886363       3.50781775       0.60000000      -0.00717041       0.01324031      -0.01352473       0.02211816
Ni      21.13722665      31.72303083       7.03288781       0.60000000      -0.00660770      -0.00499419      -0.00066909       0.00383895
Ni      21.13628763      33.48610585       8.79806244       0.60000000      -0.00643655      -0.00162474      -0.00320060       0.00512769
Ni      22.89788892      31.71937920       8.79711858       0.60000000      -0.00639966       0.00189321      -0.00121489       0.00546076
Ni      22.90145159      33.48513185       7.03594410       0.60000000      -0.00655384      -0.00570313      -0.00110449       0.00234085
Ni      21.13210466      31.71929512      10.55838102       0.60000000      -0.00642390       0.00118400      -0.00175035       0.00382642
Ni      21.13197053      33.48521659      12.32225890       0.60000000      -0.00640558       0.00156846       0.00229126       0.00199949
Ni      22.89240153      31.71654629      12.32272548       0.60000000      -0.00634851       0.00204868       0.00650811      -0.00177012
Ni      22.89736742      33.48471933      10.56188929       0.60000000      -0.00642521      -0.00011237      -0.00461522       0.00323292
Ni      21.12797340      31.71628863      14.08269577       0.60000000      -0.00628473       0.00401862       0.01427245      -0.00463554
Ni      21.13088018      33.48767145      15.84519528       0.60000000      -0.00615866      -0.00078084       0.00011055       0.00331763
Ni      22.88824304      31.71752037      15.84302150       0.60000000      -0.00635887       0.01094095      -0.00181778       0.01075404
Ni      22.89366927      33.48499832      14.08533328       0.60000000      -0.00607597       0.00070880       0.00426096       0.00100976
Ni      21.12549780      31.71952091      17.60300042       0.60000000      -0.00639871       0.02362078      -0.00045505       0.01502092
Ni      21.13210993      33.48890599      19.37008722       0.60000000      -0.00619824      -0.00517063      -0.00673881      -0.00119718
Ni      22.88738336      31.71688396      19.36381779       0.60000000      -0.00628136       0.00508106       0.00148365       0.00941650
Ni      22.89388046      33.48722592      17.60853254       0.60000000      -0.00614787      -0.00911596      -0.00380425       0.00110930
Ni      21.12553755      31.71730111      21.12553755       0.60000000      -0.00624683       0.00756984       0.00594693       0.00756984
Ni      21.13223787      33.48447846      22.89348087       0.60000000      -0.00591264       0.00721217       0.00455927       0.00582447
Ni      22.88709660      31.71371223      22.88709660       0.60000000      -0.00600560       0.00725505      -0.00902317       0.00725505
Ni      22.89348087      33.48447846      21.13223787       0.60000000      -0.00591264       0.00582447       0.00455927       0.00721217
Ni      21.12559943      31.71218803      24.64848771       0.60000000      -0.00596316       0.01925323       0.00307864       0.00869311
Ni      21.13664224      33.48005113      26.41784621       0.60000000      -0.00559963      -0.01315626       0.00301853      -0.00148553
Ni      22.88688394      31.70472903      26.40876145       0.60000000      -0.00550721       0.01714441       0.01202093       0.01722426
Ni      22.89597713      33.48053446      24.65654103       0.60000000      -0.00554856      -0.01280896       0.00269188      -0.00920548
Ni      21.13147857      31.70649383      28.17381378       0.60000000      -0.00570548       0.00508524       0.00375755       0.01371780
Ni      21.14060644      33.47581034      29.94564907       0.60000000      -0.00538018      -0.00806052       0.01117466       0.00575271
Ni      22.89481683      31.70455467      29.93983219       0.60000000      -0.00552475      -0.01043969       0.00405097      -0.00035526
Ni      22.89789517      33.47550887      28.17985929       0.60000000      -0.00547248      -0.00251695       0.00173063       0.00687596
Ni      21.13958216      31.70900335      31.70900335       0.60000000      -0.00538516      -0.00932678       0.00166734       0.00166734
Ni      21.14105472      33.47959164      33.47959164       0.60000000      -0.00544826       0.01324880      -0.00431584      -0.00431584
Ni      22.90170804      31.71132885      33.47590427       0.60000000      -0.00533908       0.00467593       0.00685678       0.00481816
Ni      22.90170804      33.47590427      31.71132885       0.60000000      -0.00533908       0.00467593       0.00481816       0.00685678
Ni      21.14239529      31.71679438      35.24569278       0.60000000      -0.00552717       0.01381551       0.00047856       0.00120087
Ni      21.14772493      33.48620862      37.01392728       0.60000000      -0.00645920       0.00452789      -0.00932974      -0.00773501
Ni      22.91080244      31.72316865      37.01438287       0.60000000      -0.00633988       0.00616881      -0.00310321       0.00187146
Ni      22.90668669      33.48226770      35.24632080       0.60000000      -0.00539240       0.00879182      -0.00355458      -0.00375500
Ni      21.15336239      31.72858951      38.78315590       0.60000000      -0.00943638      -0.02618416      -0.02955517      -0.03742794
Ni      21.15072157      33.48816942      40.54103993       0.60000000      -0.00559745      -0.03798213       0.00851350      -0.15855444
Ni      22.91482793      31.72724128      40.54343786       0.60000000      -0.00502167      -0.03937598       0.00124750      -0.17418007
Ni      22.91669171      33.49199435      38.78192903       0.60000000      -0.00955037      -0.02381853      -0.03083829      -0.03871771
Ni      21.13925501      35.24840515      -0.01186636       0.60000000      -0.00671523       0.02982250       0.01849647       0.14096536
Ni      21.13875410      37.01185663       1.75056136       0.60000000      -0.00956935       0.00147082       0.00100973      -0.00983678
Ni      22.90101778      35.24901134       1.74911682       0.60000000      -0.00977718       0.00189590       0.00083257      -0.01062370
Ni      22.90230547      37.00960229      -0.01048748       0.60000000      -0.00683056       0.03022560       0.02137409       0.13053523
Ni      21.13686295      35.25226324       3.50984576       0.60000000      -0.00739615       0.00794336      -0.01278211       0.02272422
Ni      21.13761058      37.01260645       5.27585264       0.60000000      -0.00755994       0.00011379       0.00286797      -0.00305568
Ni      22.90112164      35.24901113       5.27437516       0.60000000      -0.00711786      -0.00232792       0.00138026      -0.00083876
Ni      22.90056281      37.01258604       3.51185449       0.60000000      -0.00746473       0.00510179      -0.00994002       0.01815847
Ni      21.13755720      35.24962330       7.03756361       0.60000000      -0.00663333      -0.00138217       0.00210105      -0.00022056
Ni      21.13641126      37.01596438       8.79916761       0.60000000      -0.00716135       0.00005521      -0.00163056       0.00183856
Ni      22.90051477      35.24988875       8.79992122       0.60000000      -0.00647934      -0.00345654      -0.00380820       0.00361648
Ni      22.90066077      37.01286504       7.03794004       0.60000000      -0.00707825      -0.00087577       0.00120895      -0.00025380
Ni      21.13522814      35.25238553      10.56083595       0.60000000      -0.00649379       0.00023022      -0.00675861       0.00610057
Ni      21.13486105      37.01950979      12.32315450       0.60000000      -0.00692373       0.00181082      -0.00076241       0.00228541
Ni      22.89713411      35.25183254      12.32457774       0.60000000      -0.00625127       0.00040588      -0.00204727       0.00167218
Ni      22.89919270      37.01667742      10.56176369       0.60000000      -0.00693701      -0.00109088      -0.00300160       0.00356184
Ni      21.13350066      35.25410551      14.08486291       0.60000000      -0.00615328      -0.00129511       0.00000062       0.00361297
Ni      21.13552116      37.02198831      15.84955747       0.60000000      -0.00678198      -0.00296156       0.00343284      -0.00541208
Ni      22.89633039      35.25429436      15.84953680       0.60000000      -0.00603123       0.00435593      -0.00115527       0.00026495
Ni      22.89821821      37.01974653      14.08780981       0.60000000      -0.00668896      -0.00126954       0.00037424      -0.00226732
Ni      21.13489725      35.25621338      17.61087214       0.60000000      -0.00598963       0.00042318      -0.00116373       0.00126612
Ni      21.13803262      37.02325517      19.37614217       0.60000000      -0.00666837       0.00031587       0.00563298       0.00107457
Ni      22.89883828      35.25527463      19.37672185       0.60000000      -0.00579018      -0.00673241       0.00215360      -0.01278762
Ni      22.90034300      37.02220789      17.61472662       0.60000000      -0.00660494      -0.00149215       0.00220868      -0.00136232
Ni      21.13786889      35.25606453      21.13786889       0.60000000      -0.00578642      -0.01075401       0.00052616      -0.01075401
Ni      21.14135642      37.02343937      22.90337753       0.60000000      -0.00625515       0.01188210       0.00684014       0.00878614
Ni      22.90051278      35.25357745      22.90051278       0.60000000      -0.00596036      -0.00085420      -0.00020608      -0.00085420
Ni      22.90337753      37.02343937      21.14135642       0.60000000      -0.00625515       0.00878614       0.00684014       0.01188210
Ni      21.14017857      35.25288640      24.66177220       0.60000000      -0.00579628      -0.00426771       0.00255800      -0.00050958
Ni      21.14603376      37.02018970      26.43157591       0.60000000      -0.00616643       0.00057602       0.00925134       0.00196824
Ni      22.90203999      35.24968292      26.42494336       0.60000000      -0.00542660       0.01192781       0.00714047       0.00819959
Ni      22.90782844      37.02173144      24.66944472       0.60000000      -0.00609194       0.00034053       0.00935155       0.00179598
Ni      21.14183613      35.24840975      28.18850081       0.60000000      -0.00547952       0.00655159       0.00766493       0.00164293
Ni      21.14719703      37.01685986      29.95925775       0.60000000      -0.00617806       0.00641075      -0.00282412      -0.00446013
Ni      22.90413925      35.24501853      29.95173615       0.60000000      -0.00526295       0.00780744       0.00697025       0.00548969
Ni      22.91029511      37.01892606      28.19698671       0.60000000      -0.00622065       0.00090865      -0.00454275      -0.00459886
Ni      21.14239529      35.24569278      31.71679438       0.60000000      -0.00552717       0.01381551       0.00120087       0.00047856
Ni      21.14772493      37.01392728      33.48620862       0.60000000      -0.00645920       0.00452789      -0.00773501      -0.00932974
Ni      22.90668669      35.24632080      33.48226770       0.60000000      -0.00539240       0.00879182      -0.00375500      -0.00355458
Ni      22.91080244      37.01438287      31.72316865       0.60000000      -0.00633988       0.00616881       0.00187146      -0.00310321
Ni      21.14586105      35.24765939      35.24765939       0.60000000      -0.00571544       0.00400720      -0.00670628      -0.00670628
Ni      21.14966661      37.01270125      37.01270125       0.60000000      -0.00707549       0.00097539      -0.00591574      -0.00591574
Ni      22.91242914      35.25013239      37.01380847       0.60000000      -0.00659278      -0.00037603      -0.01018367      -0.00924061
Ni      22.91242914      37.01380847      35.25013239       0.60000000      -0.00659278      -0.00037603      -0.00924061      -0.01018367
Ni      21.15179391      35.25226324      38.77881110       0.60000000      -0.00940701      -0.01609769      -0.02039489      -0.02322578
Ni      21.14957869      37.01185663      40.53777143       0.60000000      -0.00647031      -0.03148627       0.00806104      -0.12674392
Ni      22.91363329      35.25101357      40.54001561       0.60000000      -0.00601870      -0.03477586       0.00399764      -0.14168953
Ni      22.91425098      37.01455198      38.77757861       0.60000000      -0.00956324      -0.01018389      -0.01545844      -0.01553309
Ni      21.14004149      38.77212936      -0.00941841       0.60000000      -0.00865534       0.02434139       0.02072292       0.11092500
Ni      21.13992840      40.53499335       1.75320572       0.60000000      -0.00895154       0.02382566      -0.09733005      -0.01303502
Ni      22.90202991      38.77273466       1.75210147       0.60000000      -0.01122113       0.00150238       0.00642588      -0.00757880
Ni      22.90301395      40.53334442      -0.00822346       0.60000000      -0.00666222       0.04590222      -0.07508308       0.10249382
Ni      21.13857452      38.77501763       3.51335916       0.60000000      -0.00955993       0.00149150      -0.00134875       0.00774314
Ni      21.13875410      40.53777143       5.27647616       0.60000000      -0.00657765       0.03055303      -0.12311469      -0.00865056
Ni      22.90056281      38.77577566       5.27504411       0.60000000      -0.00957195       0.00489539      -0.01077454       0.00972264
Ni      22.90202991      40.53562322       3.51499004       0.60000000      -0.00696962       0.02873280      -0.10774152      -0.00816075
Ni      21.13686295      38.77881110       7.03639362       0.60000000      -0.00978067       0.00611778      -0.01597292       0.01014946
Ni      21.13767805      40.54103993       8.80023019       0.60000000      -0.00598042       0.03689112      -0.15375158      -0.00934199
Ni      22.89907298      38.77959834       8.79855246       0.60000000      -0.00979432       0.00988787      -0.01555794       0.01142319
Ni      22.90101778      40.53847256       7.03857804       0.60000000      -0.00631102       0.03648540      -0.13544281      -0.00983896
Ni      21.13537092      38.78315590      10.56014380       0.60000000      -0.01015017       0.00943741      -0.02241584       0.01192178
Ni      21.13725057      40.54426675      12.32490103       0.60000000      -0.00529488       0.03909137      -0.18568879      -0.00759402
Ni      22.89839729      38.78359517      12.32333758       0.60000000      -0.01005955       0.01081844      -0.02117307       0.01480500
Ni      22.90041881      40.54164531      10.56297688       0.60000000      -0.00570940       0.04209818      -0.16737056      -0.01087483
Ni      21.13508490      38.78690624      14.08527426       0.60000000      -0.01040525       0.01211304      -0.02868154       0.01489029
Ni      21.13823684      40.54665203      15.85097976       0.60000000      -0.00468599       0.03233015      -0.21443234      -0.00321126
Ni      22.89994853      38.78669546      15.85032365       0.60000000      -0.01021572       0.01006889      -0.02195626       0.01327431
Ni      22.90100319      40.54455037      14.08874547       0.60000000      -0.00504257       0.04050592      -0.19926830      -0.01043894
Ni      21.13730211      38.78890303      17.61260411       0.60000000      -0.01047811       0.01070916      -0.02608556       0.01258932
Ni      21.14112079      40.54777802      19.37874420       0.60000000      -0.00436333       0.01393914      -0.23455692       0.00063223
Ni      22.90472232      38.78861724      19.38007210       0.60000000      -0.01014006      -0.00144874      -0.01960415      -0.00081360
Ni      22.90349611      40.54663907      17.61629676       0.60000000      -0.00455940       0.02667419      -0.22586258      -0.01020879
Ni      21.14249237      38.78937346      21.14249237       0.60000000      -0.01024034      -0.00238699      -0.02065924      -0.00238699
Ni      21.14530828      40.54777802      22.90768487       0.60000000      -0.00427129      -0.01102630      -0.23880138       0.00221270
Ni      22.91140104      38.78967243      22.91140104       0.60000000      -0.01004930      -0.02076500      -0.02988587      -0.02076500
Ni      22.90768487      40.54777802      21.14530828       0.60000000      -0.00427129       0.00221270      -0.23880138      -0.01102630
Ni      21.14876253      38.78890303      24.67346053       0.60000000      -0.00997734      -0.01855880      -0.02967414      -0.01938298
Ni      21.14906032      40.54665203      26.43631740       0.60000000      -0.00432020      -0.03115510      -0.22280711       0.00409535
Ni      22.91658987      38.78913493      26.44140513       0.60000000      -0.00979946      -0.03535158      -0.04018999      -0.03579086
Ni      22.91198122      40.54779115      24.67438038       0.60000000      -0.00414037      -0.02217674      -0.23152034      -0.00949360
Ni      21.15281734      38.78690624      28.20262798       0.60000000      -0.00964386      -0.02934457      -0.03804452      -0.03172336
Ni      21.15087031      40.54426675      29.96321984       0.60000000      -0.00480699      -0.03960090      -0.19280585       0.00697135
Ni      22.91810667      38.78627497      29.96811478       0.60000000      -0.00957226      -0.03264384      -0.04709043      -0.03529892
Ni      22.91454343      40.54629902      28.20188451       0.60000000      -0.00441301      -0.03657467      -0.20708315      -0.00426363
Ni      21.15336239      38.78315590      31.72858951       0.60000000      -0.00943638      -0.02618416      -0.03742794      -0.02955517
Ni      21.15072157      40.54103993      33.48816942       0.60000000      -0.00559745      -0.03798213      -0.15855444       0.00851350
Ni      22.91669171      38.78192903      33.49199435       0.60000000      -0.00955037      -0.02381853      -0.03871771      -0.03083829
Ni      22.91482793      40.54343786      31.72724128       0.60000000      -0.00502167      -0.03937598      -0.17418007       0.00124750
Ni      21.15179391      38.77881110      35.25226324       0.60000000      -0.00940701      -0.01609769      -0.02322578      -0.02039489
Ni      21.14957869      40.53777143      37.01185663       0.60000000      -0.00647031      -0.03148627      -0.12674392       0.00806104
Ni      22.91425098      38.77757861      37.01455198       0.60000000      -0.00956324      -0.01018389      -0.01553309      -0.01545844
Ni      22.91363329      40.54001561      35.25101357       0.60000000      -0.00601870      -0.03477586      -0.14168953       0.00399764
Ni      21.14980227      38.77501763      38.77501763       0.60000000      -0.01142171      -0.00244009      -0.00205090      -0.00205090
Ni      21.14827066      40.53499335      40.53499335       0.60000000      -0.00651641      -0.04881732      -0.09508300      -0.09508300
Ni      22.91199218      38.77403634      40.53682783       0.60000000      -0.00867287      -0.02788834       0.01050835      -0.11301115
Ni      22.91199218      40.53682783      38.77403634       0.60000000      -0.00867287      -0.02788834      -0.11301115       0.01050835
Ni      24.67257245      -0.00741072      -0.00741072       0.60000000      -0.00670041      -0.03588550       0.08920051       0.08920051
Ni      24.67399828       1.75321446       1.75321446       0.60000000      -0.01083184      -0.00056009      -0.00578186      -0.00578186
Ni      26.43575759      -0.00818910       1.75435426       0.60000000      -0.00874990      -0.01863066       0.08536115      -0.01441450
Ni      26.43575759       1.75435426      -0.00818910       0.60000000      -0.00874990      -0.01863066      -0.01441450       0.08536115
Ni      24.67384547      -0.00933256       3.51596413       0.60000000      -0.00708624      -0.02195453       0.10290659      -0.01172494
Ni      24.67583082       1.75076510       5.27640737       0.60000000      -0.00949721      -0.00064917      -0.00794810      -0.00052443
Ni      26.43719532      -0.01017177       5.27781618       0.60000000      -0.00703135      -0.02271250       0.10717136      -0.01054044
Ni      26.43757687       1.75226419       3.51493967       0.60000000      -0.00929741      -0.00035731      -0.00658631      -0.00070666
Ni      24.67513627      -0.01159394       7.03958449       0.60000000      -0.00679765      -0.02651048       0.12934196      -0.01305160
Ni      24.67762864       1.74788533       8.79993553       0.60000000      -0.00989966      -0.00087685      -0.01009791      -0.00060557
Ni      26.43849692      -0.01239791       8.80157300       0.60000000      -0.00674744      -0.02568684       0.13194177      -0.01002802
Ni      26.43960112       1.74976995       7.03825341       0.60000000      -0.00953156      -0.00054963      -0.00906871      -0.00073499
Ni      24.67601172      -0.01406388      10.56365874       0.60000000      -0.00642402      -0.02863299       0.15815497      -0.01200016
Ni      24.67858517       1.74478405      12.32408714       0.60000000      -0.01044307      -0.00094001      -0.01151955      -0.00054793
Ni      26.43913142      -0.01468370      12.32581909       0.60000000      -0.00640158      -0.02441466       0.15795733      -0.00571583
Ni      26.44130136       1.74699594      10.56195822       0.60000000      -0.00998028      -0.00063223      -0.01114409      -0.00066355
Ni      24.67583614      -0.01646409      14.08843171       0.60000000      -0.00601351      -0.02476638       0.18555906      -0.00656317
Ni      24.67764284       1.74188696      15.84921631       0.60000000      -0.01085447      -0.00077667      -0.01186690      -0.00040214
Ni      26.43849542      -0.01671627      15.85076924       0.60000000      -0.00604237      -0.01540785       0.18311936       0.00372743
Ni      26.44175163       1.74421565      14.08631656       0.60000000      -0.01047832      -0.00054280      -0.01246422      -0.00032768
Ni      24.67415454      -0.01835582      17.61412883       0.60000000      -0.00565706      -0.01199713       0.20814162       0.00368347
Ni      24.67438038       1.73986866      19.37567859       0.60000000      -0.01106470      -0.00050459      -0.01072200      -0.00023106
Ni      26.43636475      -0.01806659      19.37659868       0.60000000      -0.00571904       0.00212974       0.20564305       0.01718614
Ni      26.44007549       1.74188696      17.61164896       0.60000000      -0.01079777      -0.00029921      -0.01262000       0.00013002
Ni      24.67123130      -0.01921861      21.14080397       0.60000000      -0.00542580       0.00813025       0.22358570       0.01670051
Ni      24.66983197       1.73948966      22.90349611       0.60000000      -0.01103413      -0.00005836      -0.00958800       0.00006460
Ni      26.43328589      -0.01829721      22.90327777       0.60000000      -0.00549018       0.02309148       0.22064097       0.03059379
Ni      26.43631740       1.74064512      21.13823684       0.60000000      -0.01088865       0.00003983      -0.01144643       0.00046380
Ni      24.66809830      -0.01869139      24.66809830       0.60000000      -0.00537802       0.02828452       0.22715991       0.02828452
Ni      24.66595088       1.74108986      26.43186226       0.60000000      -0.01083037       0.00073165      -0.00990300       0.00051849
Ni      26.43037181      -0.01720626      26.43037181       0.60000000      -0.00549233       0.03888300       0.21984418       0.03888300
Ni      26.43186226       1.74108986      24.66595088       0.60000000      -0.01083037       0.00051849      -0.00990300       0.00073165
Ni      24.66584640      -0.01685961      28.19522323       0.60000000      -0.00560161       0.04026281       0.21366796       0.03417906
Ni      24.66398527       1.74416477      29.95940295       0.60000000      -0.01045644       0.00166778      -0.01088188       0.00083217
Ni      26.42851367      -0.01504777      29.95713775       0.60000000      -0.00580552       0.04439622       0.20015959       0.03970409
Ni      26.42854315       1.74329392      28.19389826       0.60000000      -0.01054838       0.00123778      -0.00964372       0.00092331
Ni      24.66487116      -0.01425829      31.72144311       0.60000000      -0.00606142       0.04168815       0.18515210       0.03331833
Ni      24.66374460       1.74771700      33.48535049       0.60000000      -0.00999043       0.00206480      -0.01051156       0.00081519
Ni      26.42782843      -0.01241808      33.48301722       0.60000000      -0.00629299       0.04106922       0.16827123       0.03469915
Ni      26.42712935       1.74655014      31.72091070       0.60000000      -0.01011885       0.00187944      -0.00974659       0.00084621
Ni      24.66486809      -0.01152197      35.24656573       0.60000000      -0.00656171       0.03621336       0.15047101       0.02804536
Ni      24.66438032       1.75097144      37.00994034       0.60000000      -0.00957835       0.00179712      -0.00871266       0.00067978
Ni      26.42789780      -0.00987487      37.00794746       0.60000000      -0.00675043       0.03360649       0.13409158       0.02743087
Ni      26.42710282       1.74990174      35.24652783       0.60000000      -0.00968308       0.00190651      -0.00884041       0.00052187
Ni      24.66533415      -0.00907074      38.77084532       0.60000000      -0.00847272       0.02872713       0.11769031       0.02680041
Ni      24.66522668       1.75361119      40.53373723       0.60000000      -0.00898682       0.02590504      -0.01323404      -0.09275753
Ni      26.42827400      -0.00771213      40.53217664       0.60000000      -0.00668585       0.04880801       0.10365795      -0.06431262
Ni      26.42764922       1.75276786      38.77103522       0.60000000      -0.01100617       0.00148227      -0.00664802       0.00556836
Ni      24.67384547       3.51596413      -0.00933256       0.60000000      -0.00708624      -0.02195453      -0.01172494       0.10290659
Ni      24.67583082       5.27640737       1.75076510       0.60000000      -0.00949721      -0.00064917      -0.00052443      -0.00794810
Ni      26.43757687       3.51493967       1.75226419       0.60000000      -0.00929741      -0.00035731      -0.00070666      -0.00658631
Ni      26.43719532       5.27781618      -0.01017177       0.60000000      -0.00703135      -0.02271250      -0.01054044       0.10717136
Ni      24.67608194       3.51344469       3.51344469       0.60000000      -0.00756699      -0.00000422       0.00325233       0.00325233
Ni      24.67570425       5.27451137       5.27451137       0.60000000      -0.00750624       0.00167508       0.00018696       0.00018696
Ni      26.44022528       3.51228585       5.27513105       0.60000000      -0.00757260      -0.00824932       0.01171326       0.00616647
Ni      26.44022528       5.27513105       3.51228585       0.60000000      -0.00757260      -0.00824932       0.00616647       0.01171326
Ni      24.67880634       3.51028488       7.03638432       0.60000000      -0.00749056      -0.01964880       0.01294773       0.00670016
Ni      24.67339325       5.27157156       8.79844367       0.60000000      -0.00745420       0.00604433      -0.00136606      -0.00123652
Ni      26.44313515       3.50912754       8.79823678       0.60000000      -0.00748426      -0.02701367       0.01524123       0.00837142
Ni      26.43746468       5.27414646       7.03742234       0.60000000      -0.00741987       0.00359331      -0.00111023      -0.00193260
Ni      24.68133286       3.50658445      10.55977357       0.60000000      -0.00732238      -0.03195014       0.01019092       0.00798838
Ni      24.67380913       5.26635786      12.32283512       0.60000000      -0.00726990       0.00393861       0.00099833      -0.00216911
Ni      26.44530000       3.50565872      12.32184211       0.60000000      -0.00738397      -0.03566937       0.01197275       0.00886409
Ni      26.43608246       5.27061888      10.56120841       0.60000000      -0.00747800       0.00509964      -0.00071860      -0.00283514
Ni      24.68210864       3.50265847      14.08399865       0.60000000      -0.00729468      -0.03696327       0.00866124       0.01140495
Ni      24.67390569       5.26134886      15.84742951       0.60000000      -0.00713544      -0.00044240       0.00251828      -0.00261083
Ni      26.44510292       3.50226630      15.84630471       0.60000000      -0.00734195      -0.03372558       0.01333793       0.01215937
Ni      26.43755069       5.26558600      14.08494005       0.60000000      -0.00725604       0.00250570       0.00297900      -0.00090526
Ni      24.67944780       3.49915270      17.60962096       0.60000000      -0.00713275      -0.03298144       0.01313843       0.01162190
Ni      24.67061799       5.25805215      19.37222674       0.60000000      -0.00709183       0.00394531       0.00699055       0.00413941
Ni      26.44140513       3.49962409      19.37216914       0.60000000      -0.00717352      -0.02541142       0.02114200       0.01428619
Ni      26.43767244       5.26188930      17.60952488       0.60000000      -0.00717553      -0.00057265       0.00573388       0.00016663
Ni      24.67346053       3.49716161      21.13730211       0.60000000      -0.00693996      -0.01584993       0.02193979       0.00950683
Ni      24.66725109       5.25864867      22.90085124       0.60000000      -0.00695509      -0.00215528       0.00155110      -0.00142222
Ni      26.43510414       3.49873233      22.89994853       0.60000000      -0.00686020      -0.01287330       0.02669881       0.00969928
Ni      26.43392702       5.26088404      21.13544662       0.60000000      -0.00704823      -0.00042657      -0.00013525       0.00114716
Ni      24.66691035       3.49782954      24.66691035       0.60000000      -0.00676736       0.00033267       0.02744516       0.00033267
Ni      24.66358212       5.26207202      26.42958781       0.60000000      -0.00689199      -0.00004296       0.00245662      -0.00211641
Ni      26.42920448       3.50042197      26.42920448       0.60000000      -0.00670955       0.00038479       0.02787868       0.00038479
Ni      26.42958781       5.26207202      24.66358212       0.60000000      -0.00689199      -0.00211641       0.00245662      -0.00004296
Ni      24.66291397       3.50119317      28.19655314       0.60000000      -0.00675963       0.00950738       0.02641919      -0.01044295
Ni      24.66275652       5.26732610      29.95733157       0.60000000      -0.00696515      -0.00019543       0.00203685       0.00101817
Ni      26.42619706       3.50429067      29.95805894       0.60000000      -0.00673679       0.00721216       0.02520361      -0.00897208
Ni      26.42615176       5.26607837      28.19131423       0.60000000      -0.00684062       0.00203042       0.00121764       0.00141845
Ni      24.66204400       3.50583938      31.72407103       0.60000000      -0.00694944       0.01387754       0.02370836      -0.01361004
Ni      24.66418149       5.27243511      33.48469067       0.60000000      -0.00701323      -0.00310323       0.00064535      -0.00034898
Ni      26.42585881       3.50879450      33.48495605       0.60000000      -0.00696001       0.00998982       0.02164685      -0.01130082
Ni      26.42627669       5.27113646      31.71886780       0.60000000      -0.00697438      -0.00152567      -0.00110445       0.00138243
Ni      24.66290959       3.51028344      35.24927912       0.60000000      -0.00718568       0.00989755       0.02017119      -0.01062563
Ni      24.66411694       5.27596172      37.01053639       0.60000000      -0.00732770      -0.00133303      -0.00133424       0.00131109
Ni      26.42667823       3.51272013      37.01000857       0.60000000      -0.00728583       0.00553976       0.01557007      -0.00882178
Ni      26.42752507       5.27524088      35.24595318       0.60000000      -0.00696223      -0.00353504      -0.00195006       0.00058843
Ni      24.66420286       3.51386146      38.77314357       0.60000000      -0.00929636       0.00186168       0.00695328      -0.00038165
Ni      24.66438032       5.27708561      40.53605451       0.60000000      -0.00664536       0.03360381      -0.00912197      -0.11712327
Ni      26.42764922       3.51570944      40.53397680       0.60000000      -0.00699853       0.02942891      -0.00807647      -0.10027391
Ni      26.42667823       5.27600534      38.77329378       0.60000000      -0.00921490       0.00546433       0.00933720      -0.00721804
Ni      24.67513627       7.03958449      -0.01159394       0.60000000      -0.00679765      -0.02651048      -0.01305160       0.12934196
Ni      24.67762864       8.79993553       1.74788533       0.60000000      -0.00989966      -0.00087685      -0.00060557      -0.01009791
Ni      26.43960112       7.03825341       1.74976995       0.60000000      -0.00953156      -0.00054963      -0.00073499      -0.00906871
Ni      26.43849692       8.80157300      -0.01239791       0.60000000      -0.00674744      -0.02568684      -0.01002802       0.13194177
Ni      24.67880634       7.03638432       3.51028488       0.60000000      -0.00749056      -0.01964880       0.00670016       0.01294773
Ni      24.67339325       8.79844367       5.27157156       0.60000000      -0.00745420       0.00604433      -0.00123652      -0.00136606
Ni      26.43746468       7.03742234       5.27414646       0.60000000      -0.00741987       0.00359331      -0.00193260      -0.00111023
Ni      26.44313515       8.79823678       3.50912754       0.60000000      -0.00748426      -0.02701367       0.00837142       0.01524123
Ni      24.67031891       7.03542600       7.03542600       0.60000000      -0.00706968       0.00826428       0.00118310       0.00118310
Ni      24.66430794       8.79651988       8.79651988       0.60000000      -0.00720362       0.00965001       0.00180353       0.00180353
Ni      26.43064038       7.03531963       8.79915952       0.60000000      -0.00712590       0.00792032       0.00113530      -0.00010308
Ni      26.43064038       8.79915952       7.03531963       0.60000000      -0.00712590       0.00792032      -0.00010308       0.00113530
Ni      24.66697303       7.03250463      10.56109003       0.60000000      -0.00732123       0.00785133      -0.00292704      -0.00333630
Ni      24.66160691       8.79349400      12.32326972       0.60000000      -0.00721939       0.01021506      -0.00451148      -0.00381903
Ni      26.42877661       7.03120644      12.32427952       0.60000000      -0.00716508       0.01048935      -0.00034228      -0.00620635
Ni      26.42368842       8.79638955      10.56104368       0.60000000      -0.00717494       0.01364931       0.00209581      -0.00000300
Ni      24.66706289       7.02599035      14.08527309       0.60000000      -0.00709274       0.00480005       0.00397199      -0.00091005
Ni      24.66156019       8.78685583      15.84564801       0.60000000      -0.00697816       0.00447464       0.00171478       0.00393691
Ni      26.43089698       7.02552524      15.84677055       0.60000000      -0.00694368       0.00479445       0.00512855      -0.00007964
Ni      26.42437648       8.79209635      14.08548272       0.60000000      -0.00703409       0.01010843       0.00030288      -0.00061791
Ni      24.66641512       7.02098099      17.60829073       0.60000000      -0.00678879       0.00249605       0.00397520       0.00175248
Ni      24.65999749       8.78163107      19.36826875       0.60000000      -0.00670492       0.00608985       0.00914859       0.00420171
Ni      26.43069134       7.02252249      19.37041513       0.60000000      -0.00675568       0.00001708       0.00747898       0.00468094
Ni      26.42560296       8.78634250      17.60692524       0.60000000      -0.00676064       0.00628121       0.00791988       0.00529904
Ni      24.66443741       7.01932635      21.13384145       0.60000000      -0.00676183       0.00013225       0.00707738       0.00118808
Ni      24.65847095       8.78325332      22.89345750       0.60000000      -0.00660751      -0.00095892       0.00309553       0.00160173
Ni      26.42774463       7.02394958      22.89721081       0.60000000      -0.00654228       0.00079329       0.00599836       0.00268692
Ni      26.42496930       8.78582021      21.13066078       0.60000000      -0.00654122      -0.00047352      -0.00019912       0.00273175
Ni      24.66187745       7.02296434      24.66187745       0.60000000      -0.00657966       0.00220966       0.00628185       0.00220966
Ni      24.65785762       8.78983232      26.42246341       0.60000000      -0.00658810       0.00050968       0.00337203       0.00170129
Ni      26.42511886       7.02805038      26.42511886       0.60000000      -0.00635872      -0.00078010       0.00559446      -0.00078010
Ni      26.42246341       8.78983232      24.65785762       0.60000000      -0.00658810       0.00170129       0.00337203       0.00050968
Ni      24.66076974       7.02914841      28.19044766       0.60000000      -0.00640392       0.00272322       0.00250116      -0.00063758
Ni      24.65929984       8.79635750      29.95255536       0.60000000      -0.00628874       0.00092853       0.00297738       0.00078709
Ni      26.42426539       7.03389919      29.95267960       0.60000000      -0.00641317       0.00244656       0.00051462       0.00081787
Ni      26.42180309       8.79586650      28.18603455       0.60000000      -0.00637661       0.00210315       0.00436961       0.00297131
Ni      24.66282376       7.03452483      31.71903463       0.60000000      -0.00652182      -0.00115281       0.00285155      -0.00016367
Ni      24.66272888       8.80053252      33.48293865       0.60000000      -0.00643831      -0.00289924       0.00390499      -0.00345187
Ni      26.42657057       7.03790860      33.48127578       0.60000000      -0.00650154      -0.00218314       0.00054925       0.00012842
Ni      26.42397128       8.80060423      31.71616453       0.60000000      -0.00629388      -0.00235268       0.00400485      -0.00397424
Ni      24.66477030       7.03824155      35.24734303       0.60000000      -0.00653749      -0.00436947       0.00008943      -0.00006165
Ni      24.66358800       8.80043878      37.01327609       0.60000000      -0.00690766      -0.00276691       0.00262897      -0.00136620
Ni      26.42736744       7.03902725      37.01011885       0.60000000      -0.00690560      -0.00312562       0.00081951       0.00028697
Ni      26.42639296       8.80270519      35.24625900       0.60000000      -0.00649545      -0.00271140       0.00065304      -0.00185182
Ni      24.66290959       7.03718674      38.77618242       0.60000000      -0.00945895       0.00844314       0.01067111      -0.01084139
Ni      24.66374460       8.80121859      40.53885208       0.60000000      -0.00610854       0.04101396      -0.01144431      -0.14670040
Ni      26.42710282       7.03962665      40.53625274       0.60000000      -0.00644840       0.03715982      -0.01052595      -0.12586283
Ni      26.42585881       8.80003178      38.77619334       0.60000000      -0.00933344       0.00832111       0.01367872      -0.00871054
Ni      24.67601172      10.56365874      -0.01406388       0.60000000      -0.00642402      -0.02863299      -0.01200016       0.15815497
Ni      24.67858517      12.32408714       1.74478405       0.60000000      -0.01044307      -0.00094001      -0.00054793      -0.01151955
Ni      26.44130136      10.56195822       1.74699594       0.60000000      -0.00998028      -0.00063223      -0.00066355      -0.01114409
Ni      26.43913142      12.32581909      -0.01468370       0.60000000      -0.00640158      -0.02441466      -0.00571583       0.15795733
Ni      24.68133286      10.55977357       3.50658445       0.60000000      -0.00732238      -0.03195014       0.00798838       0.01019092
Ni      24.67380913      12.32283512       5.26635786       0.60000000      -0.00726990       0.00393861      -0.00216911       0.00099833
Ni      26.43608246      10.56120841       5.27061888       0.60000000      -0.00747800       0.00509964      -0.00283514      -0.00071860
Ni      26.44530000      12.32184211       3.50565872       0.60000000      -0.00738397      -0.03566937       0.00886409       0.01197275
Ni      24.66697303      10.56109003       7.03250463       0.60000000      -0.00732123       0.00785133      -0.00333630      -0.00292704
Ni      24.66160691      12.32326972       8.79349400       0.60000000      -0.00721939       0.01021506      -0.00381903      -0.00451148
Ni      26.42368842      10.56104368       8.79638955       0.60000000      -0.00717494       0.01364931      -0.00000300       0.00209581
Ni      26.42877661      12.32427952       7.03120644       0.60000000      -0.00716508       0.01048935      -0.00620635      -0.00034228
Ni      24.65936653      10.55763409      10.55763409       0.60000000      -0.00715833       0.01428063       0.00299168       0.00299168
Ni      24.65760565      12.31757614      12.31757614       0.60000000      -0.00693604       0.00199693       0.00944499       0.00944499
Ni      26.42089713      10.55778413      12.32238797       0.60000000      -0.00689854       0.01294121      -0.00130525      -0.00058955
Ni      26.42089713      12.32238797      10.55778413       0.60000000      -0.00689854       0.01294121      -0.00058955      -0.00130525
Ni      24.65821915      10.55400882      14.08355435       0.60000000      -0.00694002       0.00605409      -0.00127326       0.00229218
Ni      24.65559724      12.31458094      15.84422606       0.60000000      -0.00694483      -0.00490077      -0.00741330      -0.00988754
Ni      26.42236950      10.55336950      15.84600970       0.60000000      -0.00693354       0.00368629       0.00072778       0.00102432
Ni      26.42139336      12.31800836      14.08283975       0.60000000      -0.00684773      -0.00291659       0.00464290       0.00279293
Ni      24.65695119      10.54789380      17.60616604       0.60000000      -0.00689622       0.00095299      -0.00037161      -0.00216230
Ni      24.65079245      12.30983213      19.36492457       0.60000000      -0.00706016       0.00433135       0.00004247      -0.00187936
Ni      26.42121662      10.54901135      19.36698552       0.60000000      -0.00673166       0.00169405       0.00160198       0.00289345
Ni      26.41858847      12.31534015      17.60644589       0.60000000      -0.00685125      -0.00094015      -0.00546441      -0.00466131
Ni      24.65404534      10.54460857      21.12707900       0.60000000      -0.00684720       0.00433831       0.00648065       0.00273893
Ni      24.64948181      12.30863457      22.88598831       0.60000000      -0.00672968      -0.00040074      -0.00175246       0.00379889
Ni      26.41903784      10.54960689      22.88983133       0.60000000      -0.00654223       0.00678106       0.00199949       0.00549036
Ni      26.41592028      12.31242319      21.12634967       0.60000000      -0.00679691      -0.00112313      -0.00724761      -0.00754735
Ni      24.65225615      10.54840764      24.65225615       0.60000000      -0.00648771       0.01134848       0.00233235       0.01134848
Ni      24.64923007      12.31300590      26.41453594       0.60000000      -0.00668185       0.01090328       0.00820395       0.00497090
Ni      26.41804998      10.55682733      26.41804998       0.60000000      -0.00632949       0.00096807      -0.01158804       0.00096807
Ni      26.41453594      12.31300590      24.64923007       0.60000000      -0.00668185       0.00497090       0.00820395       0.01090328
Ni      24.65442244      10.55654403      28.18509607       0.60000000      -0.00641263       0.00247639      -0.00406113      -0.00327538
Ni      24.65248216      12.32276885      29.94799276       0.60000000      -0.00618293       0.00974615      -0.00991770       0.01048288
Ni      26.42018375      10.56251543      29.94961125       0.60000000      -0.00638588      -0.00026233      -0.00109920      -0.00206212
Ni      26.41438056      12.32087200      28.18033053       0.60000000      -0.00619580       0.01370934      -0.00182875       0.01038075
Ni      24.65847739      10.56265675      31.71656515       0.60000000      -0.00637822      -0.00011767      -0.00023938      -0.00055145
Ni      24.65899785      12.32628301      33.48332005       0.60000000      -0.00618806      -0.00355401       0.00013693      -0.00201250
Ni      26.42364141      10.56596908      33.48101028       0.60000000      -0.00624669      -0.00065445       0.00037875      -0.00129995
Ni      26.41981287      12.32743257      31.71407364       0.60000000      -0.00616181      -0.00290531      -0.00116474       0.00370230
Ni      24.66184420      10.56391823      35.24916657       0.60000000      -0.00635748       0.00040501       0.00250892      -0.00250099
Ni      24.66139817      12.32639716      37.01626108       0.60000000      -0.00672309       0.00280176      -0.00018178       0.00031245
Ni      26.42534733      10.56471413      37.01288914       0.60000000      -0.00675083       0.00159211       0.00261259      -0.00034215
Ni      26.42351001      12.32916453      35.24808327       0.60000000      -0.00614261       0.00172924      -0.00080370      -0.00068558
Ni      24.66204400      10.56157284      38.77980450       0.60000000      -0.00969722       0.01017696       0.01507614      -0.01415412
Ni      24.66398527      12.32659275      40.54183092       0.60000000      -0.00546449       0.04373273      -0.01380097      -0.17892304
Ni      26.42712935      10.56457587      40.53893643       0.60000000      -0.00591523       0.04246895      -0.01415141      -0.15610982
Ni      26.42619706      12.32581307      38.77958135       0.60000000      -0.00954017       0.00507119       0.01596090      -0.01310178
Ni      24.67583614      14.08843171      -0.01646409       0.60000000      -0.00601351      -0.02476638      -0.00656317       0.18555906
Ni      24.67764284      15.84921631       1.74188696       0.60000000      -0.01085447      -0.00077667      -0.00040214      -0.01186690
Ni      26.44175163      14.08631656       1.74421565       0.60000000      -0.01047832      -0.00054280      -0.00032768      -0.01246422
Ni      26.43849542      15.85076924      -0.01671627       0.60000000      -0.00604237      -0.01540785       0.00372743       0.18311936
Ni      24.68210864      14.08399865       3.50265847       0.60000000      -0.00729468      -0.03696327       0.01140495       0.00866124
Ni      24.67390569      15.84742951       5.26134886       0.60000000      -0.00713544      -0.00044240      -0.00261083       0.00251828
Ni      26.43755069      14.08494005       5.26558600       0.60000000      -0.00725604       0.00250570      -0.00090526       0.00297900
Ni      26.44510292      15.84630471       3.50226630       0.60000000      -0.00734195      -0.03372558       0.01215937       0.01333793
Ni      24.66706289      14.08527309       7.02599035       0.60000000      -0.00709274       0.00480005      -0.00091005       0.00397199
Ni      24.66156019      15.84564801       8.78685583       0.60000000      -0.00697816       0.00447464       0.00393691       0.00171478
Ni      26.42437648      14.08548272       8.79209635       0.60000000      -0.00703409       0.01010843      -0.00061791       0.00030288
Ni      26.43089698      15.84677055       7.02552524       0.60000000      -0.00694368       0.00479445      -0.00007964       0.00512855
Ni      24.65821915      14.08355435      10.55400882       0.60000000      -0.00694002       0.00605409       0.00229218      -0.00127326
Ni      24.65559724      15.84422606      12.31458094       0.60000000      -0.00694483      -0.00490077      -0.00988754      -0.00741330
Ni      26.42139336      14.08283975      12.31800836       0.60000000      -0.00684773      -0.00291659       0.00279293       0.00464290
Ni      26.42236950      15.84600970      10.55336950       0.60000000      -0.00693354       0.00368629       0.00102432       0.00072778
Ni      24.65631130      14.07800922      14.07800922       0.60000000      -0.00710719      -0.01364393      -0.00227273      -0.00227273
Ni      24.64489059      15.83750519      15.83750519       0.60000000      -0.00720293       0.01973581      -0.00479817      -0.00479817
Ni      26.41711541      14.07877231      15.84325440       0.60000000      -0.00716902      -0.00413559       0.00700411      -0.00013868
Ni      26.41711541      15.84325440      14.07877231       0.60000000      -0.00716902      -0.00413559      -0.00013868       0.00700411
Ni      24.64708202      14.07557483      17.60259228       0.60000000      -0.00683841       0.01119435      -0.01229597      -0.01423517
Ni      24.63972390      15.83363242      19.35794510       0.60000000      -0.00707270       0.03535555       0.00906002       0.01386606
Ni      26.41122218      14.07678504      19.36401495       0.60000000      -0.00690703       0.00922632      -0.00779396       0.00033593
Ni      26.40783515      15.83962556      17.60059016       0.60000000      -0.00674973       0.02563635      -0.00758920       0.00753950
Ni      24.64447060      14.07158563      21.12320451       0.60000000      -0.00703482       0.01483588      -0.00127280      -0.00700908
Cr      24.64817600      15.83402899      22.88427518       0.60000000      -0.00685585      -0.01401990      -0.00114847      -0.01029996
Ni      26.41062815      14.07357102      22.88391587       0.60000000      -0.00666359       0.01966472       0.00681042       0.01780901
Ni      26.40775759      15.83543452      21.12133166       0.60000000      -0.00690203       0.01876853       0.00843931       0.00372776
Cr      24.64842549      14.07158715      24.64842549       0.60000000      -0.00706453       0.00582260       0.01383100       0.00582260
Cr      24.64687060      15.83491046      26.41316334       0.60000000      -0.00692927       0.00180628       0.01231977      -0.01375466
Cr      26.41310437      14.07711814      26.41310437       0.60000000      -0.00640586      -0.00112142       0.00052468      -0.00112142
Cr      26.41316334      15.83491046      24.64687060       0.60000000      -0.00692927      -0.01375466       0.01231977       0.00180628
Ni      24.64891932      14.07768428      28.17847842       0.60000000      -0.00638745      -0.00428419       0.00963901       0.00264594
Ni      24.64745330      15.84188201      29.94543227       0.60000000      -0.00655444       0.01103645       0.00607129       0.00632768
Ni      26.41324248      14.08554111      29.94564955       0.60000000      -0.00625308       0.01721456      -0.00020217       0.00746719
Cr      26.41166325      15.83993481      28.17794337       0.60000000      -0.00642424       0.00254677       0.01325395      -0.00438763
Ni      24.65329904      14.08553789      31.71577082       0.60000000      -0.00635089       0.00456271       0.00423355      -0.00083778
Ni      24.65668459      15.84957962      33.48446664       0.60000000      -0.00600631      -0.00540337       0.00082607      -0.00088195
Ni      26.42083315      14.09156678      33.48150583       0.60000000      -0.00602726      -0.00128887      -0.00632953       0.00361028
Ni      26.41544648      15.84941118      31.71306447       0.60000000      -0.00623715       0.00254568       0.00275540      -0.00125362
Ni      24.65922303      14.08961511      35.25088813       0.60000000      -0.00604724       0.00441088      -0.00229324       0.00211581
Ni      24.66255947      15.85303032      37.01947452       0.60000000      -0.00653501      -0.00108047      -0.00053469       0.00108728
Ni      26.42490906      14.09135691      37.01546053       0.60000000      -0.00651342       0.00340455       0.00119889       0.00490364
Ni      26.42238094      15.85510801      35.24963242       0.60000000      -0.00590341       0.00687593      -0.00631754       0.00550630
Ni      24.66291397      14.08802843      38.78338840       0.60000000      -0.00985535       0.00871369       0.01420171      -0.01724445
Ni      24.66595088      15.85375984      40.54453224       0.60000000      -0.00488713       0.03590187      -0.01689830      -0.20941384
Ni      26.42854315      14.09119484      40.54179918       0.60000000      -0.00529024       0.04013980      -0.01939937      -0.18736220
Ni      26.42920448      15.85439373      38.78317624       0.60000000      -0.00960235      -0.00086555       0.00506415      -0.01589667
Ni      24.67415454      17.61412883      -0.01835582       0.60000000      -0.00565706      -0.01199713       0.00368347       0.20814162
Ni      24.67438038      19.37567859       1.73986866       0.60000000      -0.01106470      -0.00050459      -0.00023106      -0.01072200
Ni      26.44007549      17.61164896       1.74188696       0.60000000      -0.01079777      -0.00029921       0.00013002      -0.01262000
Ni      26.43636475      19.37659868      -0.01806659       0.60000000      -0.00571904       0.00212974       0.01718614       0.20564305
Ni      24.67944780      17.60962096       3.49915270       0.60000000      -0.00713275      -0.03298144       0.01162190       0.01313843
Ni      24.67061799      19.37222674       5.25805215       0.60000000      -0.00709183       0.00394531       0.00413941       0.00699055
Ni      26.43767244      17.60952488       5.26188930       0.60000000      -0.00717553      -0.00057265       0.00016663       0.00573388
Ni      26.44140513      19.37216914       3.49962409       0.60000000      -0.00717352      -0.02541142       0.01428619       0.02114200
Ni      24.66641512      17.60829073       7.02098099       0.60000000      -0.00678879       0.00249605       0.00175248       0.00397520
Ni      24.65999749      19.36826875       8.78163107       0.60000000      -0.00670492       0.00608985       0.00420171       0.00914859
Ni      26.42560296      17.60692524       8.78634250       0.60000000      -0.00676064       0.00628121       0.00529904       0.00791988
Ni      26.43069134      19.37041513       7.02252249       0.60000000      -0.00675568       0.00001708       0.00468094       0.00747898
Ni      24.65695119      17.60616604      10.54789380       0.60000000      -0.00689622       0.00095299      -0.00216230      -0.00037161
Ni      24.65079245      19.36492457      12.30983213       0.60000000      -0.00706016       0.00433135      -0.00187936       0.00004247
Ni      26.41858847      17.60644589      12.31534015       0.60000000      -0.00685125      -0.00094015      -0.00466131      -0.00546441
Ni      26.42121662      19.36698552      10.54901135       0.60000000      -0.00673166       0.00169405       0.00289345       0.00160198
Ni      24.64708202      17.60259228      14.07557483       0.60000000      -0.00683841       0.01119435      -0.01423517      -0.01229597
Ni      24.63972390      19.35794510      15.83363242       0.60000000      -0.00707270       0.03535555       0.01386606       0.00906002
Ni      26.40783515      17.60059016      15.83962556       0.60000000      -0.00674973       0.02563635       0.00753950      -0.00758920
Ni      26.41122218      19.36401495      14.07678504       0.60000000      -0.00690703       0.00922632       0.00033593      -0.00779396
Ni      24.63855243      17.59517581      17.59517581       0.60000000      -0.00707528       0.03039914       0.00544187       0.00544187
Cr      24.64702015      19.35528394      19.35528394       0.60000000      -0.00668384      -0.02225444      -0.00533540      -0.00533540
Ni      26.40891067      17.59643142      19.35784195       0.60000000      -0.00700992       0.00053049      -0.00209760       0.00148921
Ni      26.40891067      19.35784195      17.59643142       0.60000000      -0.00700992       0.00053049       0.00148921      -0.00209760
Cr      24.64667625      17.59547602      21.11905663       0.60000000      -0.00731034      -0.02068510      -0.01309245      -0.00435288
Cr      24.63946202      19.35057451      22.87673110       0.60000000      -0.00688045       0.01831651       0.02382186      -0.00284056
Cr      26.41249245      17.59745201      22.88145240       0.60000000      -0.00678686      -0.00760642      -0.01495359       0.00745380
Cr      26.41231471      19.35518648      21.11831236       0.60000000      -0.00682707      -0.00194255       0.01151251      -0.00753952
Cr      24.64200738      17.59172654      24.64200738       0.60000000      -0.00674971       0.02824695       0.01990343       0.02824695
Cr      24.64026393      19.35487725      26.40494422       0.60000000      -0.00687149      -0.00078293       0.01229353       0.00456853
Cr      26.40750593      17.59778286      26.40750593       0.60000000      -0.00665356       0.00113914      -0.00781787       0.00113914
Cr      26.40494422      19.35487725      24.64026393       0.60000000      -0.00687149       0.00456853       0.01229353      -0.00078293
Cr      24.64595330      17.59902781      28.17667995       0.60000000      -0.00636283      -0.00306814      -0.00302865       0.00661618
Ni      24.64545790      19.36162266      29.94498394       0.60000000      -0.00620419       0.00452308       0.00348118      -0.00331480
Ni      26.41069156      17.60447740      29.94254748       0.60000000      -0.00628459       0.00370928       0.00303955       0.00919710
Ni      26.40379876      19.35952960      28.17045171       0.60000000      -0.00621594       0.02298192       0.01561291       0.01755864
Ni      24.64996674      17.60476117      31.71454245       0.60000000      -0.00622991       0.01040941       0.01236247       0.00390035
Ni      24.65516426      19.37234024      33.48419754       0.60000000      -0.00590700       0.00543301       0.00191762      -0.00202178
Ni      26.41888869      17.61492886      33.48203469       0.60000000      -0.00579519      -0.00362355      -0.00864242       0.00098999
Ni      26.41198930      19.36807071      31.71152322       0.60000000      -0.00596151       0.01016354       0.01316662      -0.00076827
Ni      24.65993718      17.61556019      35.25308483       0.60000000      -0.00582887       0.00186364      -0.00981301       0.00378990
Ni      24.66556817      19.38001985      37.02157071       0.60000000      -0.00630923       0.00697194       0.00721908       0.00770583
Ni      26.42773479      17.61792436      37.01857846       0.60000000      -0.00634258       0.00358101       0.00762048       0.00648123
Ni      26.42400115      19.37961182      35.25118081       0.60000000      -0.00581511       0.00058375      -0.00186471       0.00376502
Ni      24.66691035      17.61736239      38.78644319       0.60000000      -0.00992667       0.00011788       0.00247001      -0.01857956
Ni      24.66983197      19.38263261      40.54663907       0.60000000      -0.00442784       0.01563934      -0.02107177      -0.22968189
Ni      26.43186226      17.61967122      40.54453224       0.60000000      -0.00475346       0.02619598      -0.02643191      -0.21272816
Ni      26.43510414      19.38547926      38.78669546       0.60000000      -0.00977894      -0.01787348      -0.01453717      -0.02821709
Ni      24.67123130      21.14080397      -0.01921861       0.60000000      -0.00542580       0.00813025       0.01670051       0.22358570
Ni      24.66983197      22.90349611       1.73948966       0.60000000      -0.01103413      -0.00005836       0.00006460      -0.00958800
Ni      26.43631740      21.13823684       1.74064512       0.60000000      -0.01088865       0.00003983       0.00046380      -0.01144643
Ni      26.43328589      22.90327777      -0.01829721       0.60000000      -0.00549018       0.02309148       0.03059379       0.22064097
Ni      24.67346053      21.13730211       3.49716161       0.60000000      -0.00693996      -0.01584993       0.00950683       0.02193979
Ni      24.66725109      22.90085124       5.25864867       0.60000000      -0.00695509      -0.00215528      -0.00142222       0.00155110
Ni      26.43392702      21.13544662       5.26088404       0.60000000      -0.00704823      -0.00042657       0.00114716      -0.00013525
Ni      26.43510414      22.89994853       3.49873233       0.60000000      -0.00686020      -0.01287330       0.00969928       0.02669881
Ni      24.66443741      21.13384145       7.01932635       0.60000000      -0.00676183       0.00013225       0.00118808       0.00707738
Ni      24.65847095      22.89345750       8.78325332       0.60000000      -0.00660751      -0.00095892       0.00160173       0.00309553
Ni      26.42496930      21.13066078       8.78582021       0.60000000      -0.00654122      -0.00047352       0.00273175      -0.00019912
Ni      26.42774463      22.89721081       7.02394958       0.60000000      -0.00654228       0.00079329       0.00268692       0.00599836
Ni      24.65404534      21.12707900      10.54460857       0.60000000      -0.00684720       0.00433831       0.00273893       0.00648065
Ni      24.64948181      22.88598831      12.30863457       0.60000000      -0.00672968      -0.00040074       0.00379889      -0.00175246
Ni      26.41592028      21.12634967      12.31242319       0.60000000      -0.00679691      -0.00112313      -0.00754735      -0.00724761
Ni      26.41903784      22.88983133      10.54960689       0.60000000      -0.00654223       0.00678106       0.00549036       0.00199949
Ni      24.64447060      21.12320451      14.07158563       0.60000000      -0.00703482       0.01483588      -0.00700908      -0.00127280
Cr      24.64817600      22.88427518      15.83402899       0.60000000      -0.00685585      -0.01401990      -0.01029996      -0.00114847
Ni      26.40775759      21.12133166      15.83543452       0.60000000      -0.00690203       0.01876853       0.00372776       0.00843931
Ni      26.41062815      22.88391587      14.07357102       0.60000000      -0.00666359       0.01966472       0.01780901       0.00681042
Cr      24.64667625      21.11905663      17.59547602       0.60000000      -0.00731034      -0.02068510      -0.00435288      -0.01309245
Cr      24.63946202      22.87673110      19.35057451       0.60000000      -0.00688045       0.01831651      -0.00284056       0.02382186
Cr      26.41231471      21.11831236      19.35518648       0.60000000      -0.00682707      -0.00194255      -0.00753952       0.01151251
Cr      26.41249245      22.88145240      17.59745201       0.60000000      -0.00678686      -0.00760642       0.00745380      -0.01495359
Cr      24.63750282      21.10889212      21.10889212       0.60000000      -0.00722555       0.02155751       0.02856489       0.02856489
Cr      24.63376161      22.86880353      22.86880353       0.60000000      -0.00688189      -0.00349110       0.01191352       0.01191352
Cr      26.40377299      21.11281240      22.87216389       0.60000000      -0.00673029       0.00891388      -0.00603595       0.02608470
Cr      26.40377299      22.87216389      21.11281240       0.60000000      -0.00673029       0.00891388       0.02608470      -0.00603595
Cr      24.63519307      21.11149023      24.63519307       0.60000000      -0.00674325       0.01516727       0.00134350       0.01516727
Ni      24.63309182      22.87196054      26.39725298       0.60000000      -0.00658565       0.01155234       0.00967608       0.03273583
Ni      26.40249783      21.11533342      26.40249783       0.60000000      -0.00651098      -0.00334333       0.01836968      -0.00334333
Ni      26.39725298      22.87196054      24.63309182       0.60000000      -0.00658565       0.03273583       0.00967608       0.01155234
Ni      24.63880820      21.11717655      28.16956721       0.60000000      -0.00650994       0.00442860       0.00646417       0.01430413
Ni      24.64224927      22.88105709      29.93679719       0.60000000      -0.00594497      -0.00731766      -0.00476189       0.01478967
Ni      26.40528795      21.12165228      29.93675184       0.60000000      -0.00607759       0.00768762       0.00889529       0.01462852
Ni      26.39948229      22.87794215      28.16653095       0.60000000      -0.00610413       0.01788205       0.00928139      -0.00374752
Ni      24.64848771      21.12559943      31.71218803       0.60000000      -0.00596316       0.00869311       0.01925323       0.00307864
Ni      24.65654103      22.89597713      33.48053446       0.60000000      -0.00554856      -0.00920548      -0.01280896       0.00269188
Ni      26.41784621      21.13664224      33.48005113       0.60000000      -0.00559963      -0.00148553      -0.01315626       0.00301853
Ni      26.40876145      22.88688394      31.70472903       0.60000000      -0.00550721       0.01722426       0.01714441       0.01202093
Ni      24.66177220      21.14017857      35.25288640       0.60000000      -0.00579628      -0.00050958      -0.00426771       0.00255800
Ni      24.66944472      22.90782844      37.02173144       0.60000000      -0.00609194       0.00179598       0.00034053       0.00935155
Ni      26.43157591      21.14603376      37.02018970       0.60000000      -0.00616643       0.00196824       0.00057602       0.00925134
Ni      26.42494336      22.90203999      35.24968292       0.60000000      -0.00542660       0.00819959       0.01192781       0.00714047
Ni      24.67346053      21.14876253      38.78890303       0.60000000      -0.00997734      -0.01938298      -0.01855880      -0.02967414
Ni      24.67438038      22.91198122      40.54779115       0.60000000      -0.00414037      -0.00949360      -0.02217674      -0.23152034
Ni      26.43631740      21.14906032      40.54665203       0.60000000      -0.00432020       0.00409535      -0.03115510      -0.22280711
Ni      26.44140513      22.91658987      38.78913493       0.60000000      -0.00979946      -0.03579086      -0.03535158      -0.04018999
Ni      24.66809830      24.66809830      -0.01869139       0.60000000      -0.00537802       0.02828452       0.02828452       0.22715991
Ni      24.66595088      26.43186226       1.74108986       0.60000000      -0.01083037       0.00073165       0.00051849      -0.00990300
Ni      26.43186226      24.66595088       1.74108986       0.60000000      -0.01083037       0.00051849       0.00073165      -0.00990300
Ni      26.43037181      26.43037181      -0.01720626       0.60000000      -0.00549233       0.03888300       0.03888300       0.21984418
Ni      24.66691035      24.66691035       3.49782954       0.60000000      -0.00676736       0.00033267       0.00033267       0.02744516
Ni      24.66358212      26.42958781       5.26207202       0.60000000      -0.00689199      -0.00004296      -0.00211641       0.00245662
Ni      26.42958781      24.66358212       5.26207202       0.60000000      -0.00689199      -0.00211641      -0.00004296       0.00245662
Ni      26.42920448      26.42920448       3.50042197       0.60000000      -0.00670955       0.00038479       0.00038479       0.02787868
Ni      24.66187745      24.66187745       7.02296434       0.60000000      -0.00657966       0.00220966       0.00220966       0.00628185
Ni      24.65785762      26.42246341       8.78983232       0.60000000      -0.00658810       0.00050968       0.00170129       0.00337203
Ni      26.42246341      24.65785762       8.78983232       0.60000000      -0.00658810       0.00170129       0.00050968       0.00337203
Ni      26.42511886      26.42511886       7.02805038       0.60000000      -0.00635872      -0.00078010      -0.00078010       0.00559446
Ni      24.65225615      24.65225615      10.54840764       0.60000000      -0.00648771       0.01134848       0.01134848       0.00233235
Ni      24.64923007      26.41453594      12.31300590       0.60000000      -0.00668185       0.01090328       0.00497090       0.00820395
Ni      26.41453594      24.64923007      12.31300590       0.60000000      -0.00668185       0.00497090       0.01090328       0.00820395
Ni      26.41804998      26.41804998      10.55682733       0.60000000      -0.00632949       0.00096807       0.00096807      -0.01158804
Cr      24.64842549      24.64842549      14.07158715       0.60000000      -0.00706453       0.00582260       0.00582260       0.01383100
Cr      24.64687060      26.41316334      15.83491046       0.60000000      -0.00692927       0.00180628      -0.01375466       0.01231977
Cr      26.41316334      24.64687060      15.83491046       0.60000000      -0.00692927      -0.01375466       0.00180628       0.01231977
Cr      26.41310437      26.41310437      14.07711814       0.60000000      -0.00640586      -0.00112142      -0.00112142       0.00052468
Cr      24.64200738      24.64200738      17.59172654       0.60000000      -0.00674971       0.02824695       0.02824695       0.01990343
Cr      24.64026393      26.40494422      19.35487725       0.60000000      -0.00687149      -0.00078293       0.00456853       0.01229353
Cr      26.40494422      24.64026393      19.35487725       0.60000000      -0.00687149       0.00456853      -0.00078293       0.01229353
Cr      26.40750593      26.40750593      17.59778286       0.60000000      -0.00665356       0.00113914       0.00113914      -0.00781787
Cr      24.63519307      24.63519307      21.11149023       0.60000000      -0.00674325       0.01516727       0.01516727       0.00134350
Ni      24.63309182      26.39725298      22.87196054       0.60000000      -0.00658565       0.01155234       0.03273583       0.00967608
Ni      26.39725298      24.63309182      22.87196054       0.60000000      -0.00658565       0.03273583       0.01155234       0.00967608
Ni      26.40249783      26.40249783      21.11533342       0.60000000      -0.00651098      -0.00334333      -0.00334333       0.01836968
Ni      24.63011131      24.63011131      24.63011131       0.60000000      -0.00625923       0.02159814       0.02159814       0.02159814
Ni      24.63216226      26.39596509      26.39596509       0.60000000      -0.00630118       0.01814944       0.00408250       0.00408250
Ni      26.39596509      24.63216226      26.39596509       0.60000000      -0.00630118       0.00408250       0.01814944       0.00408250
Ni      26.39596509      26.39596509      24.63216226       0.60000000      -0.00630118       0.00408250       0.00408250       0.01814944
Ni      24.63624454      24.63624454      28.16623675       0.60000000      -0.00614218      -0.00319321      -0.00319321      -0.01349700
Ni      24.64135156      26.40266905      29.93312646       0.60000000      -0.00588303       0.02438408       0.02464013       0.01305264
Ni      26.40266905      24.64135156      29.93312646       0.60000000      -0.00588303       0.02464013       0.02438408       0.01305264
Ni      26.39649485      26.39649485      28.15951962       0.60000000      -0.00578977       0.03668221       0.03668221       0.04431386
Ni      24.64644608      24.64644608      31.70429573       0.60000000      -0.00550142       0.02599561       0.02599561       0.01571883
Ni      24.65639164      26.41678674      33.47388490       0.60000000      -0.00544629      -0.00145921       0.00411948       0.00720182
Ni      26.41678674      24.65639164      33.47388490       0.60000000      -0.00544629       0.00411948      -0.00145921       0.00720182
Ni      26.41155688      26.41155688      31.70229519       0.60000000      -0.00521348      -0.01682116      -0.01682116      -0.00709049
Ni      24.66303996      24.66303996      35.24989433       0.60000000      -0.00545475       0.00864719       0.00864719       0.00845286
Ni      24.67213507      26.43434965      37.02033868       0.60000000      -0.00617994       0.00010878      -0.00300505      -0.00735849
Ni      26.43434965      24.67213507      37.02033868       0.60000000      -0.00617994      -0.00300505       0.00010878      -0.00735849
Ni      26.42471051      26.42471051      35.24398603       0.60000000      -0.00516007       0.00642000       0.00642000       0.01027261
Ni      24.67944780      24.67944780      38.78991606       0.60000000      -0.00983696      -0.03757541      -0.03757541      -0.04008983
Ni      24.67764284      26.44007549      40.54740484       0.60000000      -0.00422109      -0.02872737      -0.01711737      -0.21484611
Ni      26.44007549      24.67764284      40.54740484       0.60000000      -0.00422109      -0.01711737      -0.02872737      -0.21484611
Ni      26.44510292      26.44510292      38.78914133       0.60000000      -0.00966743      -0.04183234      -0.04183234      -0.05248960
Ni      24.66584640      28.19522323      -0.01685961       0.60000000      -0.00560161       0.04026281       0.03417906       0.21366796
Ni      24.66398527      29.95940295       1.74416477       0.60000000      -0.01045644       0.00166778       0.00083217      -0.01088188
Ni      26.42854315      28.19389826       1.74329392       0.60000000      -0.01054838       0.00123778       0.00092331      -0.00964372
Ni      26.42851367      29.95713775      -0.01504777       0.60000000      -0.00580552       0.04439622       0.03970409       0.20015959
Ni      24.66291397      28.19655314       3.50119317       0.60000000      -0.00675963       0.00950738      -0.01044295       0.02641919
Ni      24.66275652      29.95733157       5.26732610       0.60000000      -0.00696515      -0.00019543       0.00101817       0.00203685
Ni      26.42615176      28.19131423       5.26607837       0.60000000      -0.00684062       0.00203042       0.00141845       0.00121764
Ni      26.42619706      29.95805894       3.50429067       0.60000000      -0.00673679       0.00721216      -0.00897208       0.02520361
Ni      24.66076974      28.19044766       7.02914841       0.60000000      -0.00640392       0.00272322      -0.00063758       0.00250116
Ni      24.65929984      29.95255536       8.79635750       0.60000000      -0.00628874       0.00092853       0.00078709       0.00297738
Ni      26.42180309      28.18603455       8.79586650       0.60000000      -0.00637661       0.00210315       0.00297131       0.00436961
Ni      26.42426539      29.95267960       7.03389919       0.60000000      -0.00641317       0.00244656       0.00081787       0.00051462
Ni      24.65442244      28.18509607      10.55654403       0.60000000      -0.00641263       0.00247639      -0.00327538      -0.00406113
Ni      24.65248216      29.94799276      12.32276885       0.60000000      -0.00618293       0.00974615       0.01048288      -0.00991770
Ni      26.41438056      28.18033053      12.32087200       0.60000000      -0.00619580       0.01370934       0.01038075      -0.00182875
Ni      26.42018375      29.94961125      10.56251543       0.60000000      -0.00638588      -0.00026233      -0.00206212      -0.00109920
Ni      24.64891932      28.17847842      14.07768428       0.60000000      -0.00638745      -0.00428419       0.00264594       0.00963901
Ni      24.64745330      29.94543227      15.84188201       0.60000000      -0.00655444       0.01103645       0.00632768       0.00607129
Cr      26.41166325      28.17794337      15.83993481       0.60000000      -0.00642424       0.00254677      -0.00438763       0.01325395
Ni      26.41324248      29.94564955      14.08554111       0.60000000      -0.00625308       0.01721456       0.00746719      -0.00020217
Cr      24.64595330      28.17667995      17.59902781       0.60000000      -0.00636283      -0.00306814       0.00661618      -0.00302865
Ni      24.64545790      29.94498394      19.36162266       0.60000000      -0.00620419       0.00452308      -0.00331480       0.00348118
Ni      26.40379876      28.17045171      19.35952960       0.60000000      -0.00621594       0.02298192       0.01755864       0.01561291
Ni      26.41069156      29.94254748      17.60447740       0.60000000      -0.00628459       0.00370928       0.00919710       0.00303955
Ni      24.63880820      28.16956721      21.11717655       0.60000000      -0.00650994       0.00442860       0.01430413       0.00646417
Ni      24.64224927      29.93679719      22.88105709       0.60000000      -0.00594497      -0.00731766       0.01478967      -0.00476189
Ni      26.39948229      28.16653095      22.87794215       0.60000000      -0.00610413       0.01788205      -0.00374752       0.00928139
Ni      26.40528795      29.93675184      21.12165228       0.60000000      -0.00607759       0.00768762       0.01462852       0.00889529
Ni      24.63624454      28.16623675      24.63624454       0.60000000      -0.00614218      -0.00319321      -0.01349700      -0.00319321
Ni      24.64135156      29.93312646      26.40266905       0.60000000      -0.00588303       0.02438408       0.01305264       0.02464013
Ni      26.39649485      28.15951962      26.39649485       0.60000000      -0.00578977       0.03668221       0.04431386       0.03668221
Ni      26.40266905      29.93312646      24.64135156       0.60000000      -0.00588303       0.02464013       0.01305264       0.02438408
Ni      24.64131814      28.16372817      28.16372817       0.60000000      -0.00605489      -0.00971524       0.01361786       0.01361786
Ni      24.64517132      29.93225046      29.93225046       0.60000000      -0.00544238       0.03122257       0.01682048       0.01682048
Ni      26.40511435      28.16706525      29.93111570       0.60000000      -0.00544735      -0.00097417      -0.00526511      -0.00344327
Ni      26.40511435      29.93111570      28.16706525       0.60000000      -0.00544735      -0.00097417      -0.00344327      -0.00526511
Ni      24.64993077      28.17305713      31.70230442       0.60000000      -0.00558409       0.00358800       0.00228844      -0.00135214
Ni      24.65994869      29.94450636      33.47256252       0.60000000      -0.00522435       0.00063460       0.00626764       0.01276430
Ni      26.41794232      28.17999576      33.47073073       0.60000000      -0.00524310       0.00999241       0.00739493       0.01489045
Ni      26.41379981      29.93724850      31.69971338       0.60000000      -0.00523189       0.00364467       0.00654910       0.01531708
Ni      24.66452227      28.18739948      35.24448278       0.60000000      -0.00514577       0.00219856       0.00462115       0.00851430
Ni      24.67270921      29.95977254      37.01441322       0.60000000      -0.00623681       0.01221606       0.00447621       0.01259428
Ni      26.43389189      28.19611077      37.01471262       0.60000000      -0.00614536       0.01473082       0.01238041       0.01652175
Ni      26.42704635      29.95117410      35.24273376       0.60000000      -0.00499550       0.00916789       0.00459747       0.00260746
Ni      24.68210864      28.20705349      38.78839367       0.60000000      -0.00965798      -0.03890905      -0.03939574      -0.05167450
Ni      24.67858517      29.96599561      40.54529871       0.60000000      -0.00454512      -0.03691698      -0.00885962      -0.18580309
Ni      26.44175163      28.20421339      40.54631430       0.60000000      -0.00430170      -0.03020997      -0.02016124      -0.19211138
Ni      26.44530000      29.97033731      38.78652071       0.60000000      -0.00965925      -0.04479050      -0.04770108      -0.06185034
Ni      24.66487116      31.72144311      -0.01425829       0.60000000      -0.00606142       0.04168815       0.03331833       0.18515210
Ni      24.66374460      33.48535049       1.74771700       0.60000000      -0.00999043       0.00206480       0.00081519      -0.01051156
Ni      26.42712935      31.72091070       1.74655014       0.60000000      -0.01011885       0.00187944       0.00084621      -0.00974659
Ni      26.42782843      33.48301722      -0.01241808       0.60000000      -0.00629299       0.04106922       0.03469915       0.16827123
Ni      24.66204400      31.72407103       3.50583938       0.60000000      -0.00694944       0.01387754      -0.01361004       0.02370836
Ni      24.66418149      33.48469067       5.27243511       0.60000000      -0.00701323      -0.00310323      -0.00034898       0.00064535
Ni      26.42627669      31.71886780       5.27113646       0.60000000      -0.00697438      -0.00152567       0.00138243      -0.00110445
Ni      26.42585881      33.48495605       3.50879450       0.60000000      -0.00696001       0.00998982      -0.01130082       0.02164685
Ni      24.66282376      31.71903463       7.03452483       0.60000000      -0.00652182      -0.00115281      -0.00016367       0.00285155
Ni      24.66272888      33.48293865       8.80053252       0.60000000      -0.00643831      -0.00289924      -0.00345187       0.00390499
Ni      26.42397128      31.71616453       8.80060423       0.60000000      -0.00629388      -0.00235268      -0.00397424       0.00400485
Ni      26.42657057      33.48127578       7.03790860       0.60000000      -0.00650154      -0.00218314       0.00012842       0.00054925
Ni      24.65847739      31.71656515      10.56265675       0.60000000      -0.00637822      -0.00011767      -0.00055145      -0.00023938
Ni      24.65899785      33.48332005      12.32628301       0.60000000      -0.00618806      -0.00355401      -0.00201250       0.00013693
Ni      26.41981287      31.71407364      12.32743257       0.60000000      -0.00616181      -0.00290531       0.00370230      -0.00116474
Ni      26.42364141      33.48101028      10.56596908       0.60000000      -0.00624669      -0.00065445      -0.00129995       0.00037875
Ni      24.65329904      31.71577082      14.08553789       0.60000000      -0.00635089       0.00456271      -0.00083778       0.00423355
Ni      24.65668459      33.48446664      15.84957962       0.60000000      -0.00600631      -0.00540337      -0.00088195       0.00082607
Ni      26.41544648      31.71306447      15.84941118       0.60000000      -0.00623715       0.00254568      -0.00125362       0.00275540
Ni      26.42083315      33.48150583      14.09156678       0.60000000      -0.00602726      -0.00128887       0.00361028      -0.00632953
Ni      24.64996674      31.71454245      17.60476117       0.60000000      -0.00622991       0.01040941       0.00390035       0.01236247
Ni      24.65516426      33.48419754      19.37234024       0.60000000      -0.00590700       0.00543301      -0.00202178       0.00191762
Ni      26.41198930      31.71152322      19.36807071       0.60000000      -0.00596151       0.01016354      -0.00076827       0.01316662
Ni      26.41888869      33.48203469      17.61492886       0.60000000      -0.00579519      -0.00362355       0.00098999      -0.00864242
Ni      24.64848771      31.71218803      21.12559943       0.60000000      -0.00596316       0.00869311       0.00307864       0.01925323
Ni      24.65654103      33.48053446      22.89597713       0.60000000      -0.00554856      -0.00920548       0.00269188      -0.01280896
Ni      26.40876145      31.70472903      22.88688394       0.60000000      -0.00550721       0.01722426       0.01202093       0.01714441
Ni      26.41784621      33.48005113      21.13664224       0.60000000      -0.00559963      -0.00148553       0.00301853      -0.01315626
Ni      24.64644608      31.70429573      24.64644608       0.60000000      -0.00550142       0.02599561       0.01571883       0.02599561
Ni      24.65639164      33.47388490      26.41678674       0.60000000      -0.00544629      -0.00145921       0.00720182       0.00411948
Ni      26.41155688      31.70229519      26.41155688       0.60000000      -0.00521348      -0.01682116      -0.00709049      -0.01682116
Ni      26.41678674      33.47388490      24.65639164       0.60000000      -0.00544629       0.00411948       0.00720182      -0.00145921
Ni      24.64993077      31.70230442      28.17305713       0.60000000      -0.00558409       0.00358800      -0.00135214       0.00228844
Ni      24.65994869      33.47256252      29.94450636       0.60000000      -0.00522435       0.00063460       0.01276430       0.00626764
Ni      26.41379981      31.69971338      29.93724850       0.60000000      -0.00523189       0.00364467       0.01531708       0.00654910
Ni      26.41794232      33.47073073      28.17999576       0.60000000      -0.00524310       0.00999241       0.01489045       0.00739493
Ni      24.65895703      31.70460258      31.70460258       0.60000000      -0.00512691      -0.01069015       0.01285906       0.01285906
Ni      24.66466260      33.47756342      33.47756342       0.60000000      -0.00516081       0.01466944       0.00244453       0.00244453
Ni      26.42274173      31.70945602      33.47270716       0.60000000      -0.00506660       0.01161654       0.00761814       0.00614110
Ni      26.42274173      33.47270716      31.70945602       0.60000000      -0.00506660       0.01161654       0.00614110       0.00761814
Ni      24.66727259      31.71707024      35.24448750       0.60000000      -0.00514002       0.01196875      -0.00333114       0.00026024
Ni      24.67536103      33.48733754      37.01436802       0.60000000      -0.00646325      -0.00349036      -0.01070946      -0.00929447
Ni      26.43695845      31.72352878      37.01449452       0.60000000      -0.00637149      -0.00278790      -0.00695408      -0.01084268
Ni      26.43198945      33.48253393      35.24527080       0.60000000      -0.00533641       0.00288805      -0.00926076      -0.00527412
Ni      24.68133286      31.73146869      38.78465781       0.60000000      -0.00964470      -0.03357897      -0.04031658      -0.05335598
Ni      24.67762864      33.49004278      40.54209299       0.60000000      -0.00553973      -0.03579833      -0.00231564      -0.15452635
Ni      26.44130136      31.72873845      40.54370073       0.60000000      -0.00513100      -0.03368221      -0.01074240      -0.16396372
Ni      26.44313515      33.49329621      38.78240545       0.60000000      -0.00955749      -0.02336682      -0.03119580      -0.04255702
Ni      24.66486809      35.24656573      -0.01152197       0.60000000      -0.00656171       0.03621336       0.02804536       0.15047101
Ni      24.66438032      37.00994034       1.75097144       0.60000000      -0.00957835       0.00179712       0.00067978      -0.00871266
Ni      26.42710282      35.24652783       1.74990174       0.60000000      -0.00968308       0.00190651       0.00052187      -0.00884041
Ni      26.42789780      37.00794746      -0.00987487       0.60000000      -0.00675043       0.03360649       0.02743087       0.13409158
Ni      24.66290959      35.24927912       3.51028344       0.60000000      -0.00718568       0.00989755      -0.01062563       0.02017119
Ni      24.66411694      37.01053639       5.27596172       0.60000000      -0.00732770      -0.00133303       0.00131109      -0.00133424
Ni      26.42752507      35.24595318       5.27524088       0.60000000      -0.00696223      -0.00353504       0.00058843      -0.00195006
Ni      26.42667823      37.01000857       3.51272013       0.60000000      -0.00728583       0.00553976      -0.00882178       0.01557007
Ni      24.66477030      35.24734303       7.03824155       0.60000000      -0.00653749      -0.00436947      -0.00006165       0.00008943
Ni      24.66358800      37.01327609       8.80043878       0.60000000      -0.00690766      -0.00276691      -0.00136620       0.00262897
Ni      26.42639296      35.24625900       8.80270519       0.60000000      -0.00649545      -0.00271140      -0.00185182       0.00065304
Ni      26.42736744      37.01011885       7.03902725       0.60000000      -0.00690560      -0.00312562       0.00028697       0.00081951
Ni      24.66184420      35.24916657      10.56391823       0.60000000      -0.00635748       0.00040501      -0.00250099       0.00250892
Ni      24.66139817      37.01626108      12.32639716       0.60000000      -0.00672309       0.00280176       0.00031245      -0.00018178
Ni      26.42351001      35.24808327      12.32916453       0.60000000      -0.00614261       0.00172924      -0.00068558      -0.00080370
Ni      26.42534733      37.01288914      10.56471413       0.60000000      -0.00675083       0.00159211      -0.00034215       0.00261259
Ni      24.65922303      35.25088813      14.08961511       0.60000000      -0.00604724       0.00441088       0.00211581      -0.00229324
Ni      24.66255947      37.01947452      15.85303032       0.60000000      -0.00653501      -0.00108047       0.00108728      -0.00053469
Ni      26.42238094      35.24963242      15.85510801       0.60000000      -0.00590341       0.00687593       0.00550630      -0.00631754
Ni      26.42490906      37.01546053      14.09135691       0.60000000      -0.00651342       0.00340455       0.00490364       0.00119889
Ni      24.65993718      35.25308483      17.61556019       0.60000000      -0.00582887       0.00186364       0.00378990      -0.00981301
Ni      24.66556817      37.02157071      19.38001985       0.60000000      -0.00630923       0.00697194       0.00770583       0.00721908
Ni      26.42400115      35.25118081      19.37961182       0.60000000      -0.00581511       0.00058375       0.00376502      -0.00186471
Ni      26.42773479      37.01857846      17.61792436       0.60000000      -0.00634258       0.00358101       0.00648123       0.00762048
Ni      24.66177220      35.25288640      21.14017857       0.60000000      -0.00579628      -0.00050958       0.00255800      -0.00426771
Ni      24.66944472      37.02173144      22.90782844       0.60000000      -0.00609194       0.00179598       0.00935155       0.00034053
Ni      26.42494336      35.24968292      22.90203999       0.60000000      -0.00542660       0.00819959       0.00714047       0.01192781
Ni      26.43157591      37.02018970      21.14603376       0.60000000      -0.00616643       0.00196824       0.00925134       0.00057602
Ni      24.66303996      35.24989433      24.66303996       0.60000000      -0.00545475       0.00864719       0.00845286       0.00864719
Ni      24.67213507      37.02033868      26.43434965       0.60000000      -0.00617994       0.00010878      -0.00735849      -0.00300505
Ni      26.42471051      35.24398603      26.42471051       0.60000000      -0.00516007       0.00642000       0.01027261       0.00642000
Ni      26.43434965      37.02033868      24.67213507       0.60000000      -0.00617994      -0.00300505      -0.00735849       0.00010878
Ni      24.66452227      35.24448278      28.18739948       0.60000000      -0.00514577       0.00219856       0.00851430       0.00462115
Ni      24.67270921      37.01441322      29.95977254       0.60000000      -0.00623681       0.01221606       0.01259428       0.00447621
Ni      26.42704635      35.24273376      29.95117410       0.60000000      -0.00499550       0.00916789       0.00260746       0.00459747
Ni      26.43389189      37.01471262      28.19611077       0.60000000      -0.00614536       0.01473082       0.01652175       0.01238041
Ni      24.66727259      35.24448750      31.71707024       0.60000000      -0.00514002       0.01196875       0.00026024      -0.00333114
Ni      24.67536103      37.01436802      33.48733754       0.60000000      -0.00646325      -0.00349036      -0.00929447      -0.01070946
Ni      26.43198945      35.24527080      33.48253393       0.60000000      -0.00533641       0.00288805      -0.00527412      -0.00926076
Ni      26.43695845      37.01449452      31.72352878       0.60000000      -0.00637149      -0.00278790      -0.01084268      -0.00695408
Ni      24.67236193      35.24839629      35.24839629       0.60000000      -0.00568927       0.00157384      -0.01342238      -0.01342238
Ni      24.67641167      37.01422054      37.01422054       0.60000000      -0.00716645      -0.00074008      -0.01086001      -0.01086001
Ni      26.43895888      35.25124512      37.01410401       0.60000000      -0.00667184      -0.00421454      -0.01400136      -0.01010356
Ni      26.43895888      37.01410401      35.25124512       0.60000000      -0.00667184      -0.00421454      -0.01010356      -0.01400136
Ni      24.67880634      35.25406254      38.78016197       0.60000000      -0.00959725      -0.01651632      -0.02328804      -0.02905478
Ni      24.67583082      37.01306642      40.53870870       0.60000000      -0.00652223      -0.03014276       0.00103928      -0.12470908
Ni      26.43960112      35.25194501      40.54042847       0.60000000      -0.00609946      -0.03076805      -0.00432241      -0.13479564
Ni      26.44022528      37.01532714      38.77817234       0.60000000      -0.00968992      -0.00834986      -0.01496675      -0.01627456
Ni      24.66533415      38.77084532      -0.00907074       0.60000000      -0.00847272       0.02872713       0.02680041       0.11769031
Ni      24.66522668      40.53373723       1.75361119       0.60000000      -0.00898682       0.02590504      -0.09275753      -0.01323404
Ni      26.42764922      38.77103522       1.75276786       0.60000000      -0.01100617       0.00148227       0.00556836      -0.00664802
Ni      26.42827400      40.53217664      -0.00771213       0.60000000      -0.00668585       0.04880801      -0.06431262       0.10365795
Ni      24.66420286      38.77314357       3.51386146       0.60000000      -0.00929636       0.00186168      -0.00038165       0.00695328
Ni      24.66438032      40.53605451       5.27708561       0.60000000      -0.00664536       0.03360381      -0.11712327      -0.00912197
Ni      26.42667823      38.77329378       5.27600534       0.60000000      -0.00921490       0.00546433      -0.00721804       0.00933720
Ni      26.42764922      40.53397680       3.51570944       0.60000000      -0.00699853       0.02942891      -0.10027391      -0.00807647
Ni      24.66290959      38.77618242       7.03718674       0.60000000      -0.00945895       0.00844314      -0.01084139       0.01067111
Ni      24.66374460      40.53885208       8.80121859       0.60000000      -0.00610854       0.04101396      -0.14670040      -0.01144431
Ni      26.42585881      38.77619334       8.80003178       0.60000000      -0.00933344       0.00832111      -0.00871054       0.01367872
Ni      26.42710282      40.53625274       7.03962665       0.60000000      -0.00644840       0.03715982      -0.12586283      -0.01052595
Ni      24.66204400      38.77980450      10.56157284       0.60000000      -0.00969722       0.01017696      -0.01415412       0.01507614
Ni      24.66398527      40.54183092      12.32659275       0.60000000      -0.00546449       0.04373273      -0.17892304      -0.01380097
Ni      26.42619706      38.77958135      12.32581307       0.60000000      -0.00954017       0.00507119      -0.01310178       0.01596090
Ni      26.42712935      40.53893643      10.56457587       0.60000000      -0.00591523       0.04246895      -0.15610982      -0.01415141
Ni      24.66291397      38.78338840      14.08802843       0.60000000      -0.00985535       0.00871369      -0.01724445       0.01420171
Ni      24.66595088      40.54453224      15.85375984       0.60000000      -0.00488713       0.03590187      -0.20941384      -0.01689830
Ni      26.42920448      38.78317624      15.85439373       0.60000000      -0.00960235      -0.00086555      -0.01589667       0.00506415
Ni      26.42854315      40.54179918      14.09119484       0.60000000      -0.00529024       0.04013980      -0.18736220      -0.01939937
Ni      24.66691035      38.78644319      17.61736239       0.60000000      -0.00992667       0.00011788      -0.01857956       0.00247001
Ni      24.66983197      40.54663907      19.38263261       0.60000000      -0.00442784       0.01563934      -0.22968189      -0.02107177
Ni      26.43510414      38.78669546      19.38547926       0.60000000      -0.00977894      -0.01787348      -0.02821709      -0.01453717
Ni      26.43186226      40.54453224      17.61967122       0.60000000      -0.00475346       0.02619598      -0.21272816      -0.02643191
Ni      24.67346053      38.78890303      21.14876253       0.60000000      -0.00997734      -0.01938298      -0.02967414      -0.01855880
Ni      24.67438038      40.54779115      22.91198122       0.60000000      -0.00414037      -0.00949360      -0.23152034      -0.02217674
Ni      26.44140513      38.78913493      22.91658987       0.60000000      -0.00979946      -0.03579086      -0.04018999      -0.03535158
Ni      26.43631740      40.54665203      21.14906032       0.60000000      -0.00432020       0.00409535      -0.22280711      -0.03115510
Ni      24.67944780      38.78991606      24.67944780       0.60000000      -0.00983696      -0.03757541      -0.04008983      -0.03757541
Ni      24.67764284      40.54740484      26.44007549       0.60000000      -0.00422109      -0.02872737      -0.21484611      -0.01711737
Ni      26.44510292      38.78914133      26.44510292       0.60000000      -0.00966743      -0.04183234      -0.05248960      -0.04183234
Ni      26.44007549      40.54740484      24.67764284       0.60000000      -0.00422109      -0.01711737      -0.21484611      -0.02872737
Ni      24.68210864      38.78839367      28.20705349       0.60000000      -0.00965798      -0.03890905      -0.05167450      -0.03939574
Ni      24.67858517      40.54529871      29.96599561       0.60000000      -0.00454512      -0.03691698      -0.18580309      -0.00885962
Ni      26.44530000      38.78652071      29.97033731       0.60000000      -0.00965925      -0.04479050      -0.06185034      -0.04770108
Ni      26.44175163      40.54631430      28.20421339       0.60000000      -0.00430170      -0.03020997      -0.19211138      -0.02016124
Ni      24.68133286      38.78465781      31.73146869       0.60000000      -0.00964470      -0.03357897      -0.05335598      -0.04031658
Ni      24.67762864      40.54209299      33.49004278       0.60000000      -0.00553973      -0.03579833      -0.15452635      -0.00231564
Ni      26.44313515      38.78240545      33.49329621       0.60000000      -0.00955749      -0.02336682      -0.04255702      -0.03119580
Ni      26.44130136      40.54370073      31.72873845       0.60000000      -0.00513100      -0.03368221      -0.16396372      -0.01074240
Ni      24.67880634      38.78016197      35.25406254       0.60000000      -0.00959725      -0.01651632      -0.02905478      -0.02328804
Ni      24.67583082      40.53870870      37.01306642       0.60000000      -0.00652223      -0.03014276      -0.12470908       0.00103928
Ni      26.44022528      38.77817234      37.01532714       0.60000000      -0.00968992      -0.00834986      -0.01627456      -0.01496675
Ni      26.43960112      40.54042847      35.25194501       0.60000000      -0.00609946      -0.03076805      -0.13479564      -0.00432241
Ni      24.67608194      38.77611653      38.77611653       0.60000000      -0.01158207      -0.00129699      -0.00101844      -0.00101844
Ni      24.67399828      40.53575425      40.53575425       0.60000000      -0.00656570      -0.04801008      -0.09590493      -0.09590493
Ni      26.43757687      38.77460590      40.53728137       0.60000000      -0.00871143      -0.02538015       0.00480908      -0.10875646
Ni      26.43757687      40.53728137      38.77460590       0.60000000      -0.00871143      -0.02538015      -0.10875646       0.00480908
Ni      28.19748697      -0.00715814      -0.00715814       0.60000000      -0.00682708      -0.03203376       0.08401778       0.08401778
Ni      28.19907954       1.75359349       1.75359349       0.60000000      -0.01050576      -0.00031004      -0.00540993      -0.00540993
Ni      29.96047893      -0.00770898       1.75475493       0.60000000      -0.00869241      -0.01569324       0.07317982      -0.01107974
Ni      29.96047893       1.75475493      -0.00770898       0.60000000      -0.00869241      -0.01569324      -0.01107974       0.07317982
Ni      28.19892694      -0.00887142       3.51623558       0.60000000      -0.00720784      -0.01893045       0.08854350      -0.00841257
Ni      28.20108439       1.75146518       5.27682426       0.60000000      -0.00921556      -0.00027702      -0.00784786      -0.00083848
Ni      29.96197854      -0.00940452       5.27825134       0.60000000      -0.00718831      -0.01842230       0.08979601      -0.00646796
Ni      29.96233278       1.75295688       3.51551785       0.60000000      -0.00909268      -0.00003246      -0.00610664      -0.00094597
Ni      28.20041142      -0.01082978       7.03981508       0.60000000      -0.00700110      -0.02209974       0.10891294      -0.00816970
Ni      28.20309226       1.74904952       8.80029517       0.60000000      -0.00956720      -0.00031802      -0.01001791      -0.00083221
Ni      29.96336725      -0.01124961       8.80197409       0.60000000      -0.00699612      -0.01973238       0.10862737      -0.00442956
Ni      29.96436007       1.75088775       7.03888864       0.60000000      -0.00916428      -0.00009061      -0.00884668      -0.00091036
Ni      28.20155667      -0.01291163      10.56372924       0.60000000      -0.00673555      -0.02252218       0.13160113      -0.00511086
Ni      28.20443292       1.74652909      12.32419899       0.60000000      -0.01002856      -0.00024749      -0.01195517      -0.00053642
Ni      29.96420574      -0.01308827      12.32606282       0.60000000      -0.00675975      -0.01681772       0.12987733       0.00135996
Ni      29.96612421       1.74867143      10.56254729       0.60000000      -0.00960297       0.00001846      -0.01069424      -0.00077097
Ni      28.20180271      -0.01489691      14.08815480       0.60000000      -0.00642974      -0.01695789       0.15580776       0.00263772
Ni      28.20421339       1.74421565      15.84877832       0.60000000      -0.01042113      -0.00004691      -0.01328476       0.00009799
Ni      29.96398869      -0.01468370      15.85067637       0.60000000      -0.00648815      -0.00698283       0.15376008       0.01190637
Ni      29.96690868       1.74652909      14.08667474       0.60000000      -0.01001323       0.00021575      -0.01256613      -0.00022119
Ni      28.20068115      -0.01646409      17.61327672       0.60000000      -0.00610609      -0.00318149       0.18078506       0.01520862
Ni      28.20188451       1.74256401      19.37431960       0.60000000      -0.01063960       0.00024061      -0.01325418       0.00076720
Ni      29.96245072      -0.01573116      19.37596535       0.60000000      -0.00617695       0.00945928       0.17842646       0.02566236
Ni      29.96599561       1.74478405      17.61149759       0.60000000      -0.01030947       0.00046085      -0.01371351       0.00065174
Ni      28.19823757      -0.01722602      21.13921328       0.60000000      -0.00578873       0.01632103       0.20294111       0.02952188
Ni      28.19793056       1.74212565      22.90100319       0.60000000      -0.01070906       0.00053462      -0.01151100       0.00115381
Ni      29.95988638      -0.01591416      22.90197926       0.60000000      -0.00589087       0.02728759       0.19686644       0.03804528
Ni      29.96321984       1.74385413      21.13725057       0.60000000      -0.01049404       0.00067936      -0.01302190       0.00140801
Ni      28.19522323      -0.01685961      24.66584640       0.60000000      -0.00560161       0.03417906       0.21366796       0.04026281
Ni      28.19389826       1.74329392      26.42854315       0.60000000      -0.01054838       0.00092331      -0.00964372       0.00123778
Ni      29.95713775      -0.01504777      26.42851367       0.60000000      -0.00580552       0.03970409       0.20015959       0.04439622
Ni      29.95940295       1.74416477      24.66398527       0.60000000      -0.01045644       0.00083217      -0.01088188       0.00166778
Ni      28.19269161      -0.01533553      28.19269161       0.60000000      -0.00570878       0.04370019       0.20565233       0.04370019
Ni      28.19127809       1.74586735      29.95603172       0.60000000      -0.01019811       0.00143637      -0.00884160       0.00103630
Ni      29.95506886      -0.01326667      29.95506886       0.60000000      -0.00601038       0.04338445       0.18540762       0.04338445
Ni      29.95603172       1.74586735      28.19127809       0.60000000      -0.01019811       0.00103630      -0.00884160       0.00143637
Ni      28.19124555      -0.01304135      31.71909430       0.60000000      -0.00608773       0.04369142       0.18083846       0.04016095
Ni      28.19032262       1.74903116      33.48255503       0.60000000      -0.00977177       0.00169619      -0.00838540       0.00058934
Ni      29.95397714      -0.01102527      33.48110765       0.60000000      -0.00639474       0.03986085       0.15837383       0.03722974
Ni      29.95409090       1.74853135      31.71827908       0.60000000      -0.00981684       0.00124656      -0.00787067       0.00082350
Ni      28.19076900      -0.01055799      35.24466464       0.60000000      -0.00654634       0.03764322       0.14841188       0.03283583
Ni      28.19036104       1.75199165      37.00788098       0.60000000      -0.00942957       0.00148940      -0.00724696       0.00027551
Ni      29.95361541      -0.00881385      37.00638770       0.60000000      -0.00678699       0.03285606       0.12791576       0.02932642
Ni      29.95343156       1.75137714      35.24433515       0.60000000      -0.00943962       0.00124501      -0.00721214       0.00022770
Ni      28.19082997      -0.00831373      38.76942402       0.60000000      -0.00831303       0.02983849       0.11677603       0.02968546
Ni      28.19074025       1.75439323      40.53229685       0.60000000      -0.00895090       0.02512838      -0.01282940      -0.08503986
Ni      29.95361624      -0.00691492      40.53098509       0.60000000      -0.00678229       0.04710113       0.09852247      -0.05400166
Ni      29.95342405       1.75385183      38.76938057       0.60000000      -0.01065859       0.00102334      -0.00564723       0.00465222
Ni      28.19892694       3.51623558      -0.00887142       0.60000000      -0.00720784      -0.01893045      -0.00841257       0.08854350
Ni      28.20108439       5.27682426       1.75146518       0.60000000      -0.00921556      -0.00027702      -0.00083848      -0.00784786
Ni      29.96233278       3.51551785       1.75295688       0.60000000      -0.00909268      -0.00003246      -0.00094597      -0.00610664
Ni      29.96197854       5.27825134      -0.00940452       0.60000000      -0.00718831      -0.01842230      -0.00646796       0.08979601
Ni      28.20132485       3.51402506       3.51402506       0.60000000      -0.00766307       0.00031885       0.00584284       0.00584284
Ni      28.20139098       5.27642743       5.27642743       0.60000000      -0.00768757       0.00227974      -0.00302257      -0.00302257
Ni      29.96491041       3.51330138       5.27597966       0.60000000      -0.00760398      -0.00836875       0.01649722       0.00997957
Ni      29.96491041       5.27597966       3.51330138       0.60000000      -0.00760398      -0.00836875       0.00997957       0.01649722
Ni      28.20417458       3.51136668       7.03703620       0.60000000      -0.00746819      -0.01681029       0.01586955       0.00814109
Ni      28.19932997       5.27378388       8.80040011       0.60000000      -0.00744805       0.00314799      -0.00027784      -0.00301509
Ni      29.96767821       3.51077641       8.79918092       0.60000000      -0.00740922      -0.02240470       0.01686638       0.00740529
Ni      29.96191460       5.27708226       7.04009192       0.60000000      -0.00754347       0.00644366      -0.00488287      -0.00498378
Ni      28.20690210       3.50838463      10.56034720       0.60000000      -0.00748360      -0.03089510       0.01603379       0.00800288
Ni      28.19987079       5.26989376      12.32296940       0.60000000      -0.00744817       0.00295735       0.00189109      -0.00104313
Ni      29.96987277       3.50812872      12.32273525       0.60000000      -0.00753221      -0.02842354       0.01743974       0.00536853
Ni      29.96240105       5.27345571      10.56193254       0.60000000      -0.00741697       0.00073124       0.00109699      -0.00059656
Ni      28.20832350       3.50534003      14.08419778       0.60000000      -0.00748340      -0.03232785       0.01597505       0.00886072
Ni      28.20203404       5.26631362      15.84683111       0.60000000      -0.00736217      -0.00081516       0.00288833      -0.00015476
Ni      29.97033731       3.50565872      15.84687943       0.60000000      -0.00753410      -0.02612452       0.02082602       0.00814741
Ni      29.96455620       5.27015687      14.08424763       0.60000000      -0.00748506       0.00011609       0.00183681       0.00038716
Ni      28.20705349       3.50265847      17.60894350       0.60000000      -0.00735786      -0.02703752       0.02025126       0.01295962
Ni      28.20113772       5.26439072      19.37237098       0.60000000      -0.00718189      -0.00465102       0.00037963      -0.00075250
Ni      29.96811478       3.50379840      19.37196670       0.60000000      -0.00730154      -0.02244409       0.02375707       0.01300458
Ni      29.96558373       5.26808768      17.60953084       0.60000000      -0.00740777      -0.00286383       0.00125851      -0.00069424
Ni      28.20262798       3.50099600      21.13508490       0.60000000      -0.00710978      -0.02136238       0.02573020       0.01402666
Ni      28.19599437       5.26387732      22.89911422       0.60000000      -0.00701299      -0.00088801       0.00191066      -0.00034428
Ni      29.96339779       3.50314019      22.89839729       0.60000000      -0.00698777      -0.01753958       0.02475821       0.01462730
Ni      29.96270831       5.26669833      21.13640374       0.60000000      -0.00712345      -0.00359660       0.00282707      -0.00211581
Ni      28.19655314       3.50119317      24.66291397       0.60000000      -0.00675963      -0.01044295       0.02641919       0.00950738
Ni      28.19131423       5.26607837      26.42615176       0.60000000      -0.00684062       0.00141845       0.00121764       0.00203042
Ni      29.95805894       3.50429067      26.42619706       0.60000000      -0.00673679      -0.00897208       0.02520361       0.00721216
Ni      29.95733157       5.26732610      24.66275652       0.60000000      -0.00696515       0.00101817       0.00203685      -0.00019543
Ni      28.19171660       3.50368557      28.19171660       0.60000000      -0.00668201      -0.00133862       0.02625037      -0.00133862
Ni      28.18870975       5.27009966      29.95314394       0.60000000      -0.00685088       0.00316519      -0.00010648       0.00278041
Ni      29.95445745       3.50723037      29.95445745       0.60000000      -0.00674151      -0.00383127       0.02370945      -0.00383127
Ni      29.95314394       5.27009966      28.18870975       0.60000000      -0.00685088       0.00278041      -0.00010648       0.00316519
Ni      28.18968023       3.50766339      31.71980506       0.60000000      -0.00678182       0.00353170       0.02285308      -0.00883444
Ni      28.18964405       5.27442013      33.48070300       0.60000000      -0.00694333      -0.00186627      -0.00181482       0.00118984
Ni      29.95314789       3.51091438      33.48179461       0.60000000      -0.00683102       0.00017973       0.01971982      -0.00918970
Ni      29.95150044       5.27393133      31.71530153       0.60000000      -0.00684966       0.00344395      -0.00260701       0.00422325
Ni      28.18961144       3.51167777      35.24616966       0.60000000      -0.00699068       0.00557547       0.01783271      -0.00969233
Ni      28.19036012       5.27718886      37.00783046       0.60000000      -0.00713753      -0.00232671      -0.00162648       0.00133048
Ni      29.95310553       3.51423386      37.00764503       0.60000000      -0.00713677       0.00183693       0.01355761      -0.00862319
Ni      29.95262536       5.27725897      35.24287479       0.60000000      -0.00691926      -0.00050225      -0.00268535       0.00140928
Ni      28.19021061       3.51492323      38.77104860       0.60000000      -0.00900598       0.00155245       0.00702714      -0.00063793
Ni      28.19036104       5.27816782      40.53405715       0.60000000      -0.00674091       0.03205384      -0.00916339      -0.10655154
Ni      29.95342405       3.51678511      40.53231384       0.60000000      -0.00706024       0.02681835      -0.00795086      -0.08991194
Ni      29.95310553       5.27750839      38.77091956       0.60000000      -0.00885126       0.00185464       0.00986444      -0.00579812
Ni      28.20041142       7.03981508      -0.01082978       0.60000000      -0.00700110      -0.02209974      -0.00816970       0.10891294
Ni      28.20309226       8.80029517       1.74904952       0.60000000      -0.00956720      -0.00031802      -0.00083221      -0.01001791
Ni      29.96436007       7.03888864       1.75088775       0.60000000      -0.00916428      -0.00009061      -0.00091036      -0.00884668
Ni      29.96336725       8.80197409      -0.01124961       0.60000000      -0.00699612      -0.01973238      -0.00442956       0.10862737
Ni      28.20417458       7.03703620       3.51136668       0.60000000      -0.00746819      -0.01681029       0.00814109       0.01586955
Ni      28.19932997       8.80040011       5.27378388       0.60000000      -0.00744805       0.00314799      -0.00301509      -0.00027784
Ni      29.96191460       7.04009192       5.27708226       0.60000000      -0.00754347       0.00644366      -0.00498378      -0.00488287
Ni      29.96767821       8.79918092       3.51077641       0.60000000      -0.00740922      -0.02240470       0.00740529       0.01686638
Ni      28.19607245       7.03910290       7.03910290       0.60000000      -0.00713228       0.00777523      -0.00439516      -0.00439516
Ni      28.18841802       8.80090736       8.80090736       0.60000000      -0.00709816       0.01242961      -0.00371111      -0.00371111
Ni      29.95591236       7.04033637       8.80306344       0.60000000      -0.00714820       0.00908805      -0.00601141      -0.00516133
Ni      29.95591236       8.80306344       7.04033637       0.60000000      -0.00714820       0.00908805      -0.00516133      -0.00601141
Ni      28.19188295       7.03521782      10.56265504       0.60000000      -0.00712237       0.00820929       0.00183375      -0.00321085
Ni      28.18632142       8.79577710      12.32372283       0.60000000      -0.00706154       0.01473186       0.00561749       0.00097319
Ni      29.95673108       7.03496438      12.32281151       0.60000000      -0.00709329       0.00585472       0.00293121       0.00187964
Ni      29.95031135       8.80154816      10.56402471       0.60000000      -0.00706128       0.01408443      -0.00396727      -0.00401688
Ni      28.19405496       7.03032206      14.08490556       0.60000000      -0.00708928       0.00448595       0.00452309      -0.00119615
Ni      28.19030331       8.79078889      15.84543832       0.60000000      -0.00684748       0.00664828       0.00668528       0.00474498
Ni      29.96079251       7.03103610      15.84526418       0.60000000      -0.00694968      -0.00285987       0.00602969       0.00475444
Ni      29.95390328       8.79505895      14.08301038       0.60000000      -0.00691243       0.00456188       0.00821189       0.00780421
Ni      28.19640407       7.02717630      17.60809177       0.60000000      -0.00685985       0.00063644       0.00324544       0.00373455
Ni      28.19110410       8.78868294      19.36893096       0.60000000      -0.00662671       0.00146924       0.00503415       0.00393693
Ni      29.96067066       7.02995642      19.37199182       0.60000000      -0.00669570      -0.00186783       0.00276488       0.00063876
Ni      29.95731728       8.79163186      17.60678174       0.60000000      -0.00665824      -0.00145393       0.01029375       0.00649132
Ni      28.19422497       7.02621027      21.13410911       0.60000000      -0.00658040       0.00075333       0.00645907       0.00295751
Ni      28.18880859       8.79081505      22.89448356       0.60000000      -0.00645104       0.00187955       0.00414228       0.00438274
Ni      29.95685693       7.03059483      22.89875965       0.60000000      -0.00650625      -0.00060772       0.00350690      -0.00109606
Ni      29.95555039       8.79267750      21.13288389       0.60000000      -0.00647507       0.00055265       0.00575098       0.00461229
Ni      28.19044766       7.02914841      24.66076974       0.60000000      -0.00640392      -0.00063758       0.00250116       0.00272322
Ni      28.18603455       8.79586650      26.42180309       0.60000000      -0.00637661       0.00297131       0.00436961       0.00210315
Ni      29.95267960       7.03389919      26.42426539       0.60000000      -0.00641317       0.00081787       0.00051462       0.00244656
Ni      29.95255536       8.79635750      24.65929984       0.60000000      -0.00628874       0.00078709       0.00297738       0.00092853
Ni      28.18791962       7.03334359      28.18791962       0.60000000      -0.00629880      -0.00029950       0.00094091      -0.00029950
Ni      28.18611170       8.80049563      29.94998829       0.60000000      -0.00628241      -0.00326702       0.00449760      -0.00244562
Ni      29.95063169       7.03722779      29.95063169       0.60000000      -0.00632589       0.00091063       0.00132093       0.00091063
Ni      29.94998829       8.80049563      28.18611170       0.60000000      -0.00628241      -0.00244562       0.00449760      -0.00326702
Ni      28.18769492       7.03763967      31.71508602       0.60000000      -0.00643012       0.00187216       0.00004579       0.00156548
Ni      28.18759412       8.80403937      33.47901630       0.60000000      -0.00628253      -0.00010866      -0.00012904      -0.00017659
Ni      29.95069564       7.04099777      33.47767138       0.60000000      -0.00644750       0.00229110      -0.00279152       0.00291708
Ni      29.94986436       8.80418963      31.71338804       0.60000000      -0.00624304      -0.00296585       0.00151058      -0.00190125
Ni      28.18966837       7.04053332      35.24361179       0.60000000      -0.00653598      -0.00189259      -0.00219650       0.00239009
Ni      28.18925845       8.80310276      37.00976479       0.60000000      -0.00682088      -0.00031769       0.00073936      -0.00049124
Ni      29.95258161       7.04125805      37.00699525       0.60000000      -0.00688280      -0.00067637      -0.00096422       0.00206089
Ni      29.95070159       8.80566523      35.24253696       0.60000000      -0.00645893       0.00265859      -0.00177422       0.00203174
Ni      28.18961144       7.03870461      38.77319650       0.60000000      -0.00902352       0.00549321       0.01167790      -0.00671574
Ni      28.19032262       8.80273700      40.53626087       0.60000000      -0.00630497       0.03823266      -0.01281622      -0.13316882
Ni      29.95343156       7.04106653      40.53402454       0.60000000      -0.00659160       0.03276426      -0.01100019      -0.11185991
Ni      29.95314789       8.80210650      38.77298673       0.60000000      -0.00889160       0.00043782       0.01215644      -0.00528512
Ni      28.20155667      10.56372924      -0.01291163       0.60000000      -0.00673555      -0.02252218      -0.00511086       0.13160113
Ni      28.20443292      12.32419899       1.74652909       0.60000000      -0.01002856      -0.00024749      -0.00053642      -0.01195517
Ni      29.96612421      10.56254729       1.74867143       0.60000000      -0.00960297       0.00001846      -0.00077097      -0.01069424
Ni      29.96420574      12.32606282      -0.01308827       0.60000000      -0.00675975      -0.01681772       0.00135996       0.12987733
Ni      28.20690210      10.56034720       3.50838463       0.60000000      -0.00748360      -0.03089510       0.00800288       0.01603379
Ni      28.19987079      12.32296940       5.26989376       0.60000000      -0.00744817       0.00295735      -0.00104313       0.00189109
Ni      29.96240105      10.56193254       5.27345571       0.60000000      -0.00741697       0.00073124      -0.00059656       0.00109699
Ni      29.96987277      12.32273525       3.50812872       0.60000000      -0.00753221      -0.02842354       0.00536853       0.01743974
Ni      28.19188295      10.56265504       7.03521782       0.60000000      -0.00712237       0.00820929      -0.00321085       0.00183375
Ni      28.18632142      12.32372283       8.79577710       0.60000000      -0.00706154       0.01473186       0.00097319       0.00561749
Ni      29.95031135      10.56402471       8.80154816       0.60000000      -0.00706128       0.01408443      -0.00401688      -0.00396727
Ni      29.95673108      12.32281151       7.03496438       0.60000000      -0.00709329       0.00585472       0.00187964       0.00293121
Ni      28.18345152      10.56178800      10.56178800       0.60000000      -0.00698199       0.01700573      -0.00082275      -0.00082275
Ni      28.18462040      12.32258082      12.32258082       0.60000000      -0.00667281       0.00729379       0.00019473       0.00019473
Ni      29.94922355      10.56132147      12.32399021       0.60000000      -0.00687407       0.00885230       0.00240025       0.00167579
Ni      29.94922355      12.32399021      10.56132147       0.60000000      -0.00687407       0.00885230       0.00167579       0.00240025
Ni      28.18602967      10.55673266      14.08457698       0.60000000      -0.00690513       0.00811333       0.00612963       0.00527134
Ni      28.18579000      12.31933143      15.84676721       0.60000000      -0.00680779      -0.00496018      -0.00538832      -0.00627705
Ni      29.95320440      10.55560350      15.84480024       0.60000000      -0.00674341       0.00028266       0.01136762       0.00696656
Ni      29.95049204      12.32257740      14.08575769       0.60000000      -0.00680708       0.00124449       0.00109730      -0.00069203
Ni      28.18765721      10.55252402      17.60625646       0.60000000      -0.00669053       0.00131001       0.00366500       0.00485683
Ni      28.18328731      12.31584617      19.36680676       0.60000000      -0.00676824       0.00203023      -0.00080812      -0.00244377
Ni      29.95358995      10.55443113      19.36773152       0.60000000      -0.00653117       0.00137036       0.00491026       0.00514358
Ni      29.95040534      12.31894351      17.60657289       0.60000000      -0.00671362       0.00610911       0.00022772       0.00229216
Ni      28.18666362      10.55271134      21.12889459       0.60000000      -0.00648308       0.00113469      -0.00077587       0.00459404
Ni      28.18172828      12.31665752      22.88808320       0.60000000      -0.00657933       0.00504724      -0.00553181       0.00265991
Ni      29.95175750      10.55796312      22.89299497       0.60000000      -0.00636467       0.00078147      -0.00264374       0.00055730
Ni      29.95003669      12.31884598      21.12720446       0.60000000      -0.00661009       0.00112809      -0.00211275       0.00927715
Ni      28.18509607      10.55654403      24.65442244       0.60000000      -0.00641263      -0.00327538      -0.00406113       0.00247639
Ni      28.18033053      12.32087200      26.41438056       0.60000000      -0.00619580       0.01038075      -0.00182875       0.01370934
Ni      29.94961125      10.56251543      26.42018375       0.60000000      -0.00638588      -0.00206212      -0.00109920      -0.00026233
Ni      29.94799276      12.32276885      24.65248216       0.60000000      -0.00618293       0.01048288      -0.00991770       0.00974615
Ni      28.18299118      10.56328755      28.18299118       0.60000000      -0.00640383       0.00341049      -0.00759315       0.00341049
Ni      28.18121970      12.32832383      29.94659824       0.60000000      -0.00608049       0.00280015      -0.00559999       0.00202904
Ni      29.94751358      10.56727028      29.94751358       0.60000000      -0.00621163       0.00351537       0.00037156       0.00351537
Ni      29.94659824      12.32832383      28.18121970       0.60000000      -0.00608049       0.00202904      -0.00559999       0.00280015
Ni      28.18567307      10.56686753      31.71372343       0.60000000      -0.00617271      -0.00406908       0.00050682      -0.00111677
Ni      28.18529971      12.33142151      33.47946033       0.60000000      -0.00611888      -0.00015419      -0.00370011       0.00066432
Ni      29.94953117      10.56945701      33.47779793       0.60000000      -0.00611629      -0.00064465      -0.00046839       0.00000456
Ni      29.94694722      12.33302516      31.71123695       0.60000000      -0.00597809       0.00178984      -0.00766733       0.00676549
Ni      28.18750407      10.56777979      35.24513204       0.60000000      -0.00630163       0.00063486      -0.00024109       0.00046005
Ni      28.18814187      12.32939177      37.01235505       0.60000000      -0.00652851       0.00383009       0.00210694       0.00131407
Ni      29.95169236      10.56717239      37.00958872       0.60000000      -0.00665048       0.00116864       0.00246137      -0.00185601
Ni      29.95029259      12.33174898      35.24463603       0.60000000      -0.00619799       0.00030271       0.00244312      -0.00066360
Ni      28.18968023      10.56382061      38.77596228       0.60000000      -0.00918798       0.00252103       0.01505891      -0.00754955
Ni      28.19127809      12.32872415      40.53888851       0.60000000      -0.00577971       0.03970294      -0.01875892      -0.16283986
Ni      29.95409090      10.56645623      40.53620397       0.60000000      -0.00622160       0.03612448      -0.01644417      -0.13829873
Ni      29.95445745      12.32859407      38.77582115       0.60000000      -0.00902083      -0.00465945       0.00881652      -0.00577744
Ni      28.20180271      14.08815480      -0.01489691       0.60000000      -0.00642974      -0.01695789       0.00263772       0.15580776
Ni      28.20421339      15.84877832       1.74421565       0.60000000      -0.01042113      -0.00004691       0.00009799      -0.01328476
Ni      29.96690868      14.08667474       1.74652909       0.60000000      -0.01001323       0.00021575      -0.00022119      -0.01256613
Ni      29.96398869      15.85067637      -0.01468370       0.60000000      -0.00648815      -0.00698283       0.01190637       0.15376008
Ni      28.20832350      14.08419778       3.50534003       0.60000000      -0.00748340      -0.03232785       0.00886072       0.01597505
Ni      28.20203404      15.84683111       5.26631362       0.60000000      -0.00736217      -0.00081516      -0.00015476       0.00288833
Ni      29.96455620      14.08424763       5.27015687       0.60000000      -0.00748506       0.00011609       0.00038716       0.00183681
Ni      29.97033731      15.84687943       3.50565872       0.60000000      -0.00753410      -0.02612452       0.00814741       0.02082602
Ni      28.19405496      14.08490556       7.03032206       0.60000000      -0.00708928       0.00448595      -0.00119615       0.00452309
Ni      28.19030331      15.84543832       8.79078889       0.60000000      -0.00684748       0.00664828       0.00474498       0.00668528
Ni      29.95390328      14.08301038       8.79505895       0.60000000      -0.00691243       0.00456188       0.00780421       0.00821189
Ni      29.96079251      15.84526418       7.03103610       0.60000000      -0.00694968      -0.00285987       0.00475444       0.00602969
Ni      28.18602967      14.08457698      10.55673266       0.60000000      -0.00690513       0.00811333       0.00527134       0.00612963
Ni      28.18579000      15.84676721      12.31933143       0.60000000      -0.00680779      -0.00496018      -0.00627705      -0.00538832
Ni      29.95049204      14.08575769      12.32257740       0.60000000      -0.00680708       0.00124449      -0.00069203       0.00109730
Ni      29.95320440      15.84480024      10.55560350       0.60000000      -0.00674341       0.00028266       0.00696656       0.01136762
Ni      28.18417697      14.08408590      14.08408590       0.60000000      -0.00666051      -0.00029173      -0.00464824      -0.00464824
Ni      28.17857919      15.84505305      15.84505305       0.60000000      -0.00650766       0.00968463      -0.01429320      -0.01429320
Ni      29.94783378      14.08556495      15.84796623       0.60000000      -0.00666073       0.01272411      -0.01038004      -0.00933404
Ni      29.94783378      15.84796623      14.08556495       0.60000000      -0.00666073       0.01272411      -0.00933404      -0.01038004
Ni      28.18010102      14.08200101      17.60757228       0.60000000      -0.00665769       0.00566732      -0.01373091      -0.01789366
Ni      28.17655332      15.84013621      19.36374293       0.60000000      -0.00654839       0.01788641       0.00429117      -0.00201804
Ni      29.94694362      14.08160863      19.36615666       0.60000000      -0.00649450       0.01455257      -0.00594608       0.00313177
Ni      29.94616231      15.84529842      17.60666516       0.60000000      -0.00622197       0.02024388      -0.00683965       0.00020359
Ni      28.17775104      14.07834958      21.12525348       0.60000000      -0.00674524       0.01938380      -0.00426256      -0.00298014
Ni      28.17777746      15.83802204      22.88394194       0.60000000      -0.00690494      -0.00074273       0.00273166       0.00368446
Ni      29.94662195      14.08080578      22.88711917       0.60000000      -0.00642213       0.01260979       0.00073127       0.00817599
Ni      29.94777205      15.84045080      21.12498207       0.60000000      -0.00633991       0.00084755       0.00623985       0.00276042
Ni      28.17847842      14.07768428      24.64891932       0.60000000      -0.00638745       0.00264594       0.00963901      -0.00428419
Cr      28.17794337      15.83993481      26.41166325       0.60000000      -0.00642424      -0.00438763       0.01325395       0.00254677
Ni      29.94564955      14.08554111      26.41324248       0.60000000      -0.00625308       0.00746719      -0.00020217       0.01721456
Ni      29.94543227      15.84188201      24.64745330       0.60000000      -0.00655444       0.00632768       0.00607129       0.01103645
Cr      28.17832141      14.08343782      28.17832141       0.60000000      -0.00624095       0.00833918       0.01084894       0.00833918
Ni      28.17875255      15.84880234      29.94367377       0.60000000      -0.00625177      -0.01010239       0.00595921      -0.00152170
Ni      29.94466590      14.09276791      29.94466590       0.60000000      -0.00583706       0.00771099      -0.00389074       0.00771099
Ni      29.94367377      15.84880234      28.17875255       0.60000000      -0.00625177      -0.00152170       0.00595921      -0.01010239
Ni      28.18069926      14.09249793      31.71201104       0.60000000      -0.00603798       0.00842548      -0.00212966       0.00216849
Ni      28.18294604      15.85682223      33.47933478       0.60000000      -0.00584577       0.00211080      -0.01193603       0.00635491
Ni      29.94705189      14.09638670      33.47725489       0.60000000      -0.00591997       0.00756675      -0.01137216       0.00960202
Ni      29.94454065      15.85758751      31.71030268       0.60000000      -0.00577357       0.00608532      -0.01385252       0.00469519
Ni      28.18641835      14.09409709      35.24690670       0.60000000      -0.00602507       0.00197558      -0.00287709       0.00187152
Ni      28.18992202      15.85575014      37.01524040       0.60000000      -0.00633506       0.00282129       0.00536421       0.00373711
Ni      29.95312239      14.09276854      37.01260088       0.60000000      -0.00632196      -0.00181893       0.00877795      -0.00284387
Ni      29.95032404      15.85686963      35.24589042       0.60000000      -0.00588832       0.00555543       0.00130982       0.00427645
Ni      28.19171660      14.09137498      38.77940602       0.60000000      -0.00932427      -0.00374585       0.00875367      -0.01234573
Ni      28.19389826      15.85654995      40.54179918       0.60000000      -0.00521107       0.03208151      -0.02729049      -0.19024738
Ni      29.95603172      14.09347778      40.53888851       0.60000000      -0.00575022       0.03333752      -0.02498725      -0.16522128
Ni      29.95805894      15.85767496      38.77958135       0.60000000      -0.00915616      -0.01364800      -0.00447658      -0.01497277
Ni      28.20068115      17.61327672      -0.01646409       0.60000000      -0.00610609      -0.00318149       0.01520862       0.18078506
Ni      28.20188451      19.37431960       1.74256401       0.60000000      -0.01063960       0.00024061       0.00076720      -0.01325418
Ni      29.96599561      17.61149759       1.74478405       0.60000000      -0.01030947       0.00046085       0.00065174      -0.01371351
Ni      29.96245072      19.37596535      -0.01573116       0.60000000      -0.00617695       0.00945928       0.02566236       0.17842646
Ni      28.20705349      17.60894350       3.50265847       0.60000000      -0.00735786      -0.02703752       0.01295962       0.02025126
Ni      28.20113772      19.37237098       5.26439072       0.60000000      -0.00718189      -0.00465102      -0.00075250       0.00037963
Ni      29.96558373      17.60953084       5.26808768       0.60000000      -0.00740777      -0.00286383      -0.00069424       0.00125851
Ni      29.96811478      19.37196670       3.50379840       0.60000000      -0.00730154      -0.02244409       0.01300458       0.02375707
Ni      28.19640407      17.60809177       7.02717630       0.60000000      -0.00685985       0.00063644       0.00373455       0.00324544
Ni      28.19110410      19.36893096       8.78868294       0.60000000      -0.00662671       0.00146924       0.00393693       0.00503415
Ni      29.95731728      17.60678174       8.79163186       0.60000000      -0.00665824      -0.00145393       0.00649132       0.01029375
Ni      29.96067066      19.37199182       7.02995642       0.60000000      -0.00669570      -0.00186783       0.00063876       0.00276488
Ni      28.18765721      17.60625646      10.55252402       0.60000000      -0.00669053       0.00131001       0.00485683       0.00366500
Ni      28.18328731      19.36680676      12.31584617       0.60000000      -0.00676824       0.00203023      -0.00244377      -0.00080812
Ni      29.95040534      17.60657289      12.31894351       0.60000000      -0.00671362       0.00610911       0.00229216       0.00022772
Ni      29.95358995      19.36773152      10.55443113       0.60000000      -0.00653117       0.00137036       0.00514358       0.00491026
Ni      28.18010102      17.60757228      14.08200101       0.60000000      -0.00665769       0.00566732      -0.01789366      -0.01373091
Ni      28.17655332      19.36374293      15.84013621       0.60000000      -0.00654839       0.01788641      -0.00201804       0.00429117
Ni      29.94616231      17.60666516      15.84529842       0.60000000      -0.00622197       0.02024388       0.00020359      -0.00683965
Ni      29.94694362      19.36615666      14.08160863       0.60000000      -0.00649450       0.01455257       0.00313177      -0.00594608
Ni      28.17845296      17.60114982      17.60114982       0.60000000      -0.00669470       0.00185699       0.01099294       0.01099294
Ni      28.17819564      19.35794338      19.35794338       0.60000000      -0.00705393       0.01660614       0.01454203       0.01454203
Ni      29.95022469      17.60272462      19.36490947       0.60000000      -0.00657492      -0.01712232       0.00267638      -0.00547894
Ni      29.95022469      19.36490947      17.60272462       0.60000000      -0.00657492      -0.01712232      -0.00547894       0.00267638
Ni      28.17798995      17.59723552      21.11990648       0.60000000      -0.00683769       0.00996539       0.01279442       0.01536892
Cr      28.17990821      19.35750323      22.88216693       0.60000000      -0.00669528      -0.01799201       0.00901766      -0.00792722
Ni      29.94725968      17.60033881      22.88400213       0.60000000      -0.00666847       0.00235006       0.00204166       0.00606982
Ni      29.94874252      19.36183915      21.12389240       0.60000000      -0.00665055      -0.00169950      -0.00752701      -0.01522507
Cr      28.17667995      17.59902781      24.64595330       0.60000000      -0.00636283       0.00661618      -0.00302865      -0.00306814
Ni      28.17045171      19.35952960      26.40379876       0.60000000      -0.00621594       0.01755864       0.01561291       0.02298192
Ni      29.94254748      17.60447740      26.41069156       0.60000000      -0.00628459       0.00919710       0.00303955       0.00370928
Ni      29.94498394      19.36162266      24.64545790       0.60000000      -0.00620419      -0.00331480       0.00348118       0.00452308
Ni      28.17184863      17.60471151      28.17184863       0.60000000      -0.00621722       0.02391655      -0.00374241       0.02391655
Ni      28.17253085      19.36686341      29.93806332       0.60000000      -0.00614987       0.00298191       0.00887628       0.01341765
Ni      29.94167306      17.61282871      29.94167306       0.60000000      -0.00620506       0.00054623       0.01449958       0.00054623
Ni      29.93806332      19.36686341      28.17253085       0.60000000      -0.00614987       0.01341765       0.00887628       0.00298191
Ni      28.17790358      17.61316884      31.71053793       0.60000000      -0.00587628       0.00898408       0.00781846       0.00072308
Ni      28.18168013      19.37867027      33.47901709       0.60000000      -0.00561075       0.00435237      -0.01054111       0.00439157
Ni      29.94700929      17.61974231      33.47762783       0.60000000      -0.00565099       0.00283508      -0.01140665       0.00956313
Ni      29.94200771      19.37774331      31.70891434       0.60000000      -0.00567179       0.00355442      -0.01269952      -0.00536533
Ni      28.18693622      17.61879088      35.24790768       0.60000000      -0.00575668       0.00289782      -0.00069425       0.00972351
Ni      28.19353970      19.38306138      37.01788093       0.60000000      -0.00620831       0.00161152       0.00584454       0.00436062
Ni      29.95552244      17.61949367      37.01496219       0.60000000      -0.00620986       0.00236258       0.01051870       0.00132844
Ni      29.95217278      19.38055366      35.24706791       0.60000000      -0.00565965       0.00034823       0.00772187       0.00297062
Ni      28.19655314      17.62166759      38.78338840       0.60000000      -0.00942474      -0.01593654      -0.00963996      -0.02210501
Ni      28.19793056      19.38567283      40.54455037       0.60000000      -0.00470034       0.01549092      -0.03513840      -0.20672899
Ni      29.95940295      17.62201042      40.54183092       0.60000000      -0.00520489       0.02273672      -0.03452253      -0.18540266
Ni      29.96339779      19.38833808      38.78359517       0.60000000      -0.00941376      -0.02644491      -0.02308163      -0.03120490
Ni      28.19823757      21.13921328      -0.01722602       0.60000000      -0.00578873       0.01632103       0.02952188       0.20294111
Ni      28.19793056      22.90100319       1.74212565       0.60000000      -0.01070906       0.00053462       0.00115381      -0.01151100
Ni      29.96321984      21.13725057       1.74385413       0.60000000      -0.01049404       0.00067936       0.00140801      -0.01302190
Ni      29.95988638      22.90197926      -0.01591416       0.60000000      -0.00589087       0.02728759       0.03804528       0.19686644
Ni      28.20262798      21.13508490       3.50099600       0.60000000      -0.00710978      -0.02136238       0.01402666       0.02573020
Ni      28.19599437      22.89911422       5.26387732       0.60000000      -0.00701299      -0.00088801      -0.00034428       0.00191066
Ni      29.96270831      21.13640374       5.26669833       0.60000000      -0.00712345      -0.00359660      -0.00211581       0.00282707
Ni      29.96339779      22.89839729       3.50314019       0.60000000      -0.00698777      -0.01753958       0.01462730       0.02475821
Ni      28.19422497      21.13410911       7.02621027       0.60000000      -0.00658040       0.00075333       0.00295751       0.00645907
Ni      28.18880859      22.89448356       8.79081505       0.60000000      -0.00645104       0.00187955       0.00438274       0.00414228
Ni      29.95555039      21.13288389       8.79267750       0.60000000      -0.00647507       0.00055265       0.00461229       0.00575098
Ni      29.95685693      22.89875965       7.03059483       0.60000000      -0.00650625      -0.00060772      -0.00109606       0.00350690
Ni      28.18666362      21.12889459      10.55271134       0.60000000      -0.00648308       0.00113469       0.00459404      -0.00077587
Ni      28.18172828      22.88808320      12.31665752       0.60000000      -0.00657933       0.00504724       0.00265991      -0.00553181
Ni      29.95003669      21.12720446      12.31884598       0.60000000      -0.00661009       0.00112809       0.00927715      -0.00211275
Ni      29.95175750      22.89299497      10.55796312       0.60000000      -0.00636467       0.00078147       0.00055730      -0.00264374
Ni      28.17775104      21.12525348      14.07834958       0.60000000      -0.00674524       0.01938380      -0.00298014      -0.00426256
Ni      28.17777746      22.88394194      15.83802204       0.60000000      -0.00690494      -0.00074273       0.00368446       0.00273166
Ni      29.94777205      21.12498207      15.84045080       0.60000000      -0.00633991       0.00084755       0.00276042       0.00623985
Ni      29.94662195      22.88711917      14.08080578       0.60000000      -0.00642213       0.01260979       0.00817599       0.00073127
Ni      28.17798995      21.11990648      17.59723552       0.60000000      -0.00683769       0.00996539       0.01536892       0.01279442
Cr      28.17990821      22.88216693      19.35750323       0.60000000      -0.00669528      -0.01799201      -0.00792722       0.00901766
Ni      29.94874252      21.12389240      19.36183915       0.60000000      -0.00665055      -0.00169950      -0.01522507      -0.00752701
Ni      29.94725968      22.88400213      17.60033881       0.60000000      -0.00666847       0.00235006       0.00606982       0.00204166
Cr      28.17981866      21.11797486      21.11797486       0.60000000      -0.00632316      -0.01236934      -0.00511208      -0.00511208
Ni      28.17048614      22.87386490      22.87386490       0.60000000      -0.00647831       0.00660349       0.03256940       0.03256940
Ni      29.94632382      21.12132405      22.88230432       0.60000000      -0.00615604      -0.00115127       0.00654339       0.01347397
Ni      29.94632382      22.88230432      21.12132405       0.60000000      -0.00615604      -0.00115127       0.01347397       0.00654339
Ni      28.16956721      21.11717655      24.63880820       0.60000000      -0.00650994       0.01430413       0.00646417       0.00442860
Ni      28.16653095      22.87794215      26.39948229       0.60000000      -0.00610413      -0.00374752       0.00928139       0.01788205
Ni      29.93675184      21.12165228      26.40528795       0.60000000      -0.00607759       0.01462852       0.00889529       0.00768762
Ni      29.93679719      22.88105709      24.64224927       0.60000000      -0.00594497       0.01478967      -0.00476189      -0.00731766
Ni      28.16816056      21.12377294      28.16816056       0.60000000      -0.00591964       0.00656520      -0.02361924       0.00656520
Ni      28.16809505      22.88258890      29.93370587       0.60000000      -0.00567992       0.01121859       0.02669995       0.01584525
Ni      29.93729633      21.12814072      29.93729633       0.60000000      -0.00588283       0.01441064       0.02655737       0.01441064
Ni      29.93370587      22.88258890      28.16809505       0.60000000      -0.00567992       0.01584525       0.02669995       0.01121859
Ni      28.17381378      21.13147857      31.70649383       0.60000000      -0.00570548       0.01371780       0.00508524       0.00375755
Ni      28.17985929      22.89789517      33.47550887       0.60000000      -0.00547248       0.00687596      -0.00251695       0.00173063
Ni      29.94564907      21.14060644      33.47581034       0.60000000      -0.00538018       0.00575271      -0.00806052       0.01117466
Ni      29.93983219      22.89481683      31.70455467       0.60000000      -0.00552475      -0.00035526      -0.01043969       0.00405097
Ni      28.18850081      21.14183613      35.24840975       0.60000000      -0.00547952       0.00164293       0.00655159       0.00766493
Ni      28.19698671      22.91029511      37.01892606       0.60000000      -0.00622065      -0.00459886       0.00090865      -0.00454275
Ni      29.95925775      21.14719703      37.01685986       0.60000000      -0.00617806      -0.00446013       0.00641075      -0.00282412
Ni      29.95173615      22.90413925      35.24501853       0.60000000      -0.00526295       0.00548969       0.00780744       0.00697025
Ni      28.20262798      21.15281734      38.78690624       0.60000000      -0.00964386      -0.03172336      -0.02934457      -0.03804452
Ni      28.20188451      22.91454343      40.54629902       0.60000000      -0.00441301      -0.00426363      -0.03657467      -0.20708315
Ni      29.96321984      21.15087031      40.54426675       0.60000000      -0.00480699       0.00697135      -0.03960090      -0.19280585
Ni      29.96811478      22.91810667      38.78627497       0.60000000      -0.00957226      -0.03529892      -0.03264384      -0.04709043
Ni      28.19522323      24.66584640      -0.01685961       0.60000000      -0.00560161       0.03417906       0.04026281       0.21366796
Ni      28.19389826      26.42854315       1.74329392       0.60000000      -0.01054838       0.00092331       0.00123778      -0.00964372
Ni      29.95940295      24.66398527       1.74416477       0.60000000      -0.01045644       0.00083217       0.00166778      -0.01088188
Ni      29.95713775      26.42851367      -0.01504777       0.60000000      -0.00580552       0.03970409       0.04439622       0.20015959
Ni      28.19655314      24.66291397       3.50119317       0.60000000      -0.00675963      -0.01044295       0.00950738       0.02641919
Ni      28.19131423      26.42615176       5.26607837       0.60000000      -0.00684062       0.00141845       0.00203042       0.00121764
Ni      29.95733157      24.66275652       5.26732610       0.60000000      -0.00696515       0.00101817      -0.00019543       0.00203685
Ni      29.95805894      26.42619706       3.50429067       0.60000000      -0.00673679      -0.00897208       0.00721216       0.02520361
Ni      28.19044766      24.66076974       7.02914841       0.60000000      -0.00640392      -0.00063758       0.00272322       0.00250116
Ni      28.18603455      26.42180309       8.79586650       0.60000000      -0.00637661       0.00297131       0.00210315       0.00436961
Ni      29.95255536      24.65929984       8.79635750       0.60000000      -0.00628874       0.00078709       0.00092853       0.00297738
Ni      29.95267960      26.42426539       7.03389919       0.60000000      -0.00641317       0.00081787       0.00244656       0.00051462
Ni      28.18509607      24.65442244      10.55654403       0.60000000      -0.00641263      -0.00327538       0.00247639      -0.00406113
Ni      28.18033053      26.41438056      12.32087200       0.60000000      -0.00619580       0.01038075       0.01370934      -0.00182875
Ni      29.94799276      24.65248216      12.32276885       0.60000000      -0.00618293       0.01048288       0.00974615      -0.00991770
Ni      29.94961125      26.42018375      10.56251543       0.60000000      -0.00638588      -0.00206212      -0.00026233      -0.00109920
Ni      28.17847842      24.64891932      14.07768428       0.60000000      -0.00638745       0.00264594      -0.00428419       0.00963901
Cr      28.17794337      26.41166325      15.83993481       0.60000000      -0.00642424      -0.00438763       0.00254677       0.01325395
Ni      29.94543227      24.64745330      15.84188201       0.60000000      -0.00655444       0.00632768       0.01103645       0.00607129
Ni      29.94564955      26.41324248      14.08554111       0.60000000      -0.00625308       0.00746719       0.01721456      -0.00020217
Cr      28.17667995      24.64595330      17.59902781       0.60000000      -0.00636283       0.00661618      -0.00306814      -0.00302865
Ni      28.17045171      26.40379876      19.35952960       0.60000000      -0.00621594       0.01755864       0.02298192       0.01561291
Ni      29.94498394      24.64545790      19.36162266       0.60000000      -0.00620419      -0.00331480       0.00452308       0.00348118
Ni      29.94254748      26.41069156      17.60447740       0.60000000      -0.00628459       0.00919710       0.00370928       0.00303955
Ni      28.16956721      24.63880820      21.11717655       0.60000000      -0.00650994       0.01430413       0.00442860       0.00646417
Ni      28.16653095      26.39948229      22.87794215       0.60000000      -0.00610413      -0.00374752       0.01788205       0.00928139
Ni      29.93679719      24.64224927      22.88105709       0.60000000      -0.00594497       0.01478967      -0.00731766      -0.00476189
Ni      29.93675184      26.40528795      21.12165228       0.60000000      -0.00607759       0.01462852       0.00768762       0.00889529
Ni      28.16623675      24.63624454      24.63624454       0.60000000      -0.00614218      -0.01349700      -0.00319321      -0.00319321
Ni      28.15951962      26.39649485      26.39649485       0.60000000      -0.00578977       0.04431386       0.03668221       0.03668221
Ni      29.93312646      24.64135156      26.40266905       0.60000000      -0.00588303       0.01305264       0.02438408       0.02464013
Ni      29.93312646      26.40266905      24.64135156       0.60000000      -0.00588303       0.01305264       0.02464013       0.02438408
Ni      28.16372817      24.64131814      28.16372817       0.60000000      -0.00605489       0.01361786      -0.00971524       0.01361786
Ni      28.16706525      26.40511435      29.93111570       0.60000000      -0.00544735      -0.00526511      -0.00097417      -0.00344327
Ni      29.93225046      24.64517132      29.93225046       0.60000000      -0.00544238       0.01682048       0.03122257       0.01682048
Ni      29.93111570      26.40511435      28.16706525       0.60000000      -0.00544735      -0.00344327      -0.00097417      -0.00526511
Ni      28.17305713      24.64993077      31.70230442       0.60000000      -0.00558409       0.00228844       0.00358800      -0.00135214
Ni      28.17999576      26.41794232      33.47073073       0.60000000      -0.00524310       0.00739493       0.00999241       0.01489045
Ni      29.94450636      24.65994869      33.47256252       0.60000000      -0.00522435       0.00626764       0.00063460       0.01276430
Ni      29.93724850      26.41379981      31.69971338       0.60000000      -0.00523189       0.00654910       0.00364467       0.01531708
Ni      28.18739948      24.66452227      35.24448278       0.60000000      -0.00514577       0.00462115       0.00219856       0.00851430
Ni      28.19611077      26.43389189      37.01471262       0.60000000      -0.00614536       0.01238041       0.01473082       0.01652175
Ni      29.95977254      24.67270921      37.01441322       0.60000000      -0.00623681       0.00447621       0.01221606       0.01259428
Ni      29.95117410      26.42704635      35.24273376       0.60000000      -0.00499550       0.00459747       0.00916789       0.00260746
Ni      28.20705349      24.68210864      38.78839367       0.60000000      -0.00965798      -0.03939574      -0.03890905      -0.05167450
Ni      28.20421339      26.44175163      40.54631430       0.60000000      -0.00430170      -0.02016124      -0.03020997      -0.19211138
Ni      29.96599561      24.67858517      40.54529871       0.60000000      -0.00454512      -0.00885962      -0.03691698      -0.18580309
Ni      29.97033731      26.44530000      38.78652071       0.60000000      -0.00965925      -0.04770108      -0.04479050      -0.06185034
Ni      28.19269161      28.19269161      -0.01533553       0.60000000      -0.00570878       0.04370019       0.04370019       0.20565233
Ni      28.19127809      29.95603172       1.74586735       0.60000000      -0.01019811       0.00143637       0.00103630      -0.00884160
Ni      29.95603172      28.19127809       1.74586735       0.60000000      -0.01019811       0.00103630       0.00143637      -0.00884160
Ni      29.95506886      29.95506886      -0.01326667       0.60000000      -0.00601038       0.04338445       0.04338445       0.18540762
Ni      28.19171660      28.19171660       3.50368557       0.60000000      -0.00668201      -0.00133862      -0.00133862       0.02625037
Ni      28.18870975      29.95314394       5.27009966       0.60000000      -0.00685088       0.00316519       0.00278041      -0.00010648
Ni      29.95314394      28.18870975       5.27009966       0.60000000      -0.00685088       0.00278041       0.00316519      -0.00010648
Ni      29.95445745      29.95445745       3.50723037       0.60000000      -0.00674151      -0.00383127      -0.00383127       0.02370945
Ni      28.18791962      28.18791962       7.03334359       0.60000000      -0.00629880      -0.00029950      -0.00029950       0.00094091
Ni      28.18611170      29.94998829       8.80049563       0.60000000      -0.00628241      -0.00326702      -0.00244562       0.00449760
Ni      29.94998829      28.18611170       8.80049563       0.60000000      -0.00628241      -0.00244562      -0.00326702       0.00449760
Ni      29.95063169      29.95063169       7.03722779       0.60000000      -0.00632589       0.00091063       0.00091063       0.00132093
Ni      28.18299118      28.18299118      10.56328755       0.60000000      -0.00640383       0.00341049       0.00341049      -0.00759315
Ni      28.18121970      29.94659824      12.32832383       0.60000000      -0.00608049       0.00280015       0.00202904      -0.00559999
Ni      29.94659824      28.18121970      12.32832383       0.60000000      -0.00608049       0.00202904       0.00280015      -0.00559999
Ni      29.94751358      29.94751358      10.56727028       0.60000000      -0.00621163       0.00351537       0.00351537       0.00037156
Cr      28.17832141      28.17832141      14.08343782       0.60000000      -0.00624095       0.00833918       0.00833918       0.01084894
Ni      28.17875255      29.94367377      15.84880234       0.60000000      -0.00625177      -0.01010239      -0.00152170       0.00595921
Ni      29.94367377      28.17875255      15.84880234       0.60000000      -0.00625177      -0.00152170      -0.01010239       0.00595921
Ni      29.94466590      29.94466590      14.09276791       0.60000000      -0.00583706       0.00771099       0.00771099      -0.00389074
Ni      28.17184863      28.17184863      17.60471151       0.60000000      -0.00621722       0.02391655       0.02391655      -0.00374241
Ni      28.17253085      29.93806332      19.36686341       0.60000000      -0.00614987       0.00298191       0.01341765       0.00887628
Ni      29.93806332      28.17253085      19.36686341       0.60000000      -0.00614987       0.01341765       0.00298191       0.00887628
Ni      29.94167306      29.94167306      17.61282871       0.60000000      -0.00620506       0.00054623       0.00054623       0.01449958
Ni      28.16816056      28.16816056      21.12377294       0.60000000      -0.00591964       0.00656520       0.00656520      -0.02361924
Ni      28.16809505      29.93370587      22.88258890       0.60000000      -0.00567992       0.01121859       0.01584525       0.02669995
Ni      29.93370587      28.16809505      22.88258890       0.60000000      -0.00567992       0.01584525       0.01121859       0.02669995
Ni      29.93729633      29.93729633      21.12814072       0.60000000      -0.00588283       0.01441064       0.01441064       0.02655737
Ni      28.16372817      28.16372817      24.64131814       0.60000000      -0.00605489       0.01361786       0.01361786      -0.00971524
Ni      28.16706525      29.93111570      26.40511435       0.60000000      -0.00544735      -0.00526511      -0.00344327      -0.00097417
Ni      29.93111570      28.16706525      26.40511435       0.60000000      -0.00544735      -0.00344327      -0.00526511      -0.00097417
Ni      29.93225046      29.93225046      24.64517132       0.60000000      -0.00544238       0.01682048       0.01682048       0.03122257
Ni      28.16529766      28.16529766      28.16529766       0.60000000      -0.00605878      -0.02354432      -0.02354432      -0.02354432
Ni      28.16875407      29.93061183      29.93061183       0.60000000      -0.00498509       0.04019830       0.04012475       0.04012475
Ni      29.93061183      28.16875407      29.93061183       0.60000000      -0.00498509       0.04012475       0.04019830       0.04012475
Ni      29.93061183      29.93061183      28.16875407       0.60000000      -0.00498509       0.04012475       0.04012475       0.04019830
Ni      28.17246592      28.17246592      31.69825634       0.60000000      -0.00497890       0.02594951       0.02594951       0.01880617
Ni      28.18155904      29.94302613      33.46861617       0.60000000      -0.00463776       0.00244443       0.01020009       0.01201150
Ni      29.94302613      28.18155904      33.46861617       0.60000000      -0.00463776       0.01020009       0.00244443       0.01201150
Ni      29.94055029      29.94055029      31.70147702       0.60000000      -0.00506609      -0.00345037      -0.00345037       0.01204414
Ni      28.18750430      28.18750430      35.24225879       0.60000000      -0.00496468       0.00577200       0.00577200       0.00029401
Ni      28.19746505      29.95956726      37.01474147       0.60000000      -0.00612955      -0.00201163      -0.00408299      -0.01478296
Ni      29.95956726      28.19746505      37.01474147       0.60000000      -0.00612955      -0.00408299      -0.00201163      -0.01478296
Ni      29.94961373      29.94961373      35.23825520       0.60000000      -0.00475410       0.00932593       0.00932593       0.02051133
Ni      28.20832350      28.20832350      38.78718125       0.60000000      -0.00965563      -0.05021876      -0.05021876      -0.06398564
Ni      28.20443292      29.96690868      40.54457858       0.60000000      -0.00492066      -0.02817499      -0.01998808      -0.16906702
Ni      29.96690868      28.20443292      40.54457858       0.60000000      -0.00492066      -0.01998808      -0.02817499      -0.16906702
Ni      29.96987277      29.96987277      38.78447930       0.60000000      -0.00924271      -0.03899762      -0.03899762      -0.05214308
Ni      28.19124555      31.71909430      -0.01304135       0.60000000      -0.00608773       0.04369142       0.04016095       0.18083846
Ni      28.19032262      33.48255503       1.74903116       0.60000000      -0.00977177       0.00169619       0.00058934      -0.00838540
Ni      29.95409090      31.71827908       1.74853135       0.60000000      -0.00981684       0.00124656       0.00082350      -0.00787067
Ni      29.95397714      33.48110765      -0.01102527       0.60000000      -0.00639474       0.03986085       0.03722974       0.15837383
Ni      28.18968023      31.71980506       3.50766339       0.60000000      -0.00678182       0.00353170      -0.00883444       0.02285308
Ni      28.18964405      33.48070300       5.27442013       0.60000000      -0.00694333      -0.00186627       0.00118984      -0.00181482
Ni      29.95150044      31.71530153       5.27393133       0.60000000      -0.00684966       0.00344395       0.00422325      -0.00260701
Ni      29.95314789      33.48179461       3.51091438       0.60000000      -0.00683102       0.00017973      -0.00918970       0.01971982
Ni      28.18769492      31.71508602       7.03763967       0.60000000      -0.00643012       0.00187216       0.00156548       0.00004579
Ni      28.18759412      33.47901630       8.80403937       0.60000000      -0.00628253      -0.00010866      -0.00017659      -0.00012904
Ni      29.94986436      31.71338804       8.80418963       0.60000000      -0.00624304      -0.00296585      -0.00190125       0.00151058
Ni      29.95069564      33.47767138       7.04099777       0.60000000      -0.00644750       0.00229110       0.00291708      -0.00279152
Ni      28.18567307      31.71372343      10.56686753       0.60000000      -0.00617271      -0.00406908      -0.00111677       0.00050682
Ni      28.18529971      33.47946033      12.33142151       0.60000000      -0.00611888      -0.00015419       0.00066432      -0.00370011
Ni      29.94694722      31.71123695      12.33302516       0.60000000      -0.00597809       0.00178984       0.00676549      -0.00766733
Ni      29.94953117      33.47779793      10.56945701       0.60000000      -0.00611629      -0.00064465       0.00000456      -0.00046839
Ni      28.18069926      31.71201104      14.09249793       0.60000000      -0.00603798       0.00842548       0.00216849      -0.00212966
Ni      28.18294604      33.47933478      15.85682223       0.60000000      -0.00584577       0.00211080       0.00635491      -0.01193603
Ni      29.94454065      31.71030268      15.85758751       0.60000000      -0.00577357       0.00608532       0.00469519      -0.01385252
Ni      29.94705189      33.47725489      14.09638670       0.60000000      -0.00591997       0.00756675       0.00960202      -0.01137216
Ni      28.17790358      31.71053793      17.61316884       0.60000000      -0.00587628       0.00898408       0.00072308       0.00781846
Ni      28.18168013      33.47901709      19.37867027       0.60000000      -0.00561075       0.00435237       0.00439157      -0.01054111
Ni      29.94200771      31.70891434      19.37774331       0.60000000      -0.00567179       0.00355442      -0.00536533      -0.01269952
Ni      29.94700929      33.47762783      17.61974231       0.60000000      -0.00565099       0.00283508       0.00956313      -0.01140665
Ni      28.17381378      31.70649383      21.13147857       0.60000000      -0.00570548       0.01371780       0.00375755       0.00508524
Ni      28.17985929      33.47550887      22.89789517       0.60000000      -0.00547248       0.00687596       0.00173063      -0.00251695
Ni      29.93983219      31.70455467      22.89481683       0.60000000      -0.00552475      -0.00035526       0.00405097      -0.01043969
Ni      29.94564907      33.47581034      21.14060644       0.60000000      -0.00538018       0.00575271       0.01117466      -0.00806052
Ni      28.17305713      31.70230442      24.64993077       0.60000000      -0.00558409       0.00228844      -0.00135214       0.00358800
Ni      28.17999576      33.47073073      26.41794232       0.60000000      -0.00524310       0.00739493       0.01489045       0.00999241
Ni      29.93724850      31.69971338      26.41379981       0.60000000      -0.00523189       0.00654910       0.01531708       0.00364467
Ni      29.94450636      33.47256252      24.65994869       0.60000000      -0.00522435       0.00626764       0.01276430       0.00063460
Ni      28.17246592      31.69825634      28.17246592       0.60000000      -0.00497890       0.02594951       0.01880617       0.02594951
Ni      28.18155904      33.46861617      29.94302613       0.60000000      -0.00463776       0.00244443       0.01201150       0.01020009
Ni      29.94055029      31.70147702      29.94055029       0.60000000      -0.00506609      -0.00345037       0.01204414      -0.00345037
Ni      29.94302613      33.46861617      28.18155904       0.60000000      -0.00463776       0.01020009       0.01201150       0.00244443
Ni      28.18064424      31.70344222      31.70344222       0.60000000      -0.00512693      -0.00331586       0.01483950       0.01483950
Ni      28.18887849      33.47791975      33.47791975       0.60000000      -0.00521826       0.00594086      -0.00777075      -0.00777075
Ni      29.94744382      31.71124782      33.47384070       0.60000000      -0.00493992       0.00107122      -0.01051693      -0.00164672
Ni      29.94744382      33.47384070      31.71124782       0.60000000      -0.00493992       0.00107122      -0.00164672      -0.01051693
Ni      28.18980563      31.71503639      35.24064779       0.60000000      -0.00501005       0.00992344       0.00102096       0.01137875
Ni      28.19961888      33.48654464      37.01252494       0.60000000      -0.00670109       0.00202297      -0.00497521      -0.00124348
Ni      29.95812810      31.72042393      37.01076289       0.60000000      -0.00647716       0.01486155       0.01185011       0.00789224
Ni      29.95618634      33.48194607      35.24632388       0.60000000      -0.00552175       0.00202228      -0.00764301      -0.01773060
Ni      28.20690210      31.73197335      38.78393592       0.60000000      -0.00935659      -0.03346381      -0.03678897      -0.05022342
Ni      28.20309226      33.49050538      40.54175103       0.60000000      -0.00566661      -0.02899277      -0.01100295      -0.14182664
Ni      29.96612421      31.72859560      40.54247145       0.60000000      -0.00537943      -0.02465347      -0.01824733      -0.14536801
Ni      29.96767821      33.49272815      38.78113266       0.60000000      -0.00964796      -0.02877957      -0.03671183      -0.04657579
Ni      28.19076900      35.24466464      -0.01055799       0.60000000      -0.00654634       0.03764322       0.03283583       0.14841188
Ni      28.19036104      37.00788098       1.75199165       0.60000000      -0.00942957       0.00148940       0.00027551      -0.00724696
Ni      29.95343156      35.24433515       1.75137714       0.60000000      -0.00943962       0.00124501       0.00022770      -0.00721214
Ni      29.95361541      37.00638770      -0.00881385       0.60000000      -0.00678699       0.03285606       0.02932642       0.12791576
Ni      28.18961144      35.24616966       3.51167777       0.60000000      -0.00699068       0.00557547      -0.00969233       0.01783271
Ni      28.19036012      37.00783046       5.27718886       0.60000000      -0.00713753      -0.00232671       0.00133048      -0.00162648
Ni      29.95262536      35.24287479       5.27725897       0.60000000      -0.00691926      -0.00050225       0.00140928      -0.00268535
Ni      29.95310553      37.00764503       3.51423386       0.60000000      -0.00713677       0.00183693      -0.00862319       0.01355761
Ni      28.18966837      35.24361179       7.04053332       0.60000000      -0.00653598      -0.00189259       0.00239009      -0.00219650
Ni      28.18925845      37.00976479       8.80310276       0.60000000      -0.00682088      -0.00031769      -0.00049124       0.00073936
Ni      29.95070159      35.24253696       8.80566523       0.60000000      -0.00645893       0.00265859       0.00203174      -0.00177422
Ni      29.95258161      37.00699525       7.04125805       0.60000000      -0.00688280      -0.00067637       0.00206089      -0.00096422
Ni      28.18750407      35.24513204      10.56777979       0.60000000      -0.00630163       0.00063486       0.00046005      -0.00024109
Ni      28.18814187      37.01235505      12.32939177       0.60000000      -0.00652851       0.00383009       0.00131407       0.00210694
Ni      29.95029259      35.24463603      12.33174898       0.60000000      -0.00619799       0.00030271      -0.00066360       0.00244312
Ni      29.95169236      37.00958872      10.56717239       0.60000000      -0.00665048       0.00116864      -0.00185601       0.00246137
Ni      28.18641835      35.24690670      14.09409709       0.60000000      -0.00602507       0.00197558       0.00187152      -0.00287709
Ni      28.18992202      37.01524040      15.85575014       0.60000000      -0.00633506       0.00282129       0.00373711       0.00536421
Ni      29.95032404      35.24589042      15.85686963       0.60000000      -0.00588832       0.00555543       0.00427645       0.00130982
Ni      29.95312239      37.01260088      14.09276854       0.60000000      -0.00632196      -0.00181893      -0.00284387       0.00877795
Ni      28.18693622      35.24790768      17.61879088       0.60000000      -0.00575668       0.00289782       0.00972351      -0.00069425
Ni      28.19353970      37.01788093      19.38306138       0.60000000      -0.00620831       0.00161152       0.00436062       0.00584454
Ni      29.95217278      35.24706791      19.38055366       0.60000000      -0.00565965       0.00034823       0.00297062       0.00772187
Ni      29.95552244      37.01496219      17.61949367       0.60000000      -0.00620986       0.00236258       0.00132844       0.01051870
Ni      28.18850081      35.24840975      21.14183613       0.60000000      -0.00547952       0.00164293       0.00766493       0.00655159
Ni      28.19698671      37.01892606      22.91029511       0.60000000      -0.00622065      -0.00459886      -0.00454275       0.00090865
Ni      29.95173615      35.24501853      22.90413925       0.60000000      -0.00526295       0.00548969       0.00697025       0.00780744
Ni      29.95925775      37.01685986      21.14719703       0.60000000      -0.00617806      -0.00446013      -0.00282412       0.00641075
Ni      28.18739948      35.24448278      24.66452227       0.60000000      -0.00514577       0.00462115       0.00851430       0.00219856
Ni      28.19611077      37.01471262      26.43389189       0.60000000      -0.00614536       0.01238041       0.01652175       0.01473082
Ni      29.95117410      35.24273376      26.42704635       0.60000000      -0.00499550       0.00459747       0.00260746       0.00916789
Ni      29.95977254      37.01441322      24.67270921       0.60000000      -0.00623681       0.00447621       0.01259428       0.01221606
Ni      28.18750430      35.24225879      28.18750430       0.60000000      -0.00496468       0.00577200       0.00029401       0.00577200
Ni      28.19746505      37.01474147      29.95956726       0.60000000      -0.00612955      -0.00201163      -0.01478296      -0.00408299
Ni      29.94961373      35.23825520      29.94961373       0.60000000      -0.00475410       0.00932593       0.02051133       0.00932593
Ni      29.95956726      37.01474147      28.19746505       0.60000000      -0.00612955      -0.00408299      -0.01478296      -0.00201163
Ni      28.18980563      35.24064779      31.71503639       0.60000000      -0.00501005       0.00992344       0.01137875       0.00102096
Ni      28.19961888      37.01252494      33.48654464       0.60000000      -0.00670109       0.00202297      -0.00124348      -0.00497521
Ni      29.95618634      35.24632388      33.48194607       0.60000000      -0.00552175       0.00202228      -0.01773060      -0.00764301
Ni      29.95812810      37.01076289      31.72042393       0.60000000      -0.00647716       0.01486155       0.00789224       0.01185011
Ni      28.19910960      35.24944180      35.24944180       0.60000000      -0.00556546      -0.00967102      -0.02067887      -0.02067887
Ni      28.20273423      37.01473941      37.01473941       0.60000000      -0.00703734      -0.00718176      -0.01267038      -0.01267038
Ni      29.96478064      35.25109833      37.01433305       0.60000000      -0.00671977      -0.01215465      -0.01510971      -0.01693036
Ni      29.96478064      37.01433305      35.25109833       0.60000000      -0.00671977      -0.01215465      -0.01693036      -0.01510971
Ni      28.20417458      35.25426657      38.77993609       0.60000000      -0.00972494      -0.01472778      -0.02571088      -0.03250009
Ni      28.20108439      37.01329866      40.53865773       0.60000000      -0.00669313      -0.02540922      -0.00513231      -0.11638613
Ni      29.96436007      35.25170586      40.53970675       0.60000000      -0.00638481      -0.02385808      -0.01034024      -0.12193632
Ni      29.96491041      37.01486636      38.77754464       0.60000000      -0.00960906      -0.00225650      -0.01149451      -0.01358557
Ni      28.19082997      38.76942402      -0.00831373       0.60000000      -0.00831303       0.02983849       0.02968546       0.11677603
Ni      28.19074025      40.53229685       1.75439323       0.60000000      -0.00895090       0.02512838      -0.08503986      -0.01282940
Ni      29.95342405      38.76938057       1.75385183       0.60000000      -0.01065859       0.00102334       0.00465222      -0.00564723
Ni      29.95361624      40.53098509      -0.00691492       0.60000000      -0.00678229       0.04710113      -0.05400166       0.09852247
Ni      28.19021061      38.77104860       3.51492323       0.60000000      -0.00900598       0.00155245      -0.00063793       0.00702714
Ni      28.19036104      40.53405715       5.27816782       0.60000000      -0.00674091       0.03205384      -0.10655154      -0.00916339
Ni      29.95310553      38.77091956       5.27750839       0.60000000      -0.00885126       0.00185464      -0.00579812       0.00986444
Ni      29.95342405      40.53231384       3.51678511       0.60000000      -0.00706024       0.02681835      -0.08991194      -0.00795086
Ni      28.18961144      38.77319650       7.03870461       0.60000000      -0.00902352       0.00549321      -0.00671574       0.01167790
Ni      28.19032262      40.53626087       8.80273700       0.60000000      -0.00630497       0.03823266      -0.13316882      -0.01281622
Ni      29.95314789      38.77298673       8.80210650       0.60000000      -0.00889160       0.00043782      -0.00528512       0.01215644
Ni      29.95343156      40.53402454       7.04106653       0.60000000      -0.00659160       0.03276426      -0.11185991      -0.01100019
Ni      28.18968023      38.77596228      10.56382061       0.60000000      -0.00918798       0.00252103      -0.00754955       0.01505891
Ni      28.19127809      40.53888851      12.32872415       0.60000000      -0.00577971       0.03970294      -0.16283986      -0.01875892
Ni      29.95445745      38.77582115      12.32859407       0.60000000      -0.00902083      -0.00465945      -0.00577744       0.00881652
Ni      29.95409090      40.53620397      10.56645623       0.60000000      -0.00622160       0.03612448      -0.13829873      -0.01644417
Ni      28.19171660      38.77940602      14.09137498       0.60000000      -0.00932427      -0.00374585      -0.01234573       0.00875367
Ni      28.19389826      40.54179918      15.85654995       0.60000000      -0.00521107       0.03208151      -0.19024738      -0.02729049
Ni      29.95805894      38.77958135      15.85767496       0.60000000      -0.00915616      -0.01364800      -0.01497277      -0.00447658
Ni      29.95603172      40.53888851      14.09347778       0.60000000      -0.00575022       0.03333752      -0.16522128      -0.02498725
Ni      28.19655314      38.78338840      17.62166759       0.60000000      -0.00942474      -0.01593654      -0.02210501      -0.00963996
Ni      28.19793056      40.54455037      19.38567283       0.60000000      -0.00470034       0.01549092      -0.20672899      -0.03513840
Ni      29.96339779      38.78359517      19.38833808       0.60000000      -0.00941376      -0.02644491      -0.03120490      -0.02308163
Ni      29.95940295      40.54183092      17.62201042       0.60000000      -0.00520489       0.02273672      -0.18540266      -0.03452253
Ni      28.20262798      38.78690624      21.15281734       0.60000000      -0.00964386      -0.03172336      -0.03804452      -0.02934457
Ni      28.20188451      40.54629902      22.91454343       0.60000000      -0.00441301      -0.00426363      -0.20708315      -0.03657467
Ni      29.96811478      38.78627497      22.91810667       0.60000000      -0.00957226      -0.03529892      -0.04709043      -0.03264384
Ni      29.96321984      40.54426675      21.15087031       0.60000000      -0.00480699       0.00697135      -0.19280585      -0.03960090
Ni      28.20705349      38.78839367      24.68210864       0.60000000      -0.00965798      -0.03939574      -0.05167450      -0.03890905
Ni      28.20421339      40.54631430      26.44175163       0.60000000      -0.00430170      -0.02016124      -0.19211138      -0.03020997
Ni      29.97033731      38.78652071      26.44530000       0.60000000      -0.00965925      -0.04770108      -0.06185034      -0.04479050
Ni      29.96599561      40.54529871      24.67858517       0.60000000      -0.00454512      -0.00885962      -0.18580309      -0.03691698
Ni      28.20832350      38.78718125      28.20832350       0.60000000      -0.00965563      -0.05021876      -0.06398564      -0.05021876
Ni      28.20443292      40.54457858      29.96690868       0.60000000      -0.00492066      -0.02817499      -0.16906702      -0.01998808
Ni      29.96987277      38.78447930      29.96987277       0.60000000      -0.00924271      -0.03899762      -0.05214308      -0.03899762
Ni      29.96690868      40.54457858      28.20443292       0.60000000      -0.00492066      -0.01998808      -0.16906702      -0.02817499
Ni      28.20690210      38.78393592      31.73197335       0.60000000      -0.00935659      -0.03346381      -0.05022342      -0.03678897
Ni      28.20309226      40.54175103      33.49050538       0.60000000      -0.00566661      -0.02899277      -0.14182664      -0.01100295
Ni      29.96767821      38.78113266      33.49272815       0.60000000      -0.00964796      -0.02877957      -0.04657579      -0.03671183
Ni      29.96612421      40.54247145      31.72859560       0.60000000      -0.00537943      -0.02465347      -0.14536801      -0.01824733
Ni      28.20417458      38.77993609      35.25426657       0.60000000      -0.00972494      -0.01472778      -0.03250009      -0.02571088
Ni      28.20108439      40.53865773      37.01329866       0.60000000      -0.00669313      -0.02540922      -0.11638613      -0.00513231
Ni      29.96491041      38.77754464      37.01486636       0.60000000      -0.00960906      -0.00225650      -0.01358557      -0.01149451
Ni      29.96436007      40.53970675      35.25170586       0.60000000      -0.00638481      -0.02385808      -0.12193632      -0.01034024
Ni      28.20132485      38.77619828      38.77619828       0.60000000      -0.01147354      -0.00009213       0.00089399       0.00089399
Ni      28.19907954      40.53586280      40.53586280       0.60000000      -0.00670332      -0.04273502      -0.09220452      -0.09220452
Ni      29.96233278      38.77437803      40.53693899       0.60000000      -0.00870470      -0.02079547      -0.00002665      -0.09972471
Ni      29.96233278      40.53693899      38.77437803       0.60000000      -0.00870470      -0.02079547      -0.09972471      -0.00002665
Ni      31.72195326      -0.00668560      -0.00668560       0.60000000      -0.00698797      -0.02670170       0.07621372       0.07621372
Ni      31.72350789       1.75425058       1.75425058       0.60000000      -0.01014326      -0.00005569      -0.00486454      -0.00486454
Ni      33.48470045      -0.00702840       1.75536120       0.60000000      -0.00860633      -0.01226933       0.06183480      -0.00784275
Ni      33.48470045       1.75536120      -0.00702840       0.60000000      -0.00860633      -0.01226933      -0.00784275       0.06183480
Ni      31.72337020      -0.00813762       3.51678762       0.60000000      -0.00732329      -0.01501591       0.07437335      -0.00508068
Ni      31.72539846       1.75249801       5.27760139       0.60000000      -0.00892263       0.00009544      -0.00733540      -0.00096363
Ni      33.48608619      -0.00840995       5.27894913       0.60000000      -0.00732240      -0.01363872       0.07440492      -0.00289555
Ni      33.48638751       1.75388829       3.51634759       0.60000000      -0.00888814       0.00024113      -0.00540827      -0.00097630
Ni      31.72481382      -0.00974401       7.04041301       0.60000000      -0.00718747      -0.01662936       0.08966357      -0.00365989
Ni      31.72726470       1.75058490       8.80114469       0.60000000      -0.00917463       0.00018922      -0.00941176      -0.00086992
Ni      33.48735954      -0.00986059       8.80272487       0.60000000      -0.00720200      -0.01347879       0.08881953      -0.00007124
Ni      33.48817307       1.75225763       7.03985310       0.60000000      -0.00887086       0.00030231      -0.00794399      -0.00089365
Ni      31.72597069      -0.01139389      10.56430002       0.60000000      -0.00701529      -0.01547302       0.10736777       0.00042917
Ni      31.72859560       1.74867143      12.32501868       0.60000000      -0.00961227       0.00039993      -0.01110357      -0.00054002
Ni      33.48818521      -0.01124961      12.32679205       0.60000000      -0.00705123      -0.00966399       0.10603933       0.00581601
Ni      33.48971577       1.75058490      10.56359577       0.60000000      -0.00921567       0.00049757      -0.00957696      -0.00070183
Ni      31.72640512      -0.01291163      14.08857769       0.60000000      -0.00680766      -0.00907110       0.12818874       0.00853305
Ni      31.72873845       1.74699594      15.84939531       0.60000000      -0.00995443       0.00064432      -0.01276538       0.00024314
Ni      33.48819066      -0.01239791      15.85126674       0.60000000      -0.00686237      -0.00063287       0.12655036       0.01522491
Ni      33.49050538       1.74904952      14.08770829       0.60000000      -0.00958527       0.00072455      -0.01116332      -0.00015551
Ni      31.72573725      -0.01406388      17.61338426       0.60000000      -0.00655361       0.00361824       0.15177782       0.02041648
Ni      31.72724128       1.74586687      19.37447680       0.60000000      -0.01018905       0.00082016      -0.01333189       0.00123433
Ni      33.48716144      -0.01309500      19.37625886       0.60000000      -0.00662496       0.01257413       0.14802152       0.02662409
Ni      33.49004278       1.74788533      17.61234968       0.60000000      -0.00984538       0.00090494      -0.01241056       0.00077125
Ni      31.72392494      -0.01458655      21.13882525       0.60000000      -0.00626454       0.01966579       0.17351867       0.03300739
Ni      31.72429996       1.74563153      22.90041881       0.60000000      -0.01028768       0.00088413      -0.01199566       0.00188129
Ni      33.48525239      -0.01313866      22.90181599       0.60000000      -0.00639297       0.02583819       0.16414069       0.03637957
Ni      33.48816942       1.74735969      21.13767805       0.60000000      -0.01000887       0.00094283      -0.01222872       0.00169251
Ni      31.72144311      -0.01425829      24.66487116       0.60000000      -0.00606142       0.03331833       0.18515210       0.04168815
Ni      31.72091070       1.74655014      26.42712935       0.60000000      -0.01011885       0.00084621      -0.00974659       0.00187944
Ni      33.48301722      -0.01241808      26.42782843       0.60000000      -0.00629299       0.03469915       0.16827123       0.04106922
Ni      33.48535049       1.74771700      24.66374460       0.60000000      -0.00999043       0.00081519      -0.01051156       0.00206480
Ni      31.71909430      -0.01304135      28.19124555       0.60000000      -0.00608773       0.04016095       0.18083846       0.04369142
Ni      31.71827908       1.74853135      29.95409090       0.60000000      -0.00981684       0.00082350      -0.00787067       0.00124656
Ni      33.48110765      -0.01102527      29.95397714       0.60000000      -0.00639474       0.03722974       0.15837383       0.03986085
Ni      33.48255503       1.74903116      28.19032262       0.60000000      -0.00977177       0.00058934      -0.00838540       0.00169619
Ni      31.71747339      -0.01119255      31.71747339       0.60000000      -0.00633798       0.03973081       0.16196575       0.03973081
Ni      31.71687203       1.75103178      33.48058009       0.60000000      -0.00943652       0.00082459      -0.00707822       0.00044684
Ni      33.47985294      -0.00926886      33.47985294       0.60000000      -0.00664096       0.03450525       0.13819383       0.03450525
Ni      33.48058009       1.75103178      31.71687203       0.60000000      -0.00943652       0.00044684      -0.00707822       0.00082459
Ni      31.71663814      -0.00914984      35.24315180       0.60000000      -0.00667989       0.03457573       0.13548874       0.03262032
Ni      31.71635635       1.75343518      37.00619123       0.60000000      -0.00920085       0.00078064      -0.00608600       0.00003464
Ni      33.47917958      -0.00750517      37.00518908       0.60000000      -0.00691937       0.02904747       0.11415544       0.02766949
Ni      33.47952554       1.75320590      35.24285188       0.60000000      -0.00915426       0.00042961      -0.00623116       0.00012547
Ni      31.71631758      -0.00727050      38.76816076       0.60000000      -0.00821467       0.02787668       0.10846803       0.02927448
Ni      31.71625378       1.75542234      40.53097400       0.60000000      -0.00885690       0.02215760      -0.01224557      -0.07559136
Ni      33.47885922      -0.00596077      40.52995630       0.60000000      -0.00692720       0.04197035       0.08839679      -0.04529648
Ni      33.47905776       1.75514647      38.76806371       0.60000000      -0.01025838       0.00042474      -0.00491405       0.00392065
Ni      31.72337020       3.51678762      -0.00813762       0.60000000      -0.00732329      -0.01501591      -0.00508068       0.07437335
Ni      31.72539846       5.27760139       1.75249801       0.60000000      -0.00892263       0.00009544      -0.00096363      -0.00733540
Ni      33.48638751       3.51634759       1.75388829       0.60000000      -0.00888814       0.00024113      -0.00097630      -0.00540827
Ni      33.48608619       5.27894913      -0.00840995       0.60000000      -0.00732240      -0.01363872      -0.00289555       0.07440492
Ni      31.72560520       3.51495214       3.51495214       0.60000000      -0.00770186       0.00075495       0.00762584       0.00762584
Ni      31.72490549       5.27841836       5.27841836       0.60000000      -0.00784598       0.00429107      -0.00378794      -0.00378794
Ni      33.48861674       3.51458977       5.27712903       0.60000000      -0.00763936      -0.00975751       0.01798454       0.00996571
Ni      33.48861674       5.27712903       3.51458977       0.60000000      -0.00763936      -0.00975751       0.00996571       0.01798454
Ni      31.72815237       3.51283694       7.03814623       0.60000000      -0.00748286      -0.01714923       0.02019273       0.00976139
Ni      31.72385226       5.27712004       8.80198393       0.60000000      -0.00755194       0.00603199      -0.00453442      -0.00337245
Ni      33.49091454       3.51267688       8.80053245       0.60000000      -0.00750570      -0.01861914       0.01996833       0.00594498
Ni      33.48556549       5.27907488       7.04153252       0.60000000      -0.00758044       0.00900104      -0.00538714      -0.00512255
Ni      31.73055193       3.51057299      10.56157782       0.60000000      -0.00745067      -0.02190693       0.01723158       0.00360853
Ni      31.72644830       5.27351837      12.32260464       0.60000000      -0.00748670      -0.00011481       0.00137438       0.00278495
Ni      33.49272815       3.51077641      12.32423086       0.60000000      -0.00753026      -0.01813311       0.01806714       0.00047454
Ni      33.48772639       5.27669983      10.56247863       0.60000000      -0.00760513       0.00315088      -0.00236481       0.00157824
Ni      31.73197335       3.50838463      14.08541845       0.60000000      -0.00756267      -0.02295630       0.01932905       0.00254222
Ni      31.72825182       5.27117182      15.84657348       0.60000000      -0.00745614      -0.00232332       0.00184076       0.00160920
Ni      33.49329621       3.50912754      15.84839784       0.60000000      -0.00754544      -0.01771059       0.02093071       0.00315567
Ni      33.48969377       5.27409652      14.08466416       0.60000000      -0.00747115       0.00069412       0.00147718       0.00432691
Ni      31.73146869       3.50658445      17.60990939       0.60000000      -0.00749775      -0.02119221       0.02320186       0.00847645
Ni      31.72712175       5.26989781      19.37362567       0.60000000      -0.00732061      -0.00126857       0.00219279      -0.00218148
Ni      33.49199435       3.50802787      19.37326519       0.60000000      -0.00743218      -0.01669260       0.02362137       0.00941116
Ni      33.48974842       5.27280911      17.61050380       0.60000000      -0.00736152       0.00117001       0.00030068       0.00020914
Ni      31.72858951       3.50557741      21.13537092       0.60000000      -0.00722233      -0.01790944       0.02328256       0.01388929
Ni      31.72356573       5.26928109      22.90051694       0.60000000      -0.00704567      -0.00053279       0.00404465      -0.00272432
Ni      33.48886363       3.50781775      22.89907298       0.60000000      -0.00717041      -0.01352473       0.02211816       0.01324031
Ni      33.48801618       5.27205687      21.13771496       0.60000000      -0.00722608       0.00069687       0.00168873      -0.00325224
Ni      31.72407103       3.50583938      24.66204400       0.60000000      -0.00694944      -0.01361004       0.02370836       0.01387754
Ni      31.71886780       5.27113646      26.42627669       0.60000000      -0.00697438       0.00138243      -0.00110445      -0.00152567
Ni      33.48495605       3.50879450      26.42585881       0.60000000      -0.00696001      -0.01130082       0.02164685       0.00998982
Ni      33.48469067       5.27243511      24.66418149       0.60000000      -0.00701323      -0.00034898       0.00064535      -0.00310323
Ni      31.71980506       3.50766339      28.18968023       0.60000000      -0.00678182      -0.00883444       0.02285308       0.00353170
Ni      31.71530153       5.27393133      29.95150044       0.60000000      -0.00684966       0.00422325      -0.00260701       0.00344395
Ni      33.48179461       3.51091438      29.95314789       0.60000000      -0.00683102      -0.00918970       0.01971982       0.00017973
Ni      33.48070300       5.27442013      28.18964405       0.60000000      -0.00694333       0.00118984      -0.00181482      -0.00186627
Ni      31.71729649       3.51062909      31.71729649       0.60000000      -0.00680896      -0.00606247       0.02118307      -0.00606247
Ni      31.71417415       5.27740237      33.47771173       0.60000000      -0.00690075       0.00604166      -0.00528294       0.00586240
Ni      33.48005060       3.51357038      33.48005060       0.60000000      -0.00694568      -0.00831852       0.01988871      -0.00831852
Ni      33.47771173       5.27740237      31.71417415       0.60000000      -0.00690075       0.00586240      -0.00528294       0.00604166
Ni      31.71639569       3.51374776      35.24389403       0.60000000      -0.00696609      -0.00281672       0.01754290      -0.00972699
Ni      31.71584917       5.27884355      37.00582130       0.60000000      -0.00708688      -0.00194372       0.00029753      -0.00111506
Ni      33.47932669       3.51604567      37.00597386       0.60000000      -0.00713305      -0.00244693       0.01241416      -0.00794922
Ni      33.47749647       5.27938897      35.24086264       0.60000000      -0.00697635       0.00319326      -0.00130322       0.00269504
Ni      31.71625137       3.51634524      38.76926071       0.60000000      -0.00871905       0.00087690       0.00616927      -0.00047471
Ni      31.71635635       5.27951213      40.53226818       0.60000000      -0.00686929       0.02728108      -0.00932445      -0.09350103
Ni      33.47905776       3.51801289      40.53093013       0.60000000      -0.00714517       0.02234595      -0.00799197      -0.07830291
Ni      33.47932669       5.27920764      38.76913583       0.60000000      -0.00855692      -0.00197703       0.00780151      -0.00482596
Ni      31.72481382       7.04041301      -0.00974401       0.60000000      -0.00718747      -0.01662936      -0.00365989       0.08966357
Ni      31.72726470       8.80114469       1.75058490       0.60000000      -0.00917463       0.00018922      -0.00086992      -0.00941176
Ni      33.48817307       7.03985310       1.75225763       0.60000000      -0.00887086       0.00030231      -0.00089365      -0.00794399
Ni      33.48735954       8.80272487      -0.00986059       0.60000000      -0.00720200      -0.01347879      -0.00007124       0.08881953
Ni      31.72815237       7.03814623       3.51283694       0.60000000      -0.00748286      -0.01714923       0.00976139       0.02019273
Ni      31.72385226       8.80198393       5.27712004       0.60000000      -0.00755194       0.00603199      -0.00337245      -0.00453442
Ni      33.48556549       7.04153252       5.27907488       0.60000000      -0.00758044       0.00900104      -0.00512255      -0.00538714
Ni      33.49091454       8.80053245       3.51267688       0.60000000      -0.00750570      -0.01861914       0.00594498       0.01996833
Ni      31.72036898       7.04245652       7.04245652       0.60000000      -0.00719670       0.01180765      -0.00756821      -0.00756821
Ni      31.71719272       8.80429603       8.80429603       0.60000000      -0.00712624       0.00766222      -0.00497384      -0.00497384
Ni      33.48385305       7.04239281       8.80371125       0.60000000      -0.00712896       0.00632669      -0.00505138      -0.00257826
Ni      33.48385305       8.80371125       7.04239281       0.60000000      -0.00712896       0.00632669      -0.00257826      -0.00505138
Ni      31.72000221       7.04010734      10.56312818       0.60000000      -0.00716908       0.00633853      -0.00421481       0.00059127
Ni      31.71785447       8.80069803      12.32275022       0.60000000      -0.00695350       0.00640655      -0.00040247       0.00544139
Ni      33.48586682       7.03938414      12.32281786       0.60000000      -0.00707154       0.00385730      -0.00205638       0.00427891
Ni      33.48392060       8.80350553      10.56390999       0.60000000      -0.00700763       0.00208672      -0.00140576       0.00218157
Ni      31.72313151       7.03536189      14.08270421       0.60000000      -0.00700464       0.00180352       0.00225739       0.00620873
Ni      31.72145490       8.79577347      15.84384824       0.60000000      -0.00662876      -0.00128510       0.00848439       0.01080518
Ni      33.48722089       7.03663745      15.84589814       0.60000000      -0.00685723       0.00340077       0.00052125       0.00288247
Ni      33.48537437       8.80022407      14.08319232       0.60000000      -0.00678303       0.00206339       0.00089862       0.00594230
Ni      31.72505126       7.03306613      17.60878134       0.60000000      -0.00674613      -0.00289645       0.00518356       0.00272986
Ni      31.72231751       8.79478949      19.37130585       0.60000000      -0.00648718      -0.00378604       0.00791616       0.00139254
Ni      33.48726297       7.03546479      19.37362354       0.60000000      -0.00666655       0.00049183       0.00379249      -0.00092498
Ni      33.48684319       8.79773448      17.60797271       0.60000000      -0.00659834      -0.00208194       0.00512836       0.00463064
Ni      31.72303083       7.03288781      21.13722665       0.60000000      -0.00660770      -0.00066909       0.00383895      -0.00499419
Ni      31.71937920       8.79711858      22.89788892       0.60000000      -0.00639966      -0.00121489       0.00546076       0.00189321
Ni      33.48513185       7.03594410      22.90145159       0.60000000      -0.00655384      -0.00110449       0.00234085      -0.00570313
Ni      33.48610585       8.79806244      21.13628763       0.60000000      -0.00643655      -0.00320060       0.00512769      -0.00162474
Ni      31.71903463       7.03452483      24.66282376       0.60000000      -0.00652182      -0.00016367       0.00285155      -0.00115281
Ni      31.71616453       8.80060423      26.42397128       0.60000000      -0.00629388      -0.00397424       0.00400485      -0.00235268
Ni      33.48127578       7.03790860      26.42657057       0.60000000      -0.00650154       0.00012842       0.00054925      -0.00218314
Ni      33.48293865       8.80053252      24.66272888       0.60000000      -0.00643831      -0.00345187       0.00390499      -0.00289924
Ni      31.71508602       7.03763967      28.18769492       0.60000000      -0.00643012       0.00156548       0.00004579       0.00187216
Ni      31.71338804       8.80418963      29.94986436       0.60000000      -0.00624304      -0.00190125       0.00151058      -0.00296585
Ni      33.47767138       7.04099777      29.95069564       0.60000000      -0.00644750       0.00291708      -0.00279152       0.00229110
Ni      33.47901630       8.80403937      28.18759412       0.60000000      -0.00628253      -0.00017659      -0.00012904      -0.00010866
Ni      31.71331821       7.04079485      31.71331821       0.60000000      -0.00632889       0.00261976      -0.00140697       0.00261976
Ni      31.71316676       8.80622574      33.47695006       0.60000000      -0.00635919      -0.00002881       0.00087171       0.00006459
Ni      33.47647403       7.04288696      33.47647403       0.60000000      -0.00647005       0.00349043      -0.00164868       0.00349043
Ni      33.47695006       8.80622574      31.71316676       0.60000000      -0.00635919       0.00006459       0.00087171      -0.00002881
Ni      31.71383423       7.04267389      35.24105888       0.60000000      -0.00659061       0.00336202      -0.00210753       0.00251638
Ni      31.71474959       8.80512123      37.00677624       0.60000000      -0.00682656       0.00257632      -0.00074707       0.00162171
Ni      33.47786782       7.04286201      37.00522890       0.60000000      -0.00692215       0.00176030      -0.00082389      -0.00033906
Ni      33.47716679       8.80622820      35.24134947       0.60000000      -0.00655460       0.00111834       0.00065525      -0.00090129
Ni      31.71639569       7.04060487      38.77075113       0.60000000      -0.00869137      -0.00236887       0.01044531      -0.00608674
Ni      31.71687203       8.80442094      40.53396925       0.60000000      -0.00652707       0.03119081      -0.01375321      -0.11555083
Ni      33.47952554       7.04257540      40.53222137       0.60000000      -0.00678411       0.02613288      -0.01136172      -0.09597998
Ni      33.48005060       8.80419396      38.77067418       0.60000000      -0.00864893      -0.00623043       0.00628265      -0.00417137
Ni      31.72597069      10.56430002      -0.01139389       0.60000000      -0.00701529      -0.01547302       0.00042917       0.10736777
Ni      31.72859560      12.32501868       1.74867143       0.60000000      -0.00961227       0.00039993      -0.00054002      -0.01110357
Ni      33.48971577      10.56359577       1.75058490       0.60000000      -0.00921567       0.00049757      -0.00070183      -0.00957696
Ni      33.48818521      12.32679205      -0.01124961       0.60000000      -0.00705123      -0.00966399       0.00581601       0.10603933
Ni      31.73055193      10.56157782       3.51057299       0.60000000      -0.00745067      -0.02190693       0.00360853       0.01723158
Ni      31.72644830      12.32260464       5.27351837       0.60000000      -0.00748670      -0.00011481       0.00278495       0.00137438
Ni      33.48772639      10.56247863       5.27669983       0.60000000      -0.00760513       0.00315088       0.00157824      -0.00236481
Ni      33.49272815      12.32423086       3.51077641       0.60000000      -0.00753026      -0.01813311       0.00047454       0.01806714
Ni      31.72000221      10.56312818       7.04010734       0.60000000      -0.00716908       0.00633853       0.00059127      -0.00421481
Ni      31.71785447      12.32275022       8.80069803       0.60000000      -0.00695350       0.00640655       0.00544139      -0.00040247
Ni      33.48392060      10.56390999       8.80350553       0.60000000      -0.00700763       0.00208672       0.00218157      -0.00140576
Ni      33.48586682      12.32281786       7.03938414       0.60000000      -0.00707154       0.00385730       0.00427891      -0.00205638
Ni      31.71567641      10.56399123      10.56399123       0.60000000      -0.00697681       0.00740012       0.00004209       0.00004209
Ni      31.71616212      12.32409074      12.32409074       0.60000000      -0.00684388       0.00125318       0.00578106       0.00578106
Ni      33.48420459      10.56351670      12.32389049       0.60000000      -0.00684486       0.00014930       0.00118865       0.00432335
Ni      33.48420459      12.32389049      10.56351670       0.60000000      -0.00684486       0.00014930       0.00432335       0.00118865
Ni      31.71786486      10.56024822      14.08350580       0.60000000      -0.00670734      -0.00063928       0.00837557       0.00942879
Ni      31.71751732      12.32212057      15.84633900       0.60000000      -0.00671073      -0.00113351       0.00129034       0.00254959
Ni      33.48597252      10.56021899      15.84474960       0.60000000      -0.00667240      -0.00427746       0.00730159       0.00783652
Ni      33.48451353      12.32383024      14.08507084       0.60000000      -0.00678552      -0.00206875       0.00523536       0.00496356
Ni      31.72038300      10.55691215      17.60656240       0.60000000      -0.00656428      -0.00551011       0.00969525       0.00522901
Ni      31.71770785      12.32038214      19.36777385       0.60000000      -0.00651381       0.00492651      -0.00212750       0.00192241
Ni      33.48668916      10.55924753      19.37054482       0.60000000      -0.00649993      -0.00574399       0.00713286       0.00257752
Ni      33.48583470      12.32157273      17.60744436       0.60000000      -0.00650106      -0.00185610       0.00408980       0.00275339
Ni      31.71929512      10.55838102      21.13210466       0.60000000      -0.00642390      -0.00175035       0.00382642       0.00118400
Ni      31.71654629      12.32272548      22.89240153       0.60000000      -0.00634851       0.00650811      -0.00177012       0.00204868
Ni      33.48471933      10.56188929      22.89736742       0.60000000      -0.00642521      -0.00461522       0.00323292      -0.00011237
Ni      33.48521659      12.32225890      21.13197053       0.60000000      -0.00640558       0.00229126       0.00199949       0.00156846
Ni      31.71656515      10.56265675      24.65847739       0.60000000      -0.00637822      -0.00055145      -0.00023938      -0.00011767
Ni      31.71407364      12.32743257      26.41981287       0.60000000      -0.00616181       0.00370230      -0.00116474      -0.00290531
Ni      33.48101028      10.56596908      26.42364141       0.60000000      -0.00624669      -0.00129995       0.00037875      -0.00065445
Ni      33.48332005      12.32628301      24.65899785       0.60000000      -0.00618806      -0.00201250       0.00013693      -0.00355401
Ni      31.71372343      10.56686753      28.18567307       0.60000000      -0.00617271      -0.00111677       0.00050682      -0.00406908
Ni      31.71123695      12.33302516      29.94694722       0.60000000      -0.00597809       0.00676549      -0.00766733       0.00178984
Ni      33.47779793      10.56945701      29.94953117       0.60000000      -0.00611629       0.00000456      -0.00046839      -0.00064465
Ni      33.47946033      12.33142151      28.18529971       0.60000000      -0.00611888       0.00066432      -0.00370011      -0.00015419
Ni      31.71211198      10.56997840      31.71211198       0.60000000      -0.00621221       0.00096265      -0.00054059       0.00096265
Ni      31.71205376      12.33326510      33.47685727       0.60000000      -0.00615533       0.00418206       0.00066494       0.00239749
Ni      33.47726593      10.56946336      33.47726593       0.60000000      -0.00643562      -0.00263163       0.00509242      -0.00263163
Ni      33.47685727      12.33326510      31.71205376       0.60000000      -0.00615533       0.00239749       0.00066494       0.00418206
Ni      31.71393576      10.56900716      35.24268514       0.60000000      -0.00639025      -0.00095943       0.00329500      -0.00137586
Ni      31.71636593      12.32978383      37.01019336       0.60000000      -0.00645518      -0.00309218       0.00864919      -0.00640961
Ni      33.47925162      10.56756715      37.00757902       0.60000000      -0.00670590      -0.00137976       0.00313111      -0.00243413
Ni      33.47887856      12.33028460      35.24360862       0.60000000      -0.00642091      -0.00362240       0.00991607      -0.00494365
Ni      31.71729649      10.56621195      38.77287934       0.60000000      -0.00879252      -0.00460026       0.00674655      -0.00273043
Ni      31.71827908      12.33064441      40.53620397       0.60000000      -0.00623591       0.03131173      -0.02115919      -0.14018645
Ni      33.48058009      10.56812900      40.53396925       0.60000000      -0.00656762       0.02767967      -0.01720286      -0.11698347
Ni      33.48179461      12.33075322      38.77298673       0.60000000      -0.00874765      -0.00626574      -0.00143194      -0.00057456
Ni      31.72640512      14.08857769      -0.01291163       0.60000000      -0.00680766      -0.00907110       0.00853305       0.12818874
Ni      31.72873845      15.84939531       1.74699594       0.60000000      -0.00995443       0.00064432       0.00024314      -0.01276538
Ni      33.49050538      14.08770829       1.74904952       0.60000000      -0.00958527       0.00072455      -0.00015551      -0.01116332
Ni      33.48819066      15.85126674      -0.01239791       0.60000000      -0.00686237      -0.00063287       0.01522491       0.12655036
Ni      31.73197335      14.08541845       3.50838463       0.60000000      -0.00756267      -0.02295630       0.00254222       0.01932905
Ni      31.72825182      15.84657348       5.27117182       0.60000000      -0.00745614      -0.00232332       0.00160920       0.00184076
Ni      33.48969377      14.08466416       5.27409652       0.60000000      -0.00747115       0.00069412       0.00432691       0.00147718
Ni      33.49329621      15.84839784       3.50912754       0.60000000      -0.00754544      -0.01771059       0.00315567       0.02093071
Ni      31.72313151      14.08270421       7.03536189       0.60000000      -0.00700464       0.00180352       0.00620873       0.00225739
Ni      31.72145490      15.84384824       8.79577347       0.60000000      -0.00662876      -0.00128510       0.01080518       0.00848439
Ni      33.48537437      14.08319232       8.80022407       0.60000000      -0.00678303       0.00206339       0.00594230       0.00089862
Ni      33.48722089      15.84589814       7.03663745       0.60000000      -0.00685723       0.00340077       0.00288247       0.00052125
Ni      31.71786486      14.08350580      10.56024822       0.60000000      -0.00670734      -0.00063928       0.00942879       0.00837557
Ni      31.71751732      15.84633900      12.32212057       0.60000000      -0.00671073      -0.00113351       0.00254959       0.00129034
Ni      33.48451353      14.08507084      12.32383024       0.60000000      -0.00678552      -0.00206875       0.00496356       0.00523536
Ni      33.48597252      15.84474960      10.56021899       0.60000000      -0.00667240      -0.00427746       0.00783652       0.00730159
Ni      31.71623231      14.08683130      14.08683130       0.60000000      -0.00674715       0.00125085      -0.00430535      -0.00430535
Ni      31.71565178      15.84878025      15.84878025       0.60000000      -0.00639525       0.01247806      -0.01722336      -0.01722336
Ni      33.48484782      14.08560607      15.84740079       0.60000000      -0.00648890       0.00065460      -0.00026976       0.00063125
Ni      33.48484782      15.84740079      14.08560607       0.60000000      -0.00648890       0.00065460       0.00063125      -0.00026976
Ni      31.71605509      14.08457345      17.60805754       0.60000000      -0.00647678       0.01046957      -0.00943026      -0.00762562
Ni      31.71733876      15.84381185      19.36715317       0.60000000      -0.00630887       0.01215390       0.00113685      -0.00063442
Ni      33.48584590      14.08336565      19.36892039       0.60000000      -0.00627341       0.00667328       0.00214237       0.00426272
Ni      33.48619079      15.84681313      17.60881626       0.60000000      -0.00617413       0.00896637      -0.00335659      -0.00227313
Ni      31.71628863      14.08269577      21.12797340       0.60000000      -0.00628473       0.01427245      -0.00463554       0.00401862
Ni      31.71752037      15.84302150      22.88824304       0.60000000      -0.00635887      -0.00181778       0.01075404       0.01094095
Ni      33.48499832      14.08533328      22.89366927       0.60000000      -0.00607597       0.00426096       0.00100976       0.00070880
Ni      33.48767145      15.84519528      21.13088018       0.60000000      -0.00615866       0.00011055       0.00331763      -0.00078084
Ni      31.71577082      14.08553789      24.65329904       0.60000000      -0.00635089      -0.00083778       0.00423355       0.00456271
Ni      31.71306447      15.84941118      26.41544648       0.60000000      -0.00623715      -0.00125362       0.00275540       0.00254568
Ni      33.48150583      14.09156678      26.42083315       0.60000000      -0.00602726       0.00361028      -0.00632953      -0.00128887
Ni      33.48446664      15.84957962      24.65668459       0.60000000      -0.00600631      -0.00088195       0.00082607      -0.00540337
Ni      31.71201104      14.09249793      28.18069926       0.60000000      -0.00603798       0.00216849      -0.00212966       0.00842548
Ni      31.71030268      15.85758751      29.94454065       0.60000000      -0.00577357       0.00469519      -0.01385252       0.00608532
Ni      33.47725489      14.09638670      29.94705189       0.60000000      -0.00591997       0.00960202      -0.01137216       0.00756675
Ni      33.47933478      15.85682223      28.18294604       0.60000000      -0.00584577       0.00635491      -0.01193603       0.00211080
Ni      31.71031878      14.09731764      31.71031878       0.60000000      -0.00567372       0.00974707      -0.01396849       0.00974707
Ni      31.71172625      15.85755887      33.47698372       0.60000000      -0.00587805       0.01060006      -0.00100279       0.00998068
Ni      33.47800422      14.09374212      33.47800422       0.60000000      -0.00607745      -0.00109849       0.00838407      -0.00109849
Ni      33.47698372      15.85755887      31.71172625       0.60000000      -0.00587805       0.00998068      -0.00100279       0.01060006
Ni      31.71467439      14.09341934      35.24485634       0.60000000      -0.00618635      -0.00156285       0.00929582      -0.00485768
Ni      31.71852474      15.85582038      37.01260435       0.60000000      -0.00624357      -0.00233786       0.01194416      -0.00386557
Ni      33.48190429      14.09234380      37.01077234       0.60000000      -0.00644413      -0.00764571       0.01194631      -0.00922229
Ni      33.48095125      15.85413394      35.24581844       0.60000000      -0.00601479      -0.00627478       0.01589015      -0.00790924
Ni      31.71980506      14.09394544      38.77596228       0.60000000      -0.00893121      -0.00962809      -0.00170166      -0.00624612
Ni      31.72091070      15.85835722      40.53893643       0.60000000      -0.00577234       0.02563515      -0.03076519      -0.16159633
Ni      33.48255503      14.09496941      40.53626087       0.60000000      -0.00629491       0.02528168      -0.02561421      -0.13772322
Ni      33.48495605      15.85912902      38.77619334       0.60000000      -0.00902420      -0.01378320      -0.01018741      -0.01069139
Ni      31.72573725      17.61338426      -0.01406388       0.60000000      -0.00655361       0.00361824       0.02041648       0.15177782
Ni      31.72724128      19.37447680       1.74586687       0.60000000      -0.01018905       0.00082016       0.00123433      -0.01333189
Ni      33.49004278      17.61234968       1.74788533       0.60000000      -0.00984538       0.00090494       0.00077125      -0.01241056
Ni      33.48716144      19.37625886      -0.01309500       0.60000000      -0.00662496       0.01257413       0.02662409       0.14802152
Ni      31.73146869      17.60990939       3.50658445       0.60000000      -0.00749775      -0.02119221       0.00847645       0.02320186
Ni      31.72712175      19.37362567       5.26989781       0.60000000      -0.00732061      -0.00126857      -0.00218148       0.00219279
Ni      33.48974842      17.61050380       5.27280911       0.60000000      -0.00736152       0.00117001       0.00020914       0.00030068
Ni      33.49199435      19.37326519       3.50802787       0.60000000      -0.00743218      -0.01669260       0.00941116       0.02362137
Ni      31.72505126      17.60878134       7.03306613       0.60000000      -0.00674613      -0.00289645       0.00272986       0.00518356
Ni      31.72231751      19.37130585       8.79478949       0.60000000      -0.00648718      -0.00378604       0.00139254       0.00791616
Ni      33.48684319      17.60797271       8.79773448       0.60000000      -0.00659834      -0.00208194       0.00463064       0.00512836
Ni      33.48726297      19.37362354       7.03546479       0.60000000      -0.00666655       0.00049183      -0.00092498       0.00379249
Ni      31.72038300      17.60656240      10.55691215       0.60000000      -0.00656428      -0.00551011       0.00522901       0.00969525
Ni      31.71770785      19.36777385      12.32038214       0.60000000      -0.00651381       0.00492651       0.00192241      -0.00212750
Ni      33.48583470      17.60744436      12.32157273       0.60000000      -0.00650106      -0.00185610       0.00275339       0.00408980
Ni      33.48668916      19.37054482      10.55924753       0.60000000      -0.00649993      -0.00574399       0.00257752       0.00713286
Ni      31.71605509      17.60805754      14.08457345       0.60000000      -0.00647678       0.01046957      -0.00762562      -0.00943026
Ni      31.71733876      19.36715317      15.84381185       0.60000000      -0.00630887       0.01215390      -0.00063442       0.00113685
Ni      33.48619079      17.60881626      15.84681313       0.60000000      -0.00617413       0.00896637      -0.00227313      -0.00335659
Ni      33.48584590      19.36892039      14.08336565       0.60000000      -0.00627341       0.00667328       0.00426272       0.00214237
Ni      31.71829311      17.60679708      17.60679708       0.60000000      -0.00648407       0.00697713      -0.00027031      -0.00027031
Ni      31.71985015      19.36507236      19.36507236       0.60000000      -0.00631971       0.00342976       0.01692188       0.01692188
Ni      33.48909342      17.60766976      19.37008962       0.60000000      -0.00620960      -0.00136645       0.00081239      -0.00538310
Ni      33.48909342      19.37008962      17.60766976       0.60000000      -0.00620960      -0.00136645      -0.00538310       0.00081239
Ni      31.71952091      17.60300042      21.12549780       0.60000000      -0.00639871      -0.00045505       0.01502092       0.02362078
Ni      31.71688396      19.36381779      22.88738336       0.60000000      -0.00628136       0.00148365       0.00941650       0.00508106
Ni      33.48722592      17.60853254      22.89388046       0.60000000      -0.00614787      -0.00380425       0.00110930      -0.00911596
Ni      33.48890599      19.37008722      21.13210993       0.60000000      -0.00619824      -0.00673881      -0.00119718      -0.00517063
Ni      31.71454245      17.60476117      24.64996674       0.60000000      -0.00622991       0.00390035       0.01236247       0.01040941
Ni      31.71152322      19.36807071      26.41198930       0.60000000      -0.00596151      -0.00076827       0.01316662       0.01016354
Ni      33.48203469      17.61492886      26.41888869       0.60000000      -0.00579519       0.00098999      -0.00864242      -0.00362355
Ni      33.48419754      19.37234024      24.65516426       0.60000000      -0.00590700      -0.00202178       0.00191762       0.00543301
Ni      31.71053793      17.61316884      28.17790358       0.60000000      -0.00587628       0.00072308       0.00781846       0.00898408
Ni      31.70891434      19.37774331      29.94200771       0.60000000      -0.00567179      -0.00536533      -0.01269952       0.00355442
Ni      33.47762783      17.61974231      29.94700929       0.60000000      -0.00565099       0.00956313      -0.01140665       0.00283508
Ni      33.47901709      19.37867027      28.18168013       0.60000000      -0.00561075       0.00439157      -0.01054111       0.00435237
Ni      31.70918515      17.62052699      31.70918515       0.60000000      -0.00555191       0.01280285      -0.01863266       0.01280285
Ni      31.71181589      19.37975628      33.47701683       0.60000000      -0.00551950       0.01203721       0.00337599       0.01165297
Ni      33.47886817      17.61708967      33.47886817       0.60000000      -0.00591503       0.00134437       0.01027997       0.00134437
Ni      33.47701683      19.37975628      31.71181589       0.60000000      -0.00551950       0.01165297       0.00337599       0.01203721
Ni      31.71659091      17.61758153      35.24626424       0.60000000      -0.00573298      -0.00427029       0.01203924      -0.00281429
Ni      31.72140622      19.38343433      37.01457821       0.60000000      -0.00619122      -0.00385340       0.00840398      -0.00304695
Ni      33.48414659      17.61984935      37.01262745       0.60000000      -0.00629001      -0.00588777       0.00753733      -0.00599702
Ni      33.48189106      19.38020057      35.24629398       0.60000000      -0.00566659      -0.00323728       0.01211789      -0.00291834
Ni      31.72407103      17.62359987      38.77980450       0.60000000      -0.00921467      -0.02076394      -0.01614357      -0.02184456
Ni      31.72429996      19.38685803      40.54164531       0.60000000      -0.00533181       0.01467982      -0.03824931      -0.17393395
Ni      33.48535049      17.62282448      40.53885208       0.60000000      -0.00589584       0.01851907      -0.03392550      -0.15272417
Ni      33.48886363      19.38834311      38.77959834       0.60000000      -0.00928008      -0.02219264      -0.01937977      -0.02475153
Ni      31.72392494      21.13882525      -0.01458655       0.60000000      -0.00626454       0.01966579       0.03300739       0.17351867
Ni      31.72429996      22.90041881       1.74563153       0.60000000      -0.01028768       0.00088413       0.00188129      -0.01199566
Ni      33.48816942      21.13767805       1.74735969       0.60000000      -0.01000887       0.00094283       0.00169251      -0.01222872
Ni      33.48525239      22.90181599      -0.01313866       0.60000000      -0.00639297       0.02583819       0.03637957       0.16414069
Ni      31.72858951      21.13537092       3.50557741       0.60000000      -0.00722233      -0.01790944       0.01388929       0.02328256
Ni      31.72356573      22.90051694       5.26928109       0.60000000      -0.00704567      -0.00053279      -0.00272432       0.00404465
Ni      33.48801618      21.13771496       5.27205687       0.60000000      -0.00722608       0.00069687      -0.00325224       0.00168873
Ni      33.48886363      22.89907298       3.50781775       0.60000000      -0.00717041      -0.01352473       0.01324031       0.02211816
Ni      31.72303083      21.13722665       7.03288781       0.60000000      -0.00660770      -0.00066909      -0.00499419       0.00383895
Ni      31.71937920      22.89788892       8.79711858       0.60000000      -0.00639966      -0.00121489       0.00189321       0.00546076
Ni      33.48610585      21.13628763       8.79806244       0.60000000      -0.00643655      -0.00320060      -0.00162474       0.00512769
Ni      33.48513185      22.90145159       7.03594410       0.60000000      -0.00655384      -0.00110449      -0.00570313       0.00234085
Ni      31.71929512      21.13210466      10.55838102       0.60000000      -0.00642390      -0.00175035       0.00118400       0.00382642
Ni      31.71654629      22.89240153      12.32272548       0.60000000      -0.00634851       0.00650811       0.00204868      -0.00177012
Ni      33.48521659      21.13197053      12.32225890       0.60000000      -0.00640558       0.00229126       0.00156846       0.00199949
Ni      33.48471933      22.89736742      10.56188929       0.60000000      -0.00642521      -0.00461522      -0.00011237       0.00323292
Ni      31.71628863      21.12797340      14.08269577       0.60000000      -0.00628473       0.01427245       0.00401862      -0.00463554
Ni      31.71752037      22.88824304      15.84302150       0.60000000      -0.00635887      -0.00181778       0.01094095       0.01075404
Ni      33.48767145      21.13088018      15.84519528       0.60000000      -0.00615866       0.00011055      -0.00078084       0.00331763
Ni      33.48499832      22.89366927      14.08533328       0.60000000      -0.00607597       0.00426096       0.00070880       0.00100976
Ni      31.71952091      21.12549780      17.60300042       0.60000000      -0.00639871      -0.00045505       0.02362078       0.01502092
Ni      31.71688396      22.88738336      19.36381779       0.60000000      -0.00628136       0.00148365       0.00508106       0.00941650
Ni      33.48890599      21.13210993      19.37008722       0.60000000      -0.00619824      -0.00673881      -0.00517063      -0.00119718
Ni      33.48722592      22.89388046      17.60853254       0.60000000      -0.00614787      -0.00380425      -0.00911596       0.00110930
Ni      31.71730111      21.12553755      21.12553755       0.60000000      -0.00624683       0.00594693       0.00756984       0.00756984
Ni      31.71371223      22.88709660      22.88709660       0.60000000      -0.00600560      -0.00902317       0.00725505       0.00725505
Ni      33.48447846      21.13223787      22.89348087       0.60000000      -0.00591264       0.00455927       0.00721217       0.00582447
Ni      33.48447846      22.89348087      21.13223787       0.60000000      -0.00591264       0.00455927       0.00582447       0.00721217
Ni      31.71218803      21.12559943      24.64848771       0.60000000      -0.00596316       0.00307864       0.01925323       0.00869311
Ni      31.70472903      22.88688394      26.40876145       0.60000000      -0.00550721       0.01202093       0.01714441       0.01722426
Ni      33.48005113      21.13664224      26.41784621       0.60000000      -0.00559963       0.00301853      -0.01315626      -0.00148553
Ni      33.48053446      22.89597713      24.65654103       0.60000000      -0.00554856       0.00269188      -0.01280896      -0.00920548
Ni      31.70649383      21.13147857      28.17381378       0.60000000      -0.00570548       0.00375755       0.00508524       0.01371780
Ni      31.70455467      22.89481683      29.93983219       0.60000000      -0.00552475       0.00405097      -0.01043969      -0.00035526
Ni      33.47581034      21.14060644      29.94564907       0.60000000      -0.00538018       0.01117466      -0.00806052       0.00575271
Ni      33.47550887      22.89789517      28.17985929       0.60000000      -0.00547248       0.00173063      -0.00251695       0.00687596
Ni      31.70900335      21.13958216      31.70900335       0.60000000      -0.00538516       0.00166734      -0.00932678       0.00166734
Ni      31.71132885      22.90170804      33.47590427       0.60000000      -0.00533908       0.00685678       0.00467593       0.00481816
Ni      33.47959164      21.14105472      33.47959164       0.60000000      -0.00544826      -0.00431584       0.01324880      -0.00431584
Ni      33.47590427      22.90170804      31.71132885       0.60000000      -0.00533908       0.00481816       0.00467593       0.00685678
Ni      31.71679438      21.14239529      35.24569278       0.60000000      -0.00552717       0.00047856       0.01381551       0.00120087
Ni      31.72316865      22.91080244      37.01438287       0.60000000      -0.00633988      -0.00310321       0.00616881       0.00187146
Ni      33.48620862      21.14772493      37.01392728       0.60000000      -0.00645920      -0.00932974       0.00452789      -0.00773501
Ni      33.48226770      22.90668669      35.24632080       0.60000000      -0.00539240      -0.00355458       0.00879182      -0.00375500
Ni      31.72858951      21.15336239      38.78315590       0.60000000      -0.00943638      -0.02955517      -0.02618416      -0.03742794
Ni      31.72724128      22.91482793      40.54343786       0.60000000      -0.00502167       0.00124750      -0.03937598      -0.17418007
Ni      33.48816942      21.15072157      40.54103993       0.60000000      -0.00559745       0.00851350      -0.03798213      -0.15855444
Ni      33.49199435      22.91669171      38.78192903       0.60000000      -0.00955037      -0.03083829      -0.02381853      -0.03871771
Ni      31.72144311      24.66487116      -0.01425829       0.60000000      -0.00606142       0.03331833       0.04168815       0.18515210
Ni      31.72091070      26.42712935       1.74655014       0.60000000      -0.01011885       0.00084621       0.00187944      -0.00974659
Ni      33.48535049      24.66374460       1.74771700       0.60000000      -0.00999043       0.00081519       0.00206480      -0.01051156
Ni      33.48301722      26.42782843      -0.01241808       0.60000000      -0.00629299       0.03469915       0.04106922       0.16827123
Ni      31.72407103      24.66204400       3.50583938       0.60000000      -0.00694944      -0.01361004       0.01387754       0.02370836
Ni      31.71886780      26.42627669       5.27113646       0.60000000      -0.00697438       0.00138243      -0.00152567      -0.00110445
Ni      33.48469067      24.66418149       5.27243511       0.60000000      -0.00701323      -0.00034898      -0.00310323       0.00064535
Ni      33.48495605      26.42585881       3.50879450       0.60000000      -0.00696001      -0.01130082       0.00998982       0.02164685
Ni      31.71903463      24.66282376       7.03452483       0.60000000      -0.00652182      -0.00016367      -0.00115281       0.00285155
Ni      31.71616453      26.42397128       8.80060423       0.60000000      -0.00629388      -0.00397424      -0.00235268       0.00400485
Ni      33.48293865      24.66272888       8.80053252       0.60000000      -0.00643831      -0.00345187      -0.00289924       0.00390499
Ni      33.48127578      26.42657057       7.03790860       0.60000000      -0.00650154       0.00012842      -0.00218314       0.00054925
Ni      31.71656515      24.65847739      10.56265675       0.60000000      -0.00637822      -0.00055145      -0.00011767      -0.00023938
Ni      31.71407364      26.41981287      12.32743257       0.60000000      -0.00616181       0.00370230      -0.00290531      -0.00116474
Ni      33.48332005      24.65899785      12.32628301       0.60000000      -0.00618806      -0.00201250      -0.00355401       0.00013693
Ni      33.48101028      26.42364141      10.56596908       0.60000000      -0.00624669      -0.00129995      -0.00065445       0.00037875
Ni      31.71577082      24.65329904      14.08553789       0.60000000      -0.00635089      -0.00083778       0.00456271       0.00423355
Ni      31.71306447      26.41544648      15.84941118       0.60000000      -0.00623715      -0.00125362       0.00254568       0.00275540
Ni      33.48446664      24.65668459      15.84957962       0.60000000      -0.00600631      -0.00088195      -0.00540337       0.00082607
Ni      33.48150583      26.42083315      14.09156678       0.60000000      -0.00602726       0.00361028      -0.00128887      -0.00632953
Ni      31.71454245      24.64996674      17.60476117       0.60000000      -0.00622991       0.00390035       0.01040941       0.01236247
Ni      31.71152322      26.41198930      19.36807071       0.60000000      -0.00596151      -0.00076827       0.01016354       0.01316662
Ni      33.48419754      24.65516426      19.37234024       0.60000000      -0.00590700      -0.00202178       0.00543301       0.00191762
Ni      33.48203469      26.41888869      17.61492886       0.60000000      -0.00579519       0.00098999      -0.00362355      -0.00864242
Ni      31.71218803      24.64848771      21.12559943       0.60000000      -0.00596316       0.00307864       0.00869311       0.01925323
Ni      31.70472903      26.40876145      22.88688394       0.60000000      -0.00550721       0.01202093       0.01722426       0.01714441
Ni      33.48053446      24.65654103      22.89597713       0.60000000      -0.00554856       0.00269188      -0.00920548      -0.01280896
Ni      33.48005113      26.41784621      21.13664224       0.60000000      -0.00559963       0.00301853      -0.00148553      -0.01315626
Ni      31.70429573      24.64644608      24.64644608       0.60000000      -0.00550142       0.01571883       0.02599561       0.02599561
Ni      31.70229519      26.41155688      26.41155688       0.60000000      -0.00521348      -0.00709049      -0.01682116      -0.01682116
Ni      33.47388490      24.65639164      26.41678674       0.60000000      -0.00544629       0.00720182      -0.00145921       0.00411948
Ni      33.47388490      26.41678674      24.65639164       0.60000000      -0.00544629       0.00720182       0.00411948      -0.00145921
Ni      31.70230442      24.64993077      28.17305713       0.60000000      -0.00558409      -0.00135214       0.00358800       0.00228844
Ni      31.69971338      26.41379981      29.93724850       0.60000000      -0.00523189       0.01531708       0.00364467       0.00654910
Ni      33.47256252      24.65994869      29.94450636       0.60000000      -0.00522435       0.01276430       0.00063460       0.00626764
Ni      33.47073073      26.41794232      28.17999576       0.60000000      -0.00524310       0.01489045       0.00999241       0.00739493
Ni      31.70460258      24.65895703      31.70460258       0.60000000      -0.00512691       0.01285906      -0.01069015       0.01285906
Ni      31.70945602      26.42274173      33.47270716       0.60000000      -0.00506660       0.00761814       0.01161654       0.00614110
Ni      33.47756342      24.66466260      33.47756342       0.60000000      -0.00516081       0.00244453       0.01466944       0.00244453
Ni      33.47270716      26.42274173      31.70945602       0.60000000      -0.00506660       0.00614110       0.01161654       0.00761814
Ni      31.71707024      24.66727259      35.24448750       0.60000000      -0.00514002      -0.00333114       0.01196875       0.00026024
Ni      31.72352878      26.43695845      37.01449452       0.60000000      -0.00637149      -0.00695408      -0.00278790      -0.01084268
Ni      33.48733754      24.67536103      37.01436802       0.60000000      -0.00646325      -0.01070946      -0.00349036      -0.00929447
Ni      33.48253393      26.43198945      35.24527080       0.60000000      -0.00533641      -0.00926076       0.00288805      -0.00527412
Ni      31.73146869      24.68133286      38.78465781       0.60000000      -0.00964470      -0.04031658      -0.03357897      -0.05335598
Ni      31.72873845      26.44130136      40.54370073       0.60000000      -0.00513100      -0.01074240      -0.03368221      -0.16396372
Ni      33.49004278      24.67762864      40.54209299       0.60000000      -0.00553973      -0.00231564      -0.03579833      -0.15452635
Ni      33.49329621      26.44313515      38.78240545       0.60000000      -0.00955749      -0.03119580      -0.02336682      -0.04255702
Ni      31.71909430      28.19124555      -0.01304135       0.60000000      -0.00608773       0.04016095       0.04369142       0.18083846
Ni      31.71827908      29.95409090       1.74853135       0.60000000      -0.00981684       0.00082350       0.00124656      -0.00787067
Ni      33.48255503      28.19032262       1.74903116       0.60000000      -0.00977177       0.00058934       0.00169619      -0.00838540
Ni      33.48110765      29.95397714      -0.01102527       0.60000000      -0.00639474       0.03722974       0.03986085       0.15837383
Ni      31.71980506      28.18968023       3.50766339       0.60000000      -0.00678182      -0.00883444       0.00353170       0.02285308
Ni      31.71530153      29.95150044       5.27393133       0.60000000      -0.00684966       0.00422325       0.00344395      -0.00260701
Ni      33.48070300      28.18964405       5.27442013       0.60000000      -0.00694333       0.00118984      -0.00186627      -0.00181482
Ni      33.48179461      29.95314789       3.51091438       0.60000000      -0.00683102      -0.00918970       0.00017973       0.01971982
Ni      31.71508602      28.18769492       7.03763967       0.60000000      -0.00643012       0.00156548       0.00187216       0.00004579
Ni      31.71338804      29.94986436       8.80418963       0.60000000      -0.00624304      -0.00190125      -0.00296585       0.00151058
Ni      33.47901630      28.18759412       8.80403937       0.60000000      -0.00628253      -0.00017659      -0.00010866      -0.00012904
Ni      33.47767138      29.95069564       7.04099777       0.60000000      -0.00644750       0.00291708       0.00229110      -0.00279152
Ni      31.71372343      28.18567307      10.56686753       0.60000000      -0.00617271      -0.00111677      -0.00406908       0.00050682
Ni      31.71123695      29.94694722      12.33302516       0.60000000      -0.00597809       0.00676549       0.00178984      -0.00766733
Ni      33.47946033      28.18529971      12.33142151       0.60000000      -0.00611888       0.00066432      -0.00015419      -0.00370011
Ni      33.47779793      29.94953117      10.56945701       0.60000000      -0.00611629       0.00000456      -0.00064465      -0.00046839
Ni      31.71201104      28.18069926      14.09249793       0.60000000      -0.00603798       0.00216849       0.00842548      -0.00212966
Ni      31.71030268      29.94454065      15.85758751       0.60000000      -0.00577357       0.00469519       0.00608532      -0.01385252
Ni      33.47933478      28.18294604      15.85682223       0.60000000      -0.00584577       0.00635491       0.00211080      -0.01193603
Ni      33.47725489      29.94705189      14.09638670       0.60000000      -0.00591997       0.00960202       0.00756675      -0.01137216
Ni      31.71053793      28.17790358      17.61316884       0.60000000      -0.00587628       0.00072308       0.00898408       0.00781846
Ni      31.70891434      29.94200771      19.37774331       0.60000000      -0.00567179      -0.00536533       0.00355442      -0.01269952
Ni      33.47901709      28.18168013      19.37867027       0.60000000      -0.00561075       0.00439157       0.00435237      -0.01054111
Ni      33.47762783      29.94700929      17.61974231       0.60000000      -0.00565099       0.00956313       0.00283508      -0.01140665
Ni      31.70649383      28.17381378      21.13147857       0.60000000      -0.00570548       0.00375755       0.01371780       0.00508524
Ni      31.70455467      29.93983219      22.89481683       0.60000000      -0.00552475       0.00405097      -0.00035526      -0.01043969
Ni      33.47550887      28.17985929      22.89789517       0.60000000      -0.00547248       0.00173063       0.00687596      -0.00251695
Ni      33.47581034      29.94564907      21.14060644       0.60000000      -0.00538018       0.01117466       0.00575271      -0.00806052
Ni      31.70230442      28.17305713      24.64993077       0.60000000      -0.00558409      -0.00135214       0.00228844       0.00358800
Ni      31.69971338      29.93724850      26.41379981       0.60000000      -0.00523189       0.01531708       0.00654910       0.00364467
Ni      33.47073073      28.17999576      26.41794232       0.60000000      -0.00524310       0.01489045       0.00739493       0.00999241
Ni      33.47256252      29.94450636      24.65994869       0.60000000      -0.00522435       0.01276430       0.00626764       0.00063460
Ni      31.69825634      28.17246592      28.17246592       0.60000000      -0.00497890       0.01880617       0.02594951       0.02594951
Ni      31.70147702      29.94055029      29.94055029       0.60000000      -0.00506609       0.01204414      -0.00345037      -0.00345037
Ni      33.46861617      28.18155904      29.94302613       0.60000000      -0.00463776       0.01201150       0.00244443       0.01020009
Ni      33.46861617      29.94302613      28.18155904       0.60000000      -0.00463776       0.01201150       0.01020009       0.00244443
Ni      31.70344222      28.18064424      31.70344222       0.60000000      -0.00512693       0.01483950      -0.00331586       0.01483950
Ni      31.71124782      29.94744382      33.47384070       0.60000000      -0.00493992      -0.01051693       0.00107122      -0.00164672
Ni      33.47791975      28.18887849      33.47791975       0.60000000      -0.00521826      -0.00777075       0.00594086      -0.00777075
Ni      33.47384070      29.94744382      31.71124782       0.60000000      -0.00493992      -0.00164672       0.00107122      -0.01051693
Ni      31.71503639      28.18980563      35.24064779       0.60000000      -0.00501005       0.00102096       0.00992344       0.01137875
Ni      31.72042393      29.95812810      37.01076289       0.60000000      -0.00647716       0.01185011       0.01486155       0.00789224
Ni      33.48654464      28.19961888      37.01252494       0.60000000      -0.00670109      -0.00497521       0.00202297      -0.00124348
Ni      33.48194607      29.95618634      35.24632388       0.60000000      -0.00552175      -0.00764301       0.00202228      -0.01773060
Ni      31.73197335      28.20690210      38.78393592       0.60000000      -0.00935659      -0.03678897      -0.03346381      -0.05022342
Ni      31.72859560      29.96612421      40.54247145       0.60000000      -0.00537943      -0.01824733      -0.02465347      -0.14536801
Ni      33.49050538      28.20309226      40.54175103       0.60000000      -0.00566661      -0.01100295      -0.02899277      -0.14182664
Ni      33.49272815      29.96767821      38.78113266       0.60000000      -0.00964796      -0.03671183      -0.02877957      -0.04657579
Ni      31.71747339      31.71747339      -0.01119255       0.60000000      -0.00633798       0.03973081       0.03973081       0.16196575
Ni      31.71687203      33.48058009       1.75103178       0.60000000      -0.00943652       0.00082459       0.00044684      -0.00707822
Ni      33.48058009      31.71687203       1.75103178       0.60000000      -0.00943652       0.00044684       0.00082459      -0.00707822
Ni      33.47985294      33.47985294      -0.00926886       0.60000000      -0.00664096       0.03450525       0.03450525       0.13819383
Ni      31.71729649      31.71729649       3.51062909       0.60000000      -0.00680896      -0.00606247      -0.00606247       0.02118307
Ni      31.71417415      33.47771173       5.27740237       0.60000000      -0.00690075       0.00604166       0.00586240      -0.00528294
Ni      33.47771173      31.71417415       5.27740237       0.60000000      -0.00690075       0.00586240       0.00604166      -0.00528294
Ni      33.48005060      33.48005060       3.51357038       0.60000000      -0.00694568      -0.00831852      -0.00831852       0.01988871
Ni      31.71331821      31.71331821       7.04079485       0.60000000      -0.00632889       0.00261976       0.00261976      -0.00140697
Ni      31.71316676      33.47695006       8.80622574       0.60000000      -0.00635919      -0.00002881       0.00006459       0.00087171
Ni      33.47695006      31.71316676       8.80622574       0.60000000      -0.00635919       0.00006459      -0.00002881       0.00087171
Ni      33.47647403      33.47647403       7.04288696       0.60000000      -0.00647005       0.00349043       0.00349043      -0.00164868
Ni      31.71211198      31.71211198      10.56997840       0.60000000      -0.00621221       0.00096265       0.00096265      -0.00054059
Ni      31.71205376      33.47685727      12.33326510       0.60000000      -0.00615533       0.00418206       0.00239749       0.00066494
Ni      33.47685727      31.71205376      12.33326510       0.60000000      -0.00615533       0.00239749       0.00418206       0.00066494
Ni      33.47726593      33.47726593      10.56946336       0.60000000      -0.00643562      -0.00263163      -0.00263163       0.00509242
Ni      31.71031878      31.71031878      14.09731764       0.60000000      -0.00567372       0.00974707       0.00974707      -0.01396849
Ni      31.71172625      33.47698372      15.85755887       0.60000000      -0.00587805       0.01060006       0.00998068      -0.00100279
Ni      33.47698372      31.71172625      15.85755887       0.60000000      -0.00587805       0.00998068       0.01060006      -0.00100279
Ni      33.47800422      33.47800422      14.09374212       0.60000000      -0.00607745      -0.00109849      -0.00109849       0.00838407
Ni      31.70918515      31.70918515      17.62052699       0.60000000      -0.00555191       0.01280285       0.01280285      -0.01863266
Ni      31.71181589      33.47701683      19.37975628       0.60000000      -0.00551950       0.01203721       0.01165297       0.00337599
Ni      33.47701683      31.71181589      19.37975628       0.60000000      -0.00551950       0.01165297       0.01203721       0.00337599
Ni      33.47886817      33.47886817      17.61708967       0.60000000      -0.00591503       0.00134437       0.00134437       0.01027997
Ni      31.70900335      31.70900335      21.13958216       0.60000000      -0.00538516       0.00166734       0.00166734      -0.00932678
Ni      31.71132885      33.47590427      22.90170804       0.60000000      -0.00533908       0.00685678       0.00481816       0.00467593
Ni      33.47590427      31.71132885      22.90170804       0.60000000      -0.00533908       0.00481816       0.00685678       0.00467593
Ni      33.47959164      33.47959164      21.14105472       0.60000000      -0.00544826      -0.00431584      -0.00431584       0.01324880
Ni      31.70460258      31.70460258      24.65895703       0.60000000      -0.00512691       0.01285906       0.01285906      -0.01069015
Ni      31.70945602      33.47270716      26.42274173       0.60000000      -0.00506660       0.00761814       0.00614110       0.01161654
Ni      33.47270716      31.70945602      26.42274173       0.60000000      -0.00506660       0.00614110       0.00761814       0.01161654
Ni      33.47756342      33.47756342      24.66466260       0.60000000      -0.00516081       0.00244453       0.00244453       0.01466944
Ni      31.70344222      31.70344222      28.18064424       0.60000000      -0.00512693       0.01483950       0.01483950      -0.00331586
Ni      31.71124782      33.47384070      29.94744382       0.60000000      -0.00493992      -0.01051693      -0.00164672       0.00107122
Ni      33.47384070      31.71124782      29.94744382       0.60000000      -0.00493992      -0.00164672      -0.01051693       0.00107122
Ni      33.47791975      33.47791975      28.18887849       0.60000000      -0.00521826      -0.00777075      -0.00777075       0.00594086
Ni      31.71023796      31.71023796      31.71023796       0.60000000      -0.00470460      -0.01636994      -0.01636994      -0.01636994
Ni      31.71253066      33.47722920      33.47722920       0.60000000      -0.00526551       0.01947248       0.00618966       0.00618966
Ni      33.47722920      31.71253066      33.47722920       0.60000000      -0.00526551       0.00618966       0.01947248       0.00618966
Ni      33.47722920      33.47722920      31.71253066       0.60000000      -0.00526551       0.00618966       0.00618966       0.01947248
Ni      31.71463616      31.71463616      35.24438441       0.60000000      -0.00531011       0.01153644       0.01153644      -0.01482711
Ni      31.72340570      33.48528555      37.01350116       0.60000000      -0.00662143      -0.00529609      -0.00602930      -0.02001880
Ni      33.48528555      31.72340570      37.01350116       0.60000000      -0.00662143      -0.00602930      -0.00529609      -0.02001880
Ni      33.47994500      33.47994500      35.24445794       0.60000000      -0.00600888       0.00314873       0.00314873      -0.00704671
Ni      31.73055193      31.73055193      38.78155676       0.60000000      -0.00956861      -0.04008721      -0.04008721      -0.05210030
Ni      31.72726470      33.48971577      40.54027556       0.60000000      -0.00617421      -0.02051188      -0.01573230      -0.12470260
Ni      33.48971577      31.72726470      40.54027556       0.60000000      -0.00617421      -0.01573230      -0.02051188      -0.12470260
Ni      33.49091454      33.49091454      38.77877011       0.60000000      -0.00923814      -0.02038986      -0.02038986      -0.02598160
Ni      31.71663814      35.24315180      -0.00914984       0.60000000      -0.00667989       0.03457573       0.03262032       0.13548874
Ni      31.71635635      37.00619123       1.75343518       0.60000000      -0.00920085       0.00078064       0.00003464      -0.00608600
Ni      33.47952554      35.24285188       1.75320590       0.60000000      -0.00915426       0.00042961       0.00012547      -0.00623116
Ni      33.47917958      37.00518908      -0.00750517       0.60000000      -0.00691937       0.02904747       0.02766949       0.11415544
Ni      31.71639569      35.24389403       3.51374776       0.60000000      -0.00696609      -0.00281672      -0.00972699       0.01754290
Ni      31.71584917      37.00582130       5.27884355       0.60000000      -0.00708688      -0.00194372      -0.00111506       0.00029753
Ni      33.47749647      35.24086264       5.27938897       0.60000000      -0.00697635       0.00319326       0.00269504      -0.00130322
Ni      33.47932669      37.00597386       3.51604567       0.60000000      -0.00713305      -0.00244693      -0.00794922       0.01241416
Ni      31.71383423      35.24105888       7.04267389       0.60000000      -0.00659061       0.00336202       0.00251638      -0.00210753
Ni      31.71474959      37.00677624       8.80512123       0.60000000      -0.00682656       0.00257632       0.00162171      -0.00074707
Ni      33.47716679      35.24134947       8.80622820       0.60000000      -0.00655460       0.00111834      -0.00090129       0.00065525
Ni      33.47786782      37.00522890       7.04286201       0.60000000      -0.00692215       0.00176030      -0.00033906      -0.00082389
Ni      31.71393576      35.24268514      10.56900716       0.60000000      -0.00639025      -0.00095943      -0.00137586       0.00329500
Ni      31.71636593      37.01019336      12.32978383       0.60000000      -0.00645518      -0.00309218      -0.00640961       0.00864919
Ni      33.47887856      35.24360862      12.33028460       0.60000000      -0.00642091      -0.00362240      -0.00494365       0.00991607
Ni      33.47925162      37.00757902      10.56756715       0.60000000      -0.00670590      -0.00137976      -0.00243413       0.00313111
Ni      31.71467439      35.24485634      14.09341934       0.60000000      -0.00618635      -0.00156285      -0.00485768       0.00929582
Ni      31.71852474      37.01260435      15.85582038       0.60000000      -0.00624357      -0.00233786      -0.00386557       0.01194416
Ni      33.48095125      35.24581844      15.85413394       0.60000000      -0.00601479      -0.00627478      -0.00790924       0.01589015
Ni      33.48190429      37.01077234      14.09234380       0.60000000      -0.00644413      -0.00764571      -0.00922229       0.01194631
Ni      31.71659091      35.24626424      17.61758153       0.60000000      -0.00573298      -0.00427029      -0.00281429       0.01203924
Ni      31.72140622      37.01457821      19.38343433       0.60000000      -0.00619122      -0.00385340      -0.00304695       0.00840398
Ni      33.48189106      35.24629398      19.38020057       0.60000000      -0.00566659      -0.00323728      -0.00291834       0.01211789
Ni      33.48414659      37.01262745      17.61984935       0.60000000      -0.00629001      -0.00588777      -0.00599702       0.00753733
Ni      31.71679438      35.24569278      21.14239529       0.60000000      -0.00552717       0.00047856       0.00120087       0.01381551
Ni      31.72316865      37.01438287      22.91080244       0.60000000      -0.00633988      -0.00310321       0.00187146       0.00616881
Ni      33.48226770      35.24632080      22.90668669       0.60000000      -0.00539240      -0.00355458      -0.00375500       0.00879182
Ni      33.48620862      37.01392728      21.14772493       0.60000000      -0.00645920      -0.00932974      -0.00773501       0.00452789
Ni      31.71707024      35.24448750      24.66727259       0.60000000      -0.00514002      -0.00333114       0.00026024       0.01196875
Ni      31.72352878      37.01449452      26.43695845       0.60000000      -0.00637149      -0.00695408      -0.01084268      -0.00278790
Ni      33.48253393      35.24527080      26.43198945       0.60000000      -0.00533641      -0.00926076      -0.00527412       0.00288805
Ni      33.48733754      37.01436802      24.67536103       0.60000000      -0.00646325      -0.01070946      -0.00929447      -0.00349036
Ni      31.71503639      35.24064779      28.18980563       0.60000000      -0.00501005       0.00102096       0.01137875       0.00992344
Ni      31.72042393      37.01076289      29.95812810       0.60000000      -0.00647716       0.01185011       0.00789224       0.01486155
Ni      33.48194607      35.24632388      29.95618634       0.60000000      -0.00552175      -0.00764301      -0.01773060       0.00202228
Ni      33.48654464      37.01252494      28.19961888       0.60000000      -0.00670109      -0.00497521      -0.00124348       0.00202297
Ni      31.71463616      35.24438441      31.71463616       0.60000000      -0.00531011       0.01153644      -0.01482711       0.01153644
Ni      31.72340570      37.01350116      33.48528555       0.60000000      -0.00662143      -0.00529609      -0.02001880      -0.00602930
Ni      33.47994500      35.24445794      33.47994500       0.60000000      -0.00600888       0.00314873      -0.00704671       0.00314873
Ni      33.48528555      37.01350116      31.72340570       0.60000000      -0.00662143      -0.00602930      -0.02001880      -0.00529609
Ni      31.72291711      35.24715555      35.24715555       0.60000000      -0.00614122      -0.01024089      -0.01183627      -0.01183627
Ni      31.72829289      37.01348435      37.01348435       0.60000000      -0.00732323      -0.01681564      -0.01112333      -0.01112333
Ni      33.48733264      35.24833198      37.01199829       0.60000000      -0.00705773      -0.01148557      -0.00768591      -0.01203142
Ni      33.48733264      37.01199829      35.24833198       0.60000000      -0.00705773      -0.01148557      -0.01203142      -0.00768591
Ni      31.72815237      35.25314102      38.77845031       0.60000000      -0.00938290      -0.00967706      -0.01965307      -0.02256081
Ni      31.72539846      37.01264735      40.53775073       0.60000000      -0.00687875      -0.01928897      -0.00918948      -0.10357402
Ni      33.48817307      35.25059283      40.53818830       0.60000000      -0.00666686      -0.01680258      -0.01329489      -0.10546060
Ni      33.48861674      37.01352113      38.77606039       0.60000000      -0.00933276      -0.00095205      -0.01288863      -0.01066242
Ni      31.71631758      38.76816076      -0.00727050       0.60000000      -0.00821467       0.02787668       0.02927448       0.10846803
Ni      31.71625378      40.53097400       1.75542234       0.60000000      -0.00885690       0.02215760      -0.07559136      -0.01224557
Ni      33.47905776      38.76806371       1.75514647       0.60000000      -0.01025838       0.00042474       0.00392065      -0.00491405
Ni      33.47885922      40.52995630      -0.00596077       0.60000000      -0.00692720       0.04197035      -0.04529648       0.08839679
Ni      31.71625137      38.76926071       3.51634524       0.60000000      -0.00871905       0.00087690      -0.00047471       0.00616927
Ni      31.71635635      40.53226818       5.27951213       0.60000000      -0.00686929       0.02728108      -0.09350103      -0.00932445
Ni      33.47932669      38.76913583       5.27920764       0.60000000      -0.00855692      -0.00197703      -0.00482596       0.00780151
Ni      33.47905776      40.53093013       3.51801289       0.60000000      -0.00714517       0.02234595      -0.07830291      -0.00799197
Ni      31.71639569      38.77075113       7.04060487       0.60000000      -0.00869137      -0.00236887      -0.00608674       0.01044531
Ni      31.71687203      40.53396925       8.80442094       0.60000000      -0.00652707       0.03119081      -0.11555083      -0.01375321
Ni      33.48005060      38.77067418       8.80419396       0.60000000      -0.00864893      -0.00623043      -0.00417137       0.00628265
Ni      33.47952554      40.53222137       7.04257540       0.60000000      -0.00678411       0.02613288      -0.09597998      -0.01136172
Ni      31.71729649      38.77287934      10.56621195       0.60000000      -0.00879252      -0.00460026      -0.00273043       0.00674655
Ni      31.71827908      40.53620397      12.33064441       0.60000000      -0.00623591       0.03131173      -0.14018645      -0.02115919
Ni      33.48179461      38.77298673      12.33075322       0.60000000      -0.00874765      -0.00626574      -0.00057456      -0.00143194
Ni      33.48058009      40.53396925      10.56812900       0.60000000      -0.00656762       0.02767967      -0.11698347      -0.01720286
Ni      31.71980506      38.77596228      14.09394544       0.60000000      -0.00893121      -0.00962809      -0.00624612      -0.00170166
Ni      31.72091070      40.53893643      15.85835722       0.60000000      -0.00577234       0.02563515      -0.16159633      -0.03076519
Ni      33.48495605      38.77619334      15.85912902       0.60000000      -0.00902420      -0.01378320      -0.01069139      -0.01018741
Ni      33.48255503      40.53626087      14.09496941       0.60000000      -0.00629491       0.02528168      -0.13772322      -0.02561421
Ni      31.72407103      38.77980450      17.62359987       0.60000000      -0.00921467      -0.02076394      -0.02184456      -0.01614357
Ni      31.72429996      40.54164531      19.38685803       0.60000000      -0.00533181       0.01467982      -0.17393395      -0.03824931
Ni      33.48886363      38.77959834      19.38834311       0.60000000      -0.00928008      -0.02219264      -0.02475153      -0.01937977
Ni      33.48535049      40.53885208      17.62282448       0.60000000      -0.00589584       0.01851907      -0.15272417      -0.03392550
Ni      31.72858951      38.78315590      21.15336239       0.60000000      -0.00943638      -0.02955517      -0.03742794      -0.02618416
Ni      31.72724128      40.54343786      22.91482793       0.60000000      -0.00502167       0.00124750      -0.17418007      -0.03937598
Ni      33.49199435      38.78192903      22.91669171       0.60000000      -0.00955037      -0.03083829      -0.03871771      -0.02381853
Ni      33.48816942      40.54103993      21.15072157       0.60000000      -0.00559745       0.00851350      -0.15855444      -0.03798213
Ni      31.73146869      38.78465781      24.68133286       0.60000000      -0.00964470      -0.04031658      -0.05335598      -0.03357897
Ni      31.72873845      40.54370073      26.44130136       0.60000000      -0.00513100      -0.01074240      -0.16396372      -0.03368221
Ni      33.49329621      38.78240545      26.44313515       0.60000000      -0.00955749      -0.03119580      -0.04255702      -0.02336682
Ni      33.49004278      40.54209299      24.67762864       0.60000000      -0.00553973      -0.00231564      -0.15452635      -0.03579833
Ni      31.73197335      38.78393592      28.20690210       0.60000000      -0.00935659      -0.03678897      -0.05022342      -0.03346381
Ni      31.72859560      40.54247145      29.96612421       0.60000000      -0.00537943      -0.01824733      -0.14536801      -0.02465347
Ni      33.49272815      38.78113266      29.96767821       0.60000000      -0.00964796      -0.03671183      -0.04657579      -0.02877957
Ni      33.49050538      40.54175103      28.20309226       0.60000000      -0.00566661      -0.01100295      -0.14182664      -0.02899277
Ni      31.73055193      38.78155676      31.73055193       0.60000000      -0.00956861      -0.04008721      -0.05210030      -0.04008721
Ni      31.72726470      40.54027556      33.48971577       0.60000000      -0.00617421      -0.02051188      -0.12470260      -0.01573230
Ni      33.49091454      38.77877011      33.49091454       0.60000000      -0.00923814      -0.02038986      -0.02598160      -0.02038986
Ni      33.48971577      40.54027556      31.72726470       0.60000000      -0.00617421      -0.01573230      -0.12470260      -0.02051188
Ni      31.72815237      38.77845031      35.25314102       0.60000000      -0.00938290      -0.00967706      -0.02256081      -0.01965307
Ni      31.72539846      40.53775073      37.01264735       0.60000000      -0.00687875      -0.01928897      -0.10357402      -0.00918948
Ni      33.48861674      38.77606039      37.01352113       0.60000000      -0.00933276      -0.00095205      -0.01066242      -0.01288863
Ni      33.48817307      40.53818830      35.25059283       0.60000000      -0.00666686      -0.01680258      -0.10546060      -0.01329489
Ni      31.72560520      38.77538780      38.77538780       0.60000000      -0.01119524       0.00066393       0.00043921       0.00043921
Ni      31.72350789      40.53536459      40.53536459       0.60000000      -0.00688453      -0.03486964      -0.08498877      -0.08498877
Ni      33.48638751      38.77352397      40.53598327       0.60000000      -0.00864433      -0.01565514      -0.00322331      -0.08785805
Ni      33.48638751      40.53598327      38.77352397       0.60000000      -0.00864433      -0.01565514      -0.08785805      -0.00322331
Ni      35.24603691      -0.00606747      -0.00606747       0.60000000      -0.00714780      -0.02086433       0.06722981       0.06722981
Ni      35.24742346       1.75507637       1.75507637       0.60000000      -0.00979355       0.00012922      -0.00422560      -0.00422560
Ni      37.00854969      -0.00624006       1.75608438       0.60000000      -0.00850502      -0.00889508       0.05218651      -0.00512611
Ni      37.00854969       1.75608438      -0.00624006       0.60000000      -0.00850502      -0.00889508      -0.00512611       0.05218651
Ni      35.24730776      -0.00724558       3.51751927       0.60000000      -0.00741660      -0.01099439       0.06219143      -0.00228525
Ni      35.24904254       1.75369884       5.27858840       0.60000000      -0.00872900       0.00035043      -0.00630281      -0.00087807
Ni      37.00973285      -0.00731998       5.27978946       0.60000000      -0.00742436      -0.00918920       0.06189250      -0.00027654
Ni      37.00997444       1.75492776       3.51730198       0.60000000      -0.00872692       0.00047403      -0.00454421      -0.00081351
Ni      35.24857066      -0.00850336       7.04124175       0.60000000      -0.00733304      -0.01130858       0.07388116      -0.00025948
Ni      35.25059283       1.75225763       8.80227286       0.60000000      -0.00891851       0.00054074      -0.00798340      -0.00074667
Ni      37.01079724      -0.00840995       8.80366017       0.60000000      -0.00735261      -0.00810718       0.07311855       0.00265004
Ni      37.01142507       1.75369884       7.04097092       0.60000000      -0.00876101       0.00064844      -0.00633272      -0.00071340
Ni      35.24958393      -0.00974401      10.56518312       0.60000000      -0.00722733      -0.00921022       0.08780648       0.00390316
Ni      35.25170586       1.75088775      12.32623443       0.60000000      -0.00923810       0.00074668      -0.00944352      -0.00039331
Ni      37.01150144      -0.00940452      12.32777423       0.60000000      -0.00725936      -0.00430866       0.08666330       0.00773863
Ni      37.01264735       1.75249801      10.56485029       0.60000000      -0.00900517       0.00086180      -0.00763853      -0.00051132
Ni      35.25003490      -0.01082978      14.08943857       0.60000000      -0.00709285      -0.00321370       0.10467884       0.01093283
Ni      35.25194501       1.74976995      15.85059730       0.60000000      -0.00950368       0.00092185      -0.01084539       0.00031320
Ni      37.01159321      -0.01017177      15.85221407       0.60000000      -0.00713687       0.00284182       0.10253361       0.01502924
Ni      37.01329866       1.75146518      14.08903852       0.60000000      -0.00925457       0.00104714      -0.00892665      -0.00002248
Ni      35.24965745      -0.01159394      17.61410568       0.60000000      -0.00691796       0.00682538       0.12373724       0.02034218
Ni      35.25101357       1.74911248      19.37549479       0.60000000      -0.00969016       0.00097568      -0.01145591       0.00121846
Ni      37.01093025      -0.01057167      19.37705048       0.60000000      -0.00698250       0.01229314       0.11861351       0.02331005
Ni      37.01306642       1.75076510      17.61364298       0.60000000      -0.00945321       0.00112862      -0.00984489       0.00072665
Ni      35.24840515      -0.01186636      21.13925501       0.60000000      -0.00671523       0.01849647       0.14096536       0.02982250
Ni      35.24901134       1.74911682      22.90101778       0.60000000      -0.00977718       0.00083257      -0.01062370       0.00189590
Ni      37.00960229      -0.01048748      22.90230547       0.60000000      -0.00683056       0.02137409       0.13053523       0.03022560
Ni      37.01185663       1.75056136      21.13875410       0.60000000      -0.00956935       0.00100973      -0.00983678       0.00147082
Ni      35.24656573      -0.01152197      24.66486809       0.60000000      -0.00656171       0.02804536       0.15047101       0.03621336
Ni      35.24652783       1.74990174      26.42710282       0.60000000      -0.00968308       0.00052187      -0.00884041       0.00190651
Ni      37.00794746      -0.00987487      26.42789780       0.60000000      -0.00675043       0.02743087       0.13409158       0.03360649
Ni      37.00994034       1.75097144      24.66438032       0.60000000      -0.00957835       0.00067978      -0.00871266       0.00179712
Ni      35.24466464      -0.01055799      28.19076900       0.60000000      -0.00654634       0.03283583       0.14841188       0.03764322
Ni      35.24433515       1.75137714      29.95343156       0.60000000      -0.00943962       0.00022770      -0.00721214       0.00124501
Ni      37.00638770      -0.00881385      29.95361541       0.60000000      -0.00678699       0.02932642       0.12791576       0.03285606
Ni      37.00788098       1.75199165      28.19036104       0.60000000      -0.00942957       0.00027551      -0.00724696       0.00148940
Ni      35.24315180      -0.00914984      31.71663814       0.60000000      -0.00667989       0.03262032       0.13548874       0.03457573
Ni      35.24285188       1.75320590      33.47952554       0.60000000      -0.00915426       0.00012547      -0.00623116       0.00042961
Ni      37.00518908      -0.00750517      33.47917958       0.60000000      -0.00691937       0.02766949       0.11415544       0.02904747
Ni      37.00619123       1.75343518      31.71635635       0.60000000      -0.00920085       0.00003464      -0.00608600       0.00078064
Ni      35.24216241      -0.00758746      35.24216241       0.60000000      -0.00689189       0.02899382       0.11614551       0.02899382
Ni      35.24200685       1.75499752      37.00504030       0.60000000      -0.00895721       0.00014834      -0.00535165      -0.00000101
Ni      37.00438006      -0.00617799      37.00438006       0.60000000      -0.00708909       0.02395125       0.09679420       0.02395125
Ni      37.00504030       1.75499752      35.24200685       0.60000000      -0.00895721      -0.00000101      -0.00535165       0.00014834
Ni      35.24158385      -0.00612198      38.76719300       0.60000000      -0.00816835       0.02401130       0.09528320       0.02650371
Ni      35.24154647       1.75652179      40.52991971       0.60000000      -0.00872790       0.01821625      -0.01157601      -0.06564167
Ni      37.00385845      -0.00498985      40.52915405       0.60000000      -0.00708571       0.03525990       0.07573983      -0.03834300
Ni      37.00431885       1.75642573      38.76713081       0.60000000      -0.00987870       0.00006102      -0.00434282       0.00337540
Ni      35.24730776       3.51751927      -0.00724558       0.60000000      -0.00741660      -0.01099439      -0.00228525       0.06219143
Ni      35.24904254       5.27858840       1.75369884       0.60000000      -0.00872900       0.00035043      -0.00087807      -0.00630281
Ni      37.00997444       3.51730198       1.75492776       0.60000000      -0.00872692       0.00047403      -0.00081351      -0.00454421
Ni      37.00973285       5.27978946      -0.00731998       0.60000000      -0.00742436      -0.00918920      -0.00027654       0.06189250
Ni      35.24920796       3.51606654       3.51606654       0.60000000      -0.00769785       0.00099387       0.00645060       0.00645060
Ni      35.24828536       5.27951107       5.27951107       0.60000000      -0.00778008       0.00635404      -0.00359639      -0.00359639
Ni      37.01176291       3.51596988       5.27839894       0.60000000      -0.00776254      -0.00769508       0.01352746       0.00522287
Ni      37.01176291       5.27839894       3.51596988       0.60000000      -0.00776254      -0.00769508       0.00522287       0.01352746
Ni      35.25126999       3.51446497       7.03949175       0.60000000      -0.00761346      -0.01398188       0.01990679       0.00706046
Ni      35.24916049       5.27862639       8.80250415       0.60000000      -0.00753622       0.00556958      -0.00419113      -0.00229657
Ni      37.01352113       3.51458977       8.80203342       0.60000000      -0.00770664      -0.01118389       0.01582098       0.00336769
Ni      37.01126898       5.27931737       7.04132911       0.60000000      -0.00766565       0.00411242      -0.00399465      -0.00433428
Ni      35.25314102       3.51283694      10.56313487       0.60000000      -0.00759533      -0.01462985       0.01881273       0.00282042
Ni      35.25114714       5.27660344      12.32450891       0.60000000      -0.00752740       0.00303105      -0.00168806      -0.00015691
Ni      37.01486636       3.51330138      12.32593561       0.60000000      -0.00772730      -0.01080130       0.01620673       0.00151728
Ni      37.01308788       5.27794612      10.56394233       0.60000000      -0.00778534       0.00387660      -0.00373817      -0.00230726
Ni      35.25426657       3.51136668      14.08712818       0.60000000      -0.00758857      -0.01400412       0.01924744       0.00176912
Ni      35.25156001       5.27533055      15.84843346       0.60000000      -0.00749965       0.00373865      -0.00156067       0.00045990
Ni      37.01532714       3.51228585      15.85023291       0.60000000      -0.00771072      -0.01167096       0.01831295       0.00167634
Ni      37.01407245       5.27674571      14.08734169       0.60000000      -0.00781682       0.00324168      -0.00298121      -0.00013468
Ni      35.25406254       3.51028488      17.61164051       0.60000000      -0.00752740      -0.01437787       0.02202329       0.00430113
Ni      35.25087545       5.27469330      19.37420470       0.60000000      -0.00731620       0.00323614      -0.00254241       0.00050260
Ni      37.01455198       3.51174259      19.37507021       0.60000000      -0.00762717      -0.01165378       0.01987824       0.00343205
Ni      37.01387142       5.27605722      17.61181443       0.60000000      -0.00775243       0.00322663      -0.00236449       0.00103954
Ni      35.25226324       3.50984576      21.13686295       0.60000000      -0.00739615      -0.01278211       0.02272422       0.00794336
Ni      35.24901113       5.27437516      22.90112164       0.60000000      -0.00711786       0.00138026      -0.00083876      -0.00232792
Ni      37.01258604       3.51185449      22.90056281       0.60000000      -0.00746473      -0.00994002       0.01815847       0.00510179
Ni      37.01260645       5.27585264      21.13761058       0.60000000      -0.00755994       0.00286797      -0.00305568       0.00011379
Ni      35.24927912       3.51028344      24.66290959       0.60000000      -0.00718568      -0.01062563       0.02017119       0.00989755
Ni      35.24595318       5.27524088      26.42752507       0.60000000      -0.00696223       0.00058843      -0.00195006      -0.00353504
Ni      37.01000857       3.51272013      26.42667823       0.60000000      -0.00728583      -0.00882178       0.01557007       0.00553976
Ni      37.01053639       5.27596172      24.66411694       0.60000000      -0.00732770       0.00131109      -0.00133424      -0.00133303
Ni      35.24616966       3.51167777      28.18961144       0.60000000      -0.00699068      -0.00969233       0.01783271       0.00557547
Ni      35.24287479       5.27725897      29.95262536       0.60000000      -0.00691926       0.00140928      -0.00268535      -0.00050225
Ni      37.00764503       3.51423386      29.95310553       0.60000000      -0.00713677      -0.00862319       0.01355761       0.00183693
Ni      37.00783046       5.27718886      28.19036012       0.60000000      -0.00713753       0.00133048      -0.00162648      -0.00232671
Ni      35.24389403       3.51374776      31.71639569       0.60000000      -0.00696609      -0.00972699       0.01754290      -0.00281672
Ni      35.24086264       5.27938897      33.47749647       0.60000000      -0.00697635       0.00269504      -0.00130322       0.00319326
Ni      37.00597386       3.51604567      33.47932669       0.60000000      -0.00713305      -0.00794922       0.01241416      -0.00244693
Ni      37.00582130       5.27884355      31.71584917       0.60000000      -0.00708688      -0.00111506       0.00029753      -0.00194372
Ni      35.24260688       3.51593862      35.24260688       0.60000000      -0.00707938      -0.00704794       0.01537890      -0.00704794
Ni      35.24115631       5.28059391      37.00426847       0.60000000      -0.00716753       0.00055249      -0.00043995       0.00094021
Ni      37.00494712       3.51776639      37.00494712       0.60000000      -0.00728098      -0.00430145       0.00940767      -0.00430145
Ni      37.00426847       5.28059391      35.24115631       0.60000000      -0.00716753       0.00094021      -0.00043995       0.00055249
Ni      35.24194822       3.51783047      38.76797487       0.60000000      -0.00852486       0.00029382       0.00552748      -0.00076049
Ni      35.24200685       5.28085096      40.53089373       0.60000000      -0.00699975       0.02152278      -0.00941883      -0.07973663
Ni      37.00431885       3.51918764      40.52989272       0.60000000      -0.00725206       0.01765713      -0.00791538      -0.06678566
Ni      37.00494712       5.28075828      38.76793901       0.60000000      -0.00848482      -0.00448377       0.00414801      -0.00378559
Ni      35.24857066       7.04124175      -0.00850336       0.60000000      -0.00733304      -0.01130858      -0.00025948       0.07388116
Ni      35.25059283       8.80227286       1.75225763       0.60000000      -0.00891851       0.00054074      -0.00074667      -0.00798340
Ni      37.01142507       7.04097092       1.75369884       0.60000000      -0.00876101       0.00064844      -0.00071340      -0.00633272
Ni      37.01079724       8.80366017      -0.00840995       0.60000000      -0.00735261      -0.00810718       0.00265004       0.07311855
Ni      35.25126999       7.03949175       3.51446497       0.60000000      -0.00761346      -0.01398188       0.00706046       0.01990679
Ni      35.24916049       8.80250415       5.27862639       0.60000000      -0.00753622       0.00556958      -0.00229657      -0.00419113
Ni      37.01126898       7.04132911       5.27931737       0.60000000      -0.00766565       0.00411242      -0.00433428      -0.00399465
Ni      37.01352113       8.80203342       3.51458977       0.60000000      -0.00770664      -0.01118389       0.00336769       0.01582098
Ni      35.24745259       7.04246215       7.04246215       0.60000000      -0.00701256       0.00748539      -0.00501637      -0.00501637
Ni      35.24928341       8.80375429       8.80375429       0.60000000      -0.00705966       0.00179762      -0.00319887      -0.00319887
Ni      37.01307348       7.04106868       8.80279010       0.60000000      -0.00746324       0.00285782      -0.00459659      -0.00358065
Ni      37.01307348       8.80279010       7.04106868       0.60000000      -0.00746324       0.00285782      -0.00358065      -0.00459659
Ni      35.24953315       7.04120248      10.56386094       0.60000000      -0.00708923       0.00317711      -0.00379683      -0.00190084
Ni      35.25077018       8.80223677      12.32416444       0.60000000      -0.00703552       0.00196970      -0.00182745       0.00148090
Ni      37.01477431       7.03949944      12.32515636       0.60000000      -0.00752702       0.00267131      -0.00301182      -0.00201418
Ni      37.01556874       8.80197931      10.56367244       0.60000000      -0.00756030       0.00186717      -0.00313416      -0.00174793
Ni      35.25039509       7.03919469      14.08532999       0.60000000      -0.00704286       0.00510421      -0.00298646       0.00017275
Ni      35.25165313       8.79982608      15.84594645       0.60000000      -0.00685660      -0.00057132       0.00225254       0.00462218
Ni      37.01537675       7.03828593      15.84840792       0.60000000      -0.00746713       0.00154729      -0.00199878       0.00076341
Ni      37.01730362       8.80019789      14.08557639       0.60000000      -0.00747133      -0.00225177      -0.00004479       0.00303146
Ni      35.25046820       7.03803584      17.61003525       0.60000000      -0.00685906       0.00446698      -0.00235401       0.00161219
Ni      35.25149464       8.79913915      19.37260297       0.60000000      -0.00664296      -0.00218070       0.00195034       0.00085828
Ni      37.01458251       7.03776579      19.37373308       0.60000000      -0.00731550       0.00210826      -0.00049986       0.00212250
Ni      37.01721378       8.79892423      17.60976674       0.60000000      -0.00737223      -0.00167663       0.00348509       0.00285429
Ni      35.24962330       7.03756361      21.13755720       0.60000000      -0.00663333       0.00210105      -0.00022056      -0.00138217
Ni      35.24988875       8.79992122      22.90051477       0.60000000      -0.00647934      -0.00380820       0.00361648      -0.00345654
Ni      37.01286504       7.03794004      22.90066077       0.60000000      -0.00707825       0.00120895      -0.00025380      -0.00087577
Ni      37.01596438       8.79916761      21.13641126       0.60000000      -0.00716135      -0.00163056       0.00183856       0.00005521
Ni      35.24734303       7.03824155      24.66477030       0.60000000      -0.00653749      -0.00006165       0.00008943      -0.00436947
Ni      35.24625900       8.80270519      26.42639296       0.60000000      -0.00649545      -0.00185182       0.00065304      -0.00271140
Ni      37.01011885       7.03902725      26.42736744       0.60000000      -0.00690560       0.00028697       0.00081951      -0.00312562
Ni      37.01327609       8.80043878      24.66358800       0.60000000      -0.00690766      -0.00136620       0.00262897      -0.00276691
Ni      35.24361179       7.04053332      28.18966837       0.60000000      -0.00653598       0.00239009      -0.00219650      -0.00189259
Ni      35.24253696       8.80566523      29.95070159       0.60000000      -0.00645893       0.00203174      -0.00177422       0.00265859
Ni      37.00699525       7.04125805      29.95258161       0.60000000      -0.00688280       0.00206089      -0.00096422      -0.00067637
Ni      37.00976479       8.80310276      28.18925845       0.60000000      -0.00682088      -0.00049124       0.00073936      -0.00031769
Ni      35.24105888       7.04267389      31.71383423       0.60000000      -0.00659061       0.00251638      -0.00210753       0.00336202
Ni      35.24134947       8.80622820      33.47716679       0.60000000      -0.00655460      -0.00090129       0.00065525       0.00111834
Ni      37.00522890       7.04286201      33.47786782       0.60000000      -0.00692215      -0.00033906      -0.00082389       0.00176030
Ni      37.00677624       8.80512123      31.71474959       0.60000000      -0.00682656       0.00162171      -0.00074707       0.00257632
Ni      35.24029153       7.04366796      35.24029153       0.60000000      -0.00666110       0.00283594      -0.00228631       0.00283594
Ni      35.24189672       8.80545737      37.00580970       0.60000000      -0.00686502       0.00002839       0.00017775      -0.00163432
Ni      37.00452355       7.04334536      37.00452355       0.60000000      -0.00708928       0.00121316      -0.00053328       0.00121316
Ni      37.00580970       8.80545737      35.24189672       0.60000000      -0.00686502      -0.00163432       0.00017775       0.00002839
Ni      35.24260688       7.04241459      38.76908285       0.60000000      -0.00849506      -0.00564031       0.00482769      -0.00484912
Ni      35.24285188       8.80590174      40.53222137       0.60000000      -0.00681794       0.02362433      -0.01382593      -0.09697178
Ni      37.00504030       7.04388441      40.53089373       0.60000000      -0.00701217       0.01983102      -0.01114824      -0.08035552
Ni      37.00597386       8.80585481      38.76913583       0.60000000      -0.00854467      -0.00508758       0.00038117      -0.00124429
Ni      35.24958393      10.56518312      -0.00974401       0.60000000      -0.00722733      -0.00921022       0.00390316       0.08780648
Ni      35.25170586      12.32623443       1.75088775       0.60000000      -0.00923810       0.00074668      -0.00039331      -0.00944352
Ni      37.01264735      10.56485029       1.75249801       0.60000000      -0.00900517       0.00086180      -0.00051132      -0.00763853
Ni      37.01150144      12.32777423      -0.00940452       0.60000000      -0.00725936      -0.00430866       0.00773863       0.08666330
Ni      35.25314102      10.56313487       3.51283694       0.60000000      -0.00759533      -0.01462985       0.00282042       0.01881273
Ni      35.25114714      12.32450891       5.27660344       0.60000000      -0.00752740       0.00303105      -0.00015691      -0.00168806
Ni      37.01308788      10.56394233       5.27794612       0.60000000      -0.00778534       0.00387660      -0.00230726      -0.00373817
Ni      37.01486636      12.32593561       3.51330138       0.60000000      -0.00772730      -0.01080130       0.00151728       0.01620673
Ni      35.24953315      10.56386094       7.04120248       0.60000000      -0.00708923       0.00317711      -0.00190084      -0.00379683
Ni      35.25077018      12.32416444       8.80223677       0.60000000      -0.00703552       0.00196970       0.00148090      -0.00182745
Ni      37.01556874      10.56367244       8.80197931       0.60000000      -0.00756030       0.00186717      -0.00174793      -0.00313416
Ni      37.01477431      12.32515636       7.03949944       0.60000000      -0.00752702       0.00267131      -0.00201418      -0.00301182
Ni      35.25105304      10.56425602      10.56425602       0.60000000      -0.00706960       0.00066627      -0.00157324      -0.00157324
Ni      35.25248014      12.32436396      12.32436396       0.60000000      -0.00689069      -0.00336927       0.00310141       0.00310141
Ni      37.01851553      10.56250401      12.32411720       0.60000000      -0.00747774      -0.00411551       0.00128629       0.00272110
Ni      37.01851553      12.32411720      10.56250401       0.60000000      -0.00747774      -0.00411551       0.00272110       0.00128629
Ni      35.25240590      10.56240746      14.08438051       0.60000000      -0.00691927      -0.00319872       0.00245728       0.00625055
Ni      35.25320777      12.32302353      15.84627608       0.60000000      -0.00663498      -0.00435418       0.00461083       0.00383401
Ni      37.01909706      10.56094947      15.84664184       0.60000000      -0.00739803      -0.00229088       0.00298283       0.00490607
Ni      37.01998240      12.32357278      14.08516493       0.60000000      -0.00737075      -0.00181673       0.00195398       0.00436170
Ni      35.25301775      10.56034492      17.60795777       0.60000000      -0.00668778      -0.00535587       0.00561174       0.00558636
Ni      35.25372001      12.32202206      19.37088599       0.60000000      -0.00641640      -0.00424143       0.00408349       0.00077936
Ni      37.01879043      10.56039108      19.37193054       0.60000000      -0.00720665      -0.00358956       0.00411724       0.00305201
Ni      37.02066796      12.32232722      17.60872428       0.60000000      -0.00721299      -0.00340240       0.00428766       0.00368940
Ni      35.25238553      10.56083595      21.13522814       0.60000000      -0.00649379      -0.00675861       0.00610057       0.00023022
Ni      35.25183254      12.32457774      22.89713411       0.60000000      -0.00625127      -0.00204727       0.00167218       0.00040588
Ni      37.01667742      10.56176369      22.89919270       0.60000000      -0.00693701      -0.00300160       0.00356184      -0.00109088
Ni      37.01950979      12.32315450      21.13486105       0.60000000      -0.00692373      -0.00076241       0.00228541       0.00181082
Ni      35.24916657      10.56391823      24.66184420       0.60000000      -0.00635748      -0.00250099       0.00250892       0.00040501
Ni      35.24808327      12.32916453      26.42351001       0.60000000      -0.00614261      -0.00068558      -0.00080370       0.00172924
Ni      37.01288914      10.56471413      26.42534733       0.60000000      -0.00675083      -0.00034215       0.00261259       0.00159211
Ni      37.01626108      12.32639716      24.66139817       0.60000000      -0.00672309       0.00031245      -0.00018178       0.00280176
Ni      35.24513204      10.56777979      28.18750407       0.60000000      -0.00630163       0.00046005      -0.00024109       0.00063486
Ni      35.24463603      12.33174898      29.95029259       0.60000000      -0.00619799      -0.00066360       0.00244312       0.00030271
Ni      37.00958872      10.56717239      29.95169236       0.60000000      -0.00665048      -0.00185601       0.00246137       0.00116864
Ni      37.01235505      12.32939177      28.18814187       0.60000000      -0.00652851       0.00131407       0.00210694       0.00383009
Ni      35.24268514      10.56900716      31.71393576       0.60000000      -0.00639025      -0.00137586       0.00329500      -0.00095943
Ni      35.24360862      12.33028460      33.47887856       0.60000000      -0.00642091      -0.00494365       0.00991607      -0.00362240
Ni      37.00757902      10.56756715      33.47925162       0.60000000      -0.00670590      -0.00243413       0.00313111      -0.00137976
Ni      37.01019336      12.32978383      31.71636593       0.60000000      -0.00645518      -0.00640961       0.00864919      -0.00309218
Ni      35.24269543      10.56777124      35.24269543       0.60000000      -0.00664334      -0.00375832       0.00484099      -0.00375832
Ni      35.24447520      12.32995171      37.00837742       0.60000000      -0.00668043      -0.00490172       0.00593629      -0.00397747
Ni      37.00677342      10.56789609      37.00677342       0.60000000      -0.00692498      -0.00236566       0.00210901      -0.00236566
Ni      37.00837742      12.32995171      35.24447520       0.60000000      -0.00668043      -0.00397747       0.00593629      -0.00490172
Ni      35.24389403      10.56810320      38.77075113       0.60000000      -0.00865056      -0.00565499       0.00027423      -0.00062888
Ni      35.24433515      12.33197012      40.53402454       0.60000000      -0.00664777       0.02312467      -0.02051295      -0.11538402
Ni      37.00619123      10.56934701      40.53226818       0.60000000      -0.00691294       0.02036644      -0.01621585      -0.09596271
Ni      37.00764503      12.33204788      38.77091956       0.60000000      -0.00875870      -0.00456767      -0.00266262       0.00034448
Ni      35.25003490      14.08943857      -0.01082978       0.60000000      -0.00709285      -0.00321370       0.01093283       0.10467884
Ni      35.25194501      15.85059730       1.74976995       0.60000000      -0.00950368       0.00092185       0.00031320      -0.01084539
Ni      37.01329866      14.08903852       1.75146518       0.60000000      -0.00925457       0.00104714      -0.00002248      -0.00892665
Ni      37.01159321      15.85221407      -0.01017177       0.60000000      -0.00713687       0.00284182       0.01502924       0.10253361
Ni      35.25426657      14.08712818       3.51136668       0.60000000      -0.00758857      -0.01400412       0.00176912       0.01924744
Ni      35.25156001      15.84843346       5.27533055       0.60000000      -0.00749965       0.00373865       0.00045990      -0.00156067
Ni      37.01407245      14.08734169       5.27674571       0.60000000      -0.00781682       0.00324168      -0.00013468      -0.00298121
Ni      37.01532714      15.85023291       3.51228585       0.60000000      -0.00771072      -0.01167096       0.00167634       0.01831295
Ni      35.25039509      14.08532999       7.03919469       0.60000000      -0.00704286       0.00510421       0.00017275      -0.00298646
Ni      35.25165313      15.84594645       8.79982608       0.60000000      -0.00685660      -0.00057132       0.00462218       0.00225254
Ni      37.01730362      14.08557639       8.80019789       0.60000000      -0.00747133      -0.00225177       0.00303146      -0.00004479
Ni      37.01537675      15.84840792       7.03828593       0.60000000      -0.00746713       0.00154729       0.00076341      -0.00199878
Ni      35.25240590      14.08438051      10.56240746       0.60000000      -0.00691927      -0.00319872       0.00625055       0.00245728
Ni      35.25320777      15.84627608      12.32302353       0.60000000      -0.00663498      -0.00435418       0.00383401       0.00461083
Ni      37.01998240      14.08516493      12.32357278       0.60000000      -0.00737075      -0.00181673       0.00436170       0.00195398
Ni      37.01909706      15.84664184      10.56094947       0.60000000      -0.00739803      -0.00229088       0.00490607       0.00298283
Ni      35.25289795      14.08552402      14.08552402       0.60000000      -0.00658878      -0.00243244       0.00270002       0.00270002
Ni      35.25397384      15.84726188      15.84726188       0.60000000      -0.00624079       0.00080162       0.00093490       0.00093490
Ni      37.02131225      14.08509769      15.84702298       0.60000000      -0.00720946      -0.00095105       0.00055047       0.00130303
Ni      37.02131225      15.84702298      14.08509769       0.60000000      -0.00720946      -0.00095105       0.00130303       0.00055047
Ni      35.25411730      14.08441095      17.60879620       0.60000000      -0.00628578      -0.00107778       0.00335562       0.00001661
Ni      35.25549284      15.84677859      19.37131653       0.60000000      -0.00610668       0.00134420       0.00138745      -0.00055386
Ni      37.02165636      14.08483988      19.37166652       0.60000000      -0.00697016      -0.00052240       0.00336289       0.00190251
Ni      37.02245543      15.84715862      17.60942323       0.60000000      -0.00700562       0.00198410       0.00319192       0.00177925
Ni      35.25410551      14.08486291      21.13350066       0.60000000      -0.00615328       0.00000062       0.00361297      -0.00129511
Ni      35.25429436      15.84953680      22.89633039       0.60000000      -0.00603123      -0.00115527       0.00026495       0.00435593
Ni      37.01974653      14.08780981      22.89821821       0.60000000      -0.00668896       0.00037424      -0.00226732      -0.00126954
Ni      37.02198831      15.84955747      21.13552116       0.60000000      -0.00678198       0.00343284      -0.00541208      -0.00296156
Ni      35.25088813      14.08961511      24.65922303       0.60000000      -0.00604724       0.00211581      -0.00229324       0.00441088
Ni      35.24963242      15.85510801      26.42238094       0.60000000      -0.00590341       0.00550630      -0.00631754       0.00687593
Ni      37.01546053      14.09135691      26.42490906       0.60000000      -0.00651342       0.00490364       0.00119889       0.00340455
Ni      37.01947452      15.85303032      24.66255947       0.60000000      -0.00653501       0.00108728      -0.00053469      -0.00108047
Ni      35.24690670      14.09409709      28.18641835       0.60000000      -0.00602507       0.00187152      -0.00287709       0.00197558
Ni      35.24589042      15.85686963      29.95032404       0.60000000      -0.00588832       0.00427645       0.00130982       0.00555543
Ni      37.01260088      14.09276854      29.95312239       0.60000000      -0.00632196      -0.00284387       0.00877795      -0.00181893
Ni      37.01524040      15.85575014      28.18992202       0.60000000      -0.00633506       0.00373711       0.00536421       0.00282129
Ni      35.24485634      14.09341934      31.71467439       0.60000000      -0.00618635      -0.00485768       0.00929582      -0.00156285
Ni      35.24581844      15.85413394      33.48095125       0.60000000      -0.00601479      -0.00790924       0.01589015      -0.00627478
Ni      37.01077234      14.09234380      33.48190429       0.60000000      -0.00644413      -0.00922229       0.01194631      -0.00764571
Ni      37.01260435      15.85582038      31.71852474       0.60000000      -0.00624357      -0.00386557       0.01194416      -0.00233786
Ni      35.24511909      14.09170555      35.24511909       0.60000000      -0.00633219      -0.00669936       0.01244226      -0.00669936
Ni      35.24687820      15.85652949      37.01099261       0.60000000      -0.00652297      -0.00766578       0.00725187      -0.00851773
Ni      37.00889403      14.09410653      37.00889403       0.60000000      -0.00686862      -0.00297842       0.00359329      -0.00297842
Ni      37.01099261      15.85652949      35.24687820       0.60000000      -0.00652297      -0.00851773       0.00725187      -0.00766578
Ni      35.24616966      14.09526283      38.77319650       0.60000000      -0.00884021      -0.00698142      -0.00676251      -0.00189656
Ni      35.24652783      15.85905166      40.53625274       0.60000000      -0.00640204       0.01936213      -0.02828171      -0.13120768
Ni      37.00788098      14.09568776      40.53405715       0.60000000      -0.00675417       0.01853595      -0.02267565      -0.11080704
Ni      37.01000857      15.85933568      38.77329378       0.60000000      -0.00901151      -0.00717307      -0.00660887      -0.00314344
Ni      35.24965745      17.61410568      -0.01159394       0.60000000      -0.00691796       0.00682538       0.02034218       0.12373724
Ni      35.25101357      19.37549479       1.74911248       0.60000000      -0.00969016       0.00097568       0.00121846      -0.01145591
Ni      37.01306642      17.61364298       1.75076510       0.60000000      -0.00945321       0.00112862       0.00072665      -0.00984489
Ni      37.01093025      19.37705048      -0.01057167       0.60000000      -0.00698250       0.01229314       0.02331005       0.11861351
Ni      35.25406254      17.61164051       3.51028488       0.60000000      -0.00752740      -0.01437787       0.00430113       0.02202329
Ni      35.25087545      19.37420470       5.27469330       0.60000000      -0.00731620       0.00323614       0.00050260      -0.00254241
Ni      37.01387142      17.61181443       5.27605722       0.60000000      -0.00775243       0.00322663       0.00103954      -0.00236449
Ni      37.01455198      19.37507021       3.51174259       0.60000000      -0.00762717      -0.01165378       0.00343205       0.01987824
Ni      35.25046820      17.61003525       7.03803584       0.60000000      -0.00685906       0.00446698       0.00161219      -0.00235401
Ni      35.25149464      19.37260297       8.79913915       0.60000000      -0.00664296      -0.00218070       0.00085828       0.00195034
Ni      37.01721378      17.60976674       8.79892423       0.60000000      -0.00737223      -0.00167663       0.00285429       0.00348509
Ni      37.01458251      19.37373308       7.03776579       0.60000000      -0.00731550       0.00210826       0.00212250      -0.00049986
Ni      35.25301775      17.60795777      10.56034492       0.60000000      -0.00668778      -0.00535587       0.00558636       0.00561174
Ni      35.25372001      19.37088599      12.32202206       0.60000000      -0.00641640      -0.00424143       0.00077936       0.00408349
Ni      37.02066796      17.60872428      12.32232722       0.60000000      -0.00721299      -0.00340240       0.00368940       0.00428766
Ni      37.01879043      19.37193054      10.56039108       0.60000000      -0.00720665      -0.00358956       0.00305201       0.00411724
Ni      35.25411730      17.60879620      14.08441095       0.60000000      -0.00628578      -0.00107778       0.00001661       0.00335562
Ni      35.25549284      19.37131653      15.84677859       0.60000000      -0.00610668       0.00134420      -0.00055386       0.00138745
Ni      37.02245543      17.60942323      15.84715862       0.60000000      -0.00700562       0.00198410       0.00177925       0.00319192
Ni      37.02165636      19.37166652      14.08483988       0.60000000      -0.00697016      -0.00052240       0.00190251       0.00336289
Ni      35.25570139      17.60943381      17.60943381       0.60000000      -0.00605579       0.00264120      -0.00011870      -0.00011870
Ni      35.25648512      19.37306465      19.37306465       0.60000000      -0.00593214       0.00188065       0.00016883       0.00016883
Ni      37.02283603      17.61137621      19.37326592       0.60000000      -0.00681114       0.00663964      -0.00401732      -0.00266462
Ni      37.02283603      19.37326592      17.61137621       0.60000000      -0.00681114       0.00663964      -0.00266462      -0.00401732
Ni      35.25621338      17.61087214      21.13489725       0.60000000      -0.00598963      -0.00116373       0.00126612       0.00042318
Ni      35.25527463      19.37672185      22.89883828       0.60000000      -0.00579018       0.00215360      -0.01278762      -0.00673241
Ni      37.02220789      17.61472662      22.90034300       0.60000000      -0.00660494       0.00220868      -0.00136232      -0.00149215
Ni      37.02325517      19.37614217      21.13803262       0.60000000      -0.00666837       0.00563298       0.00107457       0.00031587
Ni      35.25308483      17.61556019      24.65993718       0.60000000      -0.00582887       0.00378990      -0.00981301       0.00186364
Ni      35.25118081      19.37961182      26.42400115       0.60000000      -0.00581511       0.00376502      -0.00186471       0.00058375
Ni      37.01857846      17.61792436      26.42773479       0.60000000      -0.00634258       0.00648123       0.00762048       0.00358101
Ni      37.02157071      19.38001985      24.66556817       0.60000000      -0.00630923       0.00770583       0.00721908       0.00697194
Ni      35.24790768      17.61879088      28.18693622       0.60000000      -0.00575668       0.00972351      -0.00069425       0.00289782
Ni      35.24706791      19.38055366      29.95217278       0.60000000      -0.00565965       0.00297062       0.00772187       0.00034823
Ni      37.01496219      17.61949367      29.95552244       0.60000000      -0.00620986       0.00132844       0.01051870       0.00236258
Ni      37.01788093      19.38306138      28.19353970       0.60000000      -0.00620831       0.00436062       0.00584454       0.00161152
Ni      35.24626424      17.61758153      31.71659091       0.60000000      -0.00573298      -0.00281429       0.01203924      -0.00427029
Ni      35.24629398      19.38020057      33.48189106       0.60000000      -0.00566659      -0.00291834       0.01211789      -0.00323728
Ni      37.01262745      17.61984935      33.48414659       0.60000000      -0.00629001      -0.00599702       0.00753733      -0.00588777
Ni      37.01457821      19.38343433      31.72140622       0.60000000      -0.00619122      -0.00304695       0.00840398      -0.00385340
Ni      35.24711954      17.61790851      35.24711954       0.60000000      -0.00606499      -0.01113130       0.01220041      -0.01113130
Ni      35.24885461      19.38462055      37.01256822       0.60000000      -0.00653125      -0.00976519       0.00364994      -0.00819767
Ni      37.01130379      17.62173982      37.01130379       0.60000000      -0.00686021      -0.00704625       0.00310879      -0.00704625
Ni      37.01256822      19.38462055      35.24885461       0.60000000      -0.00653125      -0.00819767       0.00364994      -0.00976519
Ni      35.24927912      17.62355627      38.77618242       0.60000000      -0.00915506      -0.01410598      -0.01196931      -0.01262921
Ni      35.24901134      19.38657161      40.53847256       0.60000000      -0.00613067       0.01259670      -0.03393185      -0.14052097
Ni      37.00994034      17.62264563      40.53605451       0.60000000      -0.00659852       0.01428841      -0.02862327      -0.12195009
Ni      37.01258604      19.38706734      38.77577566       0.60000000      -0.00932740      -0.01229058      -0.00798875      -0.01081234
Ni      35.24840515      21.13925501      -0.01186636       0.60000000      -0.00671523       0.01849647       0.02982250       0.14096536
Ni      35.24901134      22.90101778       1.74911682       0.60000000      -0.00977718       0.00083257       0.00189590      -0.01062370
Ni      37.01185663      21.13875410       1.75056136       0.60000000      -0.00956935       0.00100973       0.00147082      -0.00983678
Ni      37.00960229      22.90230547      -0.01048748       0.60000000      -0.00683056       0.02137409       0.03022560       0.13053523
Ni      35.25226324      21.13686295       3.50984576       0.60000000      -0.00739615      -0.01278211       0.00794336       0.02272422
Ni      35.24901113      22.90112164       5.27437516       0.60000000      -0.00711786       0.00138026      -0.00232792      -0.00083876
Ni      37.01260645      21.13761058       5.27585264       0.60000000      -0.00755994       0.00286797       0.00011379      -0.00305568
Ni      37.01258604      22.90056281       3.51185449       0.60000000      -0.00746473      -0.00994002       0.00510179       0.01815847
Ni      35.24962330      21.13755720       7.03756361       0.60000000      -0.00663333       0.00210105      -0.00138217      -0.00022056
Ni      35.24988875      22.90051477       8.79992122       0.60000000      -0.00647934      -0.00380820      -0.00345654       0.00361648
Ni      37.01596438      21.13641126       8.79916761       0.60000000      -0.00716135      -0.00163056       0.00005521       0.00183856
Ni      37.01286504      22.90066077       7.03794004       0.60000000      -0.00707825       0.00120895      -0.00087577      -0.00025380
Ni      35.25238553      21.13522814      10.56083595       0.60000000      -0.00649379      -0.00675861       0.00023022       0.00610057
Ni      35.25183254      22.89713411      12.32457774       0.60000000      -0.00625127      -0.00204727       0.00040588       0.00167218
Ni      37.01950979      21.13486105      12.32315450       0.60000000      -0.00692373      -0.00076241       0.00181082       0.00228541
Ni      37.01667742      22.89919270      10.56176369       0.60000000      -0.00693701      -0.00300160      -0.00109088       0.00356184
Ni      35.25410551      21.13350066      14.08486291       0.60000000      -0.00615328       0.00000062      -0.00129511       0.00361297
Ni      35.25429436      22.89633039      15.84953680       0.60000000      -0.00603123      -0.00115527       0.00435593       0.00026495
Ni      37.02198831      21.13552116      15.84955747       0.60000000      -0.00678198       0.00343284      -0.00296156      -0.00541208
Ni      37.01974653      22.89821821      14.08780981       0.60000000      -0.00668896       0.00037424      -0.00126954      -0.00226732
Ni      35.25621338      21.13489725      17.61087214       0.60000000      -0.00598963      -0.00116373       0.00042318       0.00126612
Ni      35.25527463      22.89883828      19.37672185       0.60000000      -0.00579018       0.00215360      -0.00673241      -0.01278762
Ni      37.02325517      21.13803262      19.37614217       0.60000000      -0.00666837       0.00563298       0.00031587       0.00107457
Ni      37.02220789      22.90034300      17.61472662       0.60000000      -0.00660494       0.00220868      -0.00149215      -0.00136232
Ni      35.25606453      21.13786889      21.13786889       0.60000000      -0.00578642       0.00052616      -0.01075401      -0.01075401
Ni      35.25357745      22.90051278      22.90051278       0.60000000      -0.00596036      -0.00020608      -0.00085420      -0.00085420
Ni      37.02343937      21.14135642      22.90337753       0.60000000      -0.00625515       0.00684014       0.01188210       0.00878614
Ni      37.02343937      22.90337753      21.14135642       0.60000000      -0.00625515       0.00684014       0.00878614       0.01188210
Ni      35.25288640      21.14017857      24.66177220       0.60000000      -0.00579628       0.00255800      -0.00426771      -0.00050958
Ni      35.24968292      22.90203999      26.42494336       0.60000000      -0.00542660       0.00714047       0.01192781       0.00819959
Ni      37.02018970      21.14603376      26.43157591       0.60000000      -0.00616643       0.00925134       0.00057602       0.00196824
Ni      37.02173144      22.90782844      24.66944472       0.60000000      -0.00609194       0.00935155       0.00034053       0.00179598
Ni      35.24840975      21.14183613      28.18850081       0.60000000      -0.00547952       0.00766493       0.00655159       0.00164293
Ni      35.24501853      22.90413925      29.95173615       0.60000000      -0.00526295       0.00697025       0.00780744       0.00548969
Ni      37.01685986      21.14719703      29.95925775       0.60000000      -0.00617806      -0.00282412       0.00641075      -0.00446013
Ni      37.01892606      22.91029511      28.19698671       0.60000000      -0.00622065      -0.00454275       0.00090865      -0.00459886
Ni      35.24569278      21.14239529      31.71679438       0.60000000      -0.00552717       0.00120087       0.01381551       0.00047856
Ni      35.24632080      22.90668669      33.48226770       0.60000000      -0.00539240      -0.00375500       0.00879182      -0.00355458
Ni      37.01392728      21.14772493      33.48620862       0.60000000      -0.00645920      -0.00773501       0.00452789      -0.00932974
Ni      37.01438287      22.91080244      31.72316865       0.60000000      -0.00633988       0.00187146       0.00616881      -0.00310321
Ni      35.24765939      21.14586105      35.24765939       0.60000000      -0.00571544      -0.00670628       0.00400720      -0.00670628
Ni      35.25013239      22.91242914      37.01380847       0.60000000      -0.00659278      -0.01018367      -0.00037603      -0.00924061
Ni      37.01270125      21.14966661      37.01270125       0.60000000      -0.00707549      -0.00591574       0.00097539      -0.00591574
Ni      37.01380847      22.91242914      35.25013239       0.60000000      -0.00659278      -0.00924061      -0.00037603      -0.01018367
Ni      35.25226324      21.15179391      38.77881110       0.60000000      -0.00940701      -0.02039489      -0.01609769      -0.02322578
Ni      35.25101357      22.91363329      40.54001561       0.60000000      -0.00601870       0.00399764      -0.03477586      -0.14168953
Ni      37.01185663      21.14957869      40.53777143       0.60000000      -0.00647031       0.00806104      -0.03148627      -0.12674392
Ni      37.01455198      22.91425098      38.77757861       0.60000000      -0.00956324      -0.01545844      -0.01018389      -0.01553309
Ni      35.24656573      24.66486809      -0.01152197       0.60000000      -0.00656171       0.02804536       0.03621336       0.15047101
Ni      35.24652783      26.42710282       1.74990174       0.60000000      -0.00968308       0.00052187       0.00190651      -0.00884041
Ni      37.00994034      24.66438032       1.75097144       0.60000000      -0.00957835       0.00067978       0.00179712      -0.00871266
Ni      37.00794746      26.42789780      -0.00987487       0.60000000      -0.00675043       0.02743087       0.03360649       0.13409158
Ni      35.24927912      24.66290959       3.51028344       0.60000000      -0.00718568      -0.01062563       0.00989755       0.02017119
Ni      35.24595318      26.42752507       5.27524088       0.60000000      -0.00696223       0.00058843      -0.00353504      -0.00195006
Ni      37.01053639      24.66411694       5.27596172       0.60000000      -0.00732770       0.00131109      -0.00133303      -0.00133424
Ni      37.01000857      26.42667823       3.51272013       0.60000000      -0.00728583      -0.00882178       0.00553976       0.01557007
Ni      35.24734303      24.66477030       7.03824155       0.60000000      -0.00653749      -0.00006165      -0.00436947       0.00008943
Ni      35.24625900      26.42639296       8.80270519       0.60000000      -0.00649545      -0.00185182      -0.00271140       0.00065304
Ni      37.01327609      24.66358800       8.80043878       0.60000000      -0.00690766      -0.00136620      -0.00276691       0.00262897
Ni      37.01011885      26.42736744       7.03902725       0.60000000      -0.00690560       0.00028697      -0.00312562       0.00081951
Ni      35.24916657      24.66184420      10.56391823       0.60000000      -0.00635748      -0.00250099       0.00040501       0.00250892
Ni      35.24808327      26.42351001      12.32916453       0.60000000      -0.00614261      -0.00068558       0.00172924      -0.00080370
Ni      37.01626108      24.66139817      12.32639716       0.60000000      -0.00672309       0.00031245       0.00280176      -0.00018178
Ni      37.01288914      26.42534733      10.56471413       0.60000000      -0.00675083      -0.00034215       0.00159211       0.00261259
Ni      35.25088813      24.65922303      14.08961511       0.60000000      -0.00604724       0.00211581       0.00441088      -0.00229324
Ni      35.24963242      26.42238094      15.85510801       0.60000000      -0.00590341       0.00550630       0.00687593      -0.00631754
Ni      37.01947452      24.66255947      15.85303032       0.60000000      -0.00653501       0.00108728      -0.00108047      -0.00053469
Ni      37.01546053      26.42490906      14.09135691       0.60000000      -0.00651342       0.00490364       0.00340455       0.00119889
Ni      35.25308483      24.65993718      17.61556019       0.60000000      -0.00582887       0.00378990       0.00186364      -0.00981301
Ni      35.25118081      26.42400115      19.37961182       0.60000000      -0.00581511       0.00376502       0.00058375      -0.00186471
Ni      37.02157071      24.66556817      19.38001985       0.60000000      -0.00630923       0.00770583       0.00697194       0.00721908
Ni      37.01857846      26.42773479      17.61792436       0.60000000      -0.00634258       0.00648123       0.00358101       0.00762048
Ni      35.25288640      24.66177220      21.14017857       0.60000000      -0.00579628       0.00255800      -0.00050958      -0.00426771
Ni      35.24968292      26.42494336      22.90203999       0.60000000      -0.00542660       0.00714047       0.00819959       0.01192781
Ni      37.02173144      24.66944472      22.90782844       0.60000000      -0.00609194       0.00935155       0.00179598       0.00034053
Ni      37.02018970      26.43157591      21.14603376       0.60000000      -0.00616643       0.00925134       0.00196824       0.00057602
Ni      35.24989433      24.66303996      24.66303996       0.60000000      -0.00545475       0.00845286       0.00864719       0.00864719
Ni      35.24398603      26.42471051      26.42471051       0.60000000      -0.00516007       0.01027261       0.00642000       0.00642000
Ni      37.02033868      24.67213507      26.43434965       0.60000000      -0.00617994      -0.00735849       0.00010878      -0.00300505
Ni      37.02033868      26.43434965      24.67213507       0.60000000      -0.00617994      -0.00735849      -0.00300505       0.00010878
Ni      35.24448278      24.66452227      28.18739948       0.60000000      -0.00514577       0.00851430       0.00219856       0.00462115
Ni      35.24273376      26.42704635      29.95117410       0.60000000      -0.00499550       0.00260746       0.00916789       0.00459747
Ni      37.01441322      24.67270921      29.95977254       0.60000000      -0.00623681       0.01259428       0.01221606       0.00447621
Ni      37.01471262      26.43389189      28.19611077       0.60000000      -0.00614536       0.01652175       0.01473082       0.01238041
Ni      35.24448750      24.66727259      31.71707024       0.60000000      -0.00514002       0.00026024       0.01196875      -0.00333114
Ni      35.24527080      26.43198945      33.48253393       0.60000000      -0.00533641      -0.00527412       0.00288805      -0.00926076
Ni      37.01436802      24.67536103      33.48733754       0.60000000      -0.00646325      -0.00929447      -0.00349036      -0.01070946
Ni      37.01449452      26.43695845      31.72352878       0.60000000      -0.00637149      -0.01084268      -0.00278790      -0.00695408
Ni      35.24839629      24.67236193      35.24839629       0.60000000      -0.00568927      -0.01342238       0.00157384      -0.01342238
Ni      35.25124512      26.43895888      37.01410401       0.60000000      -0.00667184      -0.01400136      -0.00421454      -0.01010356
Ni      37.01422054      24.67641167      37.01422054       0.60000000      -0.00716645      -0.01086001      -0.00074008      -0.01086001
Ni      37.01410401      26.43895888      35.25124512       0.60000000      -0.00667184      -0.01010356      -0.00421454      -0.01400136
Ni      35.25406254      24.67880634      38.78016197       0.60000000      -0.00959725      -0.02328804      -0.01651632      -0.02905478
Ni      35.25194501      26.43960112      40.54042847       0.60000000      -0.00609946      -0.00432241      -0.03076805      -0.13479564
Ni      37.01306642      24.67583082      40.53870870       0.60000000      -0.00652223       0.00103928      -0.03014276      -0.12470908
Ni      37.01532714      26.44022528      38.77817234       0.60000000      -0.00968992      -0.01496675      -0.00834986      -0.01627456
Ni      35.24466464      28.19076900      -0.01055799       0.60000000      -0.00654634       0.03283583       0.03764322       0.14841188
Ni      35.24433515      29.95343156       1.75137714       0.60000000      -0.00943962       0.00022770       0.00124501      -0.00721214
Ni      37.00788098      28.19036104       1.75199165       0.60000000      -0.00942957       0.00027551       0.00148940      -0.00724696
Ni      37.00638770      29.95361541      -0.00881385       0.60000000      -0.00678699       0.02932642       0.03285606       0.12791576
Ni      35.24616966      28.18961144       3.51167777       0.60000000      -0.00699068      -0.00969233       0.00557547       0.01783271
Ni      35.24287479      29.95262536       5.27725897       0.60000000      -0.00691926       0.00140928      -0.00050225      -0.00268535
Ni      37.00783046      28.19036012       5.27718886       0.60000000      -0.00713753       0.00133048      -0.00232671      -0.00162648
Ni      37.00764503      29.95310553       3.51423386       0.60000000      -0.00713677      -0.00862319       0.00183693       0.01355761
Ni      35.24361179      28.18966837       7.04053332       0.60000000      -0.00653598       0.00239009      -0.00189259      -0.00219650
Ni      35.24253696      29.95070159       8.80566523       0.60000000      -0.00645893       0.00203174       0.00265859      -0.00177422
Ni      37.00976479      28.18925845       8.80310276       0.60000000      -0.00682088      -0.00049124      -0.00031769       0.00073936
Ni      37.00699525      29.95258161       7.04125805       0.60000000      -0.00688280       0.00206089      -0.00067637      -0.00096422
Ni      35.24513204      28.18750407      10.56777979       0.60000000      -0.00630163       0.00046005       0.00063486      -0.00024109
Ni      35.24463603      29.95029259      12.33174898       0.60000000      -0.00619799      -0.00066360       0.00030271       0.00244312
Ni      37.01235505      28.18814187      12.32939177       0.60000000      -0.00652851       0.00131407       0.00383009       0.00210694
Ni      37.00958872      29.95169236      10.56717239       0.60000000      -0.00665048      -0.00185601       0.00116864       0.00246137
Ni      35.24690670      28.18641835      14.09409709       0.60000000      -0.00602507       0.00187152       0.00197558      -0.00287709
Ni      35.24589042      29.95032404      15.85686963       0.60000000      -0.00588832       0.00427645       0.00555543       0.00130982
Ni      37.01524040      28.18992202      15.85575014       0.60000000      -0.00633506       0.00373711       0.00282129       0.00536421
Ni      37.01260088      29.95312239      14.09276854       0.60000000      -0.00632196      -0.00284387      -0.00181893       0.00877795
Ni      35.24790768      28.18693622      17.61879088       0.60000000      -0.00575668       0.00972351       0.00289782      -0.00069425
Ni      35.24706791      29.95217278      19.38055366       0.60000000      -0.00565965       0.00297062       0.00034823       0.00772187
Ni      37.01788093      28.19353970      19.38306138       0.60000000      -0.00620831       0.00436062       0.00161152       0.00584454
Ni      37.01496219      29.95552244      17.61949367       0.60000000      -0.00620986       0.00132844       0.00236258       0.01051870
Ni      35.24840975      28.18850081      21.14183613       0.60000000      -0.00547952       0.00766493       0.00164293       0.00655159
Ni      35.24501853      29.95173615      22.90413925       0.60000000      -0.00526295       0.00697025       0.00548969       0.00780744
Ni      37.01892606      28.19698671      22.91029511       0.60000000      -0.00622065      -0.00454275      -0.00459886       0.00090865
Ni      37.01685986      29.95925775      21.14719703       0.60000000      -0.00617806      -0.00282412      -0.00446013       0.00641075
Ni      35.24448278      28.18739948      24.66452227       0.60000000      -0.00514577       0.00851430       0.00462115       0.00219856
Ni      35.24273376      29.95117410      26.42704635       0.60000000      -0.00499550       0.00260746       0.00459747       0.00916789
Ni      37.01471262      28.19611077      26.43389189       0.60000000      -0.00614536       0.01652175       0.01238041       0.01473082
Ni      37.01441322      29.95977254      24.67270921       0.60000000      -0.00623681       0.01259428       0.00447621       0.01221606
Ni      35.24225879      28.18750430      28.18750430       0.60000000      -0.00496468       0.00029401       0.00577200       0.00577200
Ni      35.23825520      29.94961373      29.94961373       0.60000000      -0.00475410       0.02051133       0.00932593       0.00932593
Ni      37.01474147      28.19746505      29.95956726       0.60000000      -0.00612955      -0.01478296      -0.00201163      -0.00408299
Ni      37.01474147      29.95956726      28.19746505       0.60000000      -0.00612955      -0.01478296      -0.00408299      -0.00201163
Ni      35.24064779      28.18980563      31.71503639       0.60000000      -0.00501005       0.01137875       0.00992344       0.00102096
Ni      35.24632388      29.95618634      33.48194607       0.60000000      -0.00552175      -0.01773060       0.00202228      -0.00764301
Ni      37.01252494      28.19961888      33.48654464       0.60000000      -0.00670109      -0.00124348       0.00202297      -0.00497521
Ni      37.01076289      29.95812810      31.72042393       0.60000000      -0.00647716       0.00789224       0.01486155       0.01185011
Ni      35.24944180      28.19910960      35.24944180       0.60000000      -0.00556546      -0.02067887      -0.00967102      -0.02067887
Ni      35.25109833      29.96478064      37.01433305       0.60000000      -0.00671977      -0.01510971      -0.01215465      -0.01693036
Ni      37.01473941      28.20273423      37.01473941       0.60000000      -0.00703734      -0.01267038      -0.00718176      -0.01267038
Ni      37.01433305      29.96478064      35.25109833       0.60000000      -0.00671977      -0.01693036      -0.01215465      -0.01510971
Ni      35.25426657      28.20417458      38.77993609       0.60000000      -0.00972494      -0.02571088      -0.01472778      -0.03250009
Ni      35.25170586      29.96436007      40.53970675       0.60000000      -0.00638481      -0.01034024      -0.02385808      -0.12193632
Ni      37.01329866      28.20108439      40.53865773       0.60000000      -0.00669313      -0.00513231      -0.02540922      -0.11638613
Ni      37.01486636      29.96491041      38.77754464       0.60000000      -0.00960906      -0.01149451      -0.00225650      -0.01358557
Ni      35.24315180      31.71663814      -0.00914984       0.60000000      -0.00667989       0.03262032       0.03457573       0.13548874
Ni      35.24285188      33.47952554       1.75320590       0.60000000      -0.00915426       0.00012547       0.00042961      -0.00623116
Ni      37.00619123      31.71635635       1.75343518       0.60000000      -0.00920085       0.00003464       0.00078064      -0.00608600
Ni      37.00518908      33.47917958      -0.00750517       0.60000000      -0.00691937       0.02766949       0.02904747       0.11415544
Ni      35.24389403      31.71639569       3.51374776       0.60000000      -0.00696609      -0.00972699      -0.00281672       0.01754290
Ni      35.24086264      33.47749647       5.27938897       0.60000000      -0.00697635       0.00269504       0.00319326      -0.00130322
Ni      37.00582130      31.71584917       5.27884355       0.60000000      -0.00708688      -0.00111506      -0.00194372       0.00029753
Ni      37.00597386      33.47932669       3.51604567       0.60000000      -0.00713305      -0.00794922      -0.00244693       0.01241416
Ni      35.24105888      31.71383423       7.04267389       0.60000000      -0.00659061       0.00251638       0.00336202      -0.00210753
Ni      35.24134947      33.47716679       8.80622820       0.60000000      -0.00655460      -0.00090129       0.00111834       0.00065525
Ni      37.00677624      31.71474959       8.80512123       0.60000000      -0.00682656       0.00162171       0.00257632      -0.00074707
Ni      37.00522890      33.47786782       7.04286201       0.60000000      -0.00692215      -0.00033906       0.00176030      -0.00082389
Ni      35.24268514      31.71393576      10.56900716       0.60000000      -0.00639025      -0.00137586      -0.00095943       0.00329500
Ni      35.24360862      33.47887856      12.33028460       0.60000000      -0.00642091      -0.00494365      -0.00362240       0.00991607
Ni      37.01019336      31.71636593      12.32978383       0.60000000      -0.00645518      -0.00640961      -0.00309218       0.00864919
Ni      37.00757902      33.47925162      10.56756715       0.60000000      -0.00670590      -0.00243413      -0.00137976       0.00313111
Ni      35.24485634      31.71467439      14.09341934       0.60000000      -0.00618635      -0.00485768      -0.00156285       0.00929582
Ni      35.24581844      33.48095125      15.85413394       0.60000000      -0.00601479      -0.00790924      -0.00627478       0.01589015
Ni      37.01260435      31.71852474      15.85582038       0.60000000      -0.00624357      -0.00386557      -0.00233786       0.01194416
Ni      37.01077234      33.48190429      14.09234380       0.60000000      -0.00644413      -0.00922229      -0.00764571       0.01194631
Ni      35.24626424      31.71659091      17.61758153       0.60000000      -0.00573298      -0.00281429      -0.00427029       0.01203924
Ni      35.24629398      33.48189106      19.38020057       0.60000000      -0.00566659      -0.00291834      -0.00323728       0.01211789
Ni      37.01457821      31.72140622      19.38343433       0.60000000      -0.00619122      -0.00304695      -0.00385340       0.00840398
Ni      37.01262745      33.48414659      17.61984935       0.60000000      -0.00629001      -0.00599702      -0.00588777       0.00753733
Ni      35.24569278      31.71679438      21.14239529       0.60000000      -0.00552717       0.00120087       0.00047856       0.01381551
Ni      35.24632080      33.48226770      22.90668669       0.60000000      -0.00539240      -0.00375500      -0.00355458       0.00879182
Ni      37.01438287      31.72316865      22.91080244       0.60000000      -0.00633988       0.00187146      -0.00310321       0.00616881
Ni      37.01392728      33.48620862      21.14772493       0.60000000      -0.00645920      -0.00773501      -0.00932974       0.00452789
Ni      35.24448750      31.71707024      24.66727259       0.60000000      -0.00514002       0.00026024      -0.00333114       0.01196875
Ni      35.24527080      33.48253393      26.43198945       0.60000000      -0.00533641      -0.00527412      -0.00926076       0.00288805
Ni      37.01449452      31.72352878      26.43695845       0.60000000      -0.00637149      -0.01084268      -0.00695408      -0.00278790
Ni      37.01436802      33.48733754      24.67536103       0.60000000      -0.00646325      -0.00929447      -0.01070946      -0.00349036
Ni      35.24064779      31.71503639      28.18980563       0.60000000      -0.00501005       0.01137875       0.00102096       0.00992344
Ni      35.24632388      33.48194607      29.95618634       0.60000000      -0.00552175      -0.01773060      -0.00764301       0.00202228
Ni      37.01076289      31.72042393      29.95812810       0.60000000      -0.00647716       0.00789224       0.01185011       0.01486155
Ni      37.01252494      33.48654464      28.19961888       0.60000000      -0.00670109      -0.00124348      -0.00497521       0.00202297
Ni      35.24438441      31.71463616      31.71463616       0.60000000      -0.00531011      -0.01482711       0.01153644       0.01153644
Ni      35.24445794      33.47994500      33.47994500       0.60000000      -0.00600888      -0.00704671       0.00314873       0.00314873
Ni      37.01350116      31.72340570      33.48528555       0.60000000      -0.00662143      -0.02001880      -0.00529609      -0.00602930
Ni      37.01350116      33.48528555      31.72340570       0.60000000      -0.00662143      -0.02001880      -0.00602930      -0.00529609
Ni      35.24715555      31.72291711      35.24715555       0.60000000      -0.00614122      -0.01183627      -0.01024089      -0.01183627
Ni      35.24833198      33.48733264      37.01199829       0.60000000      -0.00705773      -0.00768591      -0.01148557      -0.01203142
Ni      37.01348435      31.72829289      37.01348435       0.60000000      -0.00732323      -0.01112333      -0.01681564      -0.01112333
Ni      37.01199829      33.48733264      35.24833198       0.60000000      -0.00705773      -0.01203142      -0.01148557      -0.00768591
Ni      35.25314102      31.72815237      38.77845031       0.60000000      -0.00938290      -0.01965307      -0.00967706      -0.02256081
Ni      35.25059283      33.48817307      40.53818830       0.60000000      -0.00666686      -0.01329489      -0.01680258      -0.10546060
Ni      37.01264735      31.72539846      40.53775073       0.60000000      -0.00687875      -0.00918948      -0.01928897      -0.10357402
Ni      37.01352113      33.48861674      38.77606039       0.60000000      -0.00933276      -0.01288863      -0.00095205      -0.01066242
Ni      35.24216241      35.24216241      -0.00758746       0.60000000      -0.00689189       0.02899382       0.02899382       0.11614551
Ni      35.24200685      37.00504030       1.75499752       0.60000000      -0.00895721       0.00014834      -0.00000101      -0.00535165
Ni      37.00504030      35.24200685       1.75499752       0.60000000      -0.00895721      -0.00000101       0.00014834      -0.00535165
Ni      37.00438006      37.00438006      -0.00617799       0.60000000      -0.00708909       0.02395125       0.02395125       0.09679420
Ni      35.24260688      35.24260688       3.51593862       0.60000000      -0.00707938      -0.00704794      -0.00704794       0.01537890
Ni      35.24115631      37.00426847       5.28059391       0.60000000      -0.00716753       0.00055249       0.00094021      -0.00043995
Ni      37.00426847      35.24115631       5.28059391       0.60000000      -0.00716753       0.00094021       0.00055249      -0.00043995
Ni      37.00494712      37.00494712       3.51776639       0.60000000      -0.00728098      -0.00430145      -0.00430145       0.00940767
Ni      35.24029153      35.24029153       7.04366796       0.60000000      -0.00666110       0.00283594       0.00283594      -0.00228631
Ni      35.24189672      37.00580970       8.80545737       0.60000000      -0.00686502       0.00002839      -0.00163432       0.00017775
Ni      37.00580970      35.24189672       8.80545737       0.60000000      -0.00686502      -0.00163432       0.00002839       0.00017775
Ni      37.00452355      37.00452355       7.04334536       0.60000000      -0.00708928       0.00121316       0.00121316      -0.00053328
Ni      35.24269543      35.24269543      10.56777124       0.60000000      -0.00664334      -0.00375832      -0.00375832       0.00484099
Ni      35.24447520      37.00837742      12.32995171       0.60000000      -0.00668043      -0.00490172      -0.00397747       0.00593629
Ni      37.00837742      35.24447520      12.32995171       0.60000000      -0.00668043      -0.00397747      -0.00490172       0.00593629
Ni      37.00677342      37.00677342      10.56789609       0.60000000      -0.00692498      -0.00236566      -0.00236566       0.00210901
Ni      35.24511909      35.24511909      14.09170555       0.60000000      -0.00633219      -0.00669936      -0.00669936       0.01244226
Ni      35.24687820      37.01099261      15.85652949       0.60000000      -0.00652297      -0.00766578      -0.00851773       0.00725187
Ni      37.01099261      35.24687820      15.85652949       0.60000000      -0.00652297      -0.00851773      -0.00766578       0.00725187
Ni      37.00889403      37.00889403      14.09410653       0.60000000      -0.00686862      -0.00297842      -0.00297842       0.00359329
Ni      35.24711954      35.24711954      17.61790851       0.60000000      -0.00606499      -0.01113130      -0.01113130       0.01220041
Ni      35.24885461      37.01256822      19.38462055       0.60000000      -0.00653125      -0.00976519      -0.00819767       0.00364994
Ni      37.01256822      35.24885461      19.38462055       0.60000000      -0.00653125      -0.00819767      -0.00976519       0.00364994
Ni      37.01130379      37.01130379      17.62173982       0.60000000      -0.00686021      -0.00704625      -0.00704625       0.00310879
Ni      35.24765939      35.24765939      21.14586105       0.60000000      -0.00571544      -0.00670628      -0.00670628       0.00400720
Ni      35.25013239      37.01380847      22.91242914       0.60000000      -0.00659278      -0.01018367      -0.00924061      -0.00037603
Ni      37.01380847      35.25013239      22.91242914       0.60000000      -0.00659278      -0.00924061      -0.01018367      -0.00037603
Ni      37.01270125      37.01270125      21.14966661       0.60000000      -0.00707549      -0.00591574      -0.00591574       0.00097539
Ni      35.24839629      35.24839629      24.67236193       0.60000000      -0.00568927      -0.01342238      -0.01342238       0.00157384
Ni      35.25124512      37.01410401      26.43895888       0.60000000      -0.00667184      -0.01400136      -0.01010356      -0.00421454
Ni      37.01410401      35.25124512      26.43895888       0.60000000      -0.00667184      -0.01010356      -0.01400136      -0.00421454
Ni      37.01422054      37.01422054      24.67641167       0.60000000      -0.00716645      -0.01086001      -0.01086001      -0.00074008
Ni      35.24944180      35.24944180      28.19910960       0.60000000      -0.00556546      -0.02067887      -0.02067887      -0.00967102
Ni      35.25109833      37.01433305      29.96478064       0.60000000      -0.00671977      -0.01510971      -0.01693036      -0.01215465
Ni      37.01433305      35.25109833      29.96478064       0.60000000      -0.00671977      -0.01693036      -0.01510971      -0.01215465
Ni      37.01473941      37.01473941      28.20273423       0.60000000      -0.00703734      -0.01267038      -0.01267038      -0.00718176
Ni      35.24715555      35.24715555      31.72291711       0.60000000      -0.00614122      -0.01183627      -0.01183627      -0.01024089
Ni      35.24833198      37.01199829      33.48733264       0.60000000      -0.00705773      -0.00768591      -0.01203142      -0.01148557
Ni      37.01199829      35.24833198      33.48733264       0.60000000      -0.00705773      -0.01203142      -0.00768591      -0.01148557
Ni      37.01348435      37.01348435      31.72829289       0.60000000      -0.00732323      -0.01112333      -0.01112333      -0.01681564
Ni      35.24487148      35.24487148      35.24487148       0.60000000      -0.00682246       0.00025481       0.00025481       0.00025481
Ni      35.24879826      37.01035126      37.01035126       0.60000000      -0.00788564       0.00034511       0.00318585       0.00318585
Ni      37.01035126      35.24879826      37.01035126       0.60000000      -0.00788564       0.00318585       0.00034511       0.00318585
Ni      37.01035126      37.01035126      35.24879826       0.60000000      -0.00788564       0.00318585       0.00318585       0.00034511
Ni      35.25126999      35.25126999      38.77629677       0.60000000      -0.00914483      -0.01080057      -0.01080057      -0.01486906
Ni      35.24904254      37.01142507      40.53631463       0.60000000      -0.00697295      -0.01357006      -0.01088653      -0.08857033
Ni      37.01142507      35.24904254      40.53631463       0.60000000      -0.00697295      -0.01088653      -0.01357006      -0.08857033
Ni      37.01176291      37.01176291      38.77419197       0.60000000      -0.00933071      -0.00767395      -0.00767395      -0.01123227
Ni      35.24158385      38.76719300      -0.00612198       0.60000000      -0.00816835       0.02401130       0.02650371       0.09528320
Ni      35.24154647      40.52991971       1.75652179       0.60000000      -0.00872790       0.01821625      -0.06564167      -0.01157601
Ni      37.00431885      38.76713081       1.75642573       0.60000000      -0.00987870       0.00006102       0.00337540      -0.00434282
Ni      37.00385845      40.52915405      -0.00498985       0.60000000      -0.00708571       0.03525990      -0.03834300       0.07573983
Ni      35.24194822      38.76797487       3.51783047       0.60000000      -0.00852486       0.00029382      -0.00076049       0.00552748
Ni      35.24200685      40.53089373       5.28085096       0.60000000      -0.00699975       0.02152278      -0.07973663      -0.00941883
Ni      37.00494712      38.76793901       5.28075828       0.60000000      -0.00848482      -0.00448377      -0.00378559       0.00414801
Ni      37.00431885      40.52989272       3.51918764       0.60000000      -0.00725206       0.01765713      -0.06678566      -0.00791538
Ni      35.24260688      38.76908285       7.04241459       0.60000000      -0.00849506      -0.00564031      -0.00484912       0.00482769
Ni      35.24285188      40.53222137       8.80590174       0.60000000      -0.00681794       0.02362433      -0.09697178      -0.01382593
Ni      37.00597386      38.76913583       8.80585481       0.60000000      -0.00854467      -0.00508758      -0.00124429       0.00038117
Ni      37.00504030      40.53089373       7.04388441       0.60000000      -0.00701217       0.01983102      -0.08035552      -0.01114824
Ni      35.24389403      38.77075113      10.56810320       0.60000000      -0.00865056      -0.00565499      -0.00062888       0.00027423
Ni      35.24433515      40.53402454      12.33197012       0.60000000      -0.00664777       0.02312467      -0.11538402      -0.02051295
Ni      37.00764503      38.77091956      12.33204788       0.60000000      -0.00875870      -0.00456767       0.00034448      -0.00266262
Ni      37.00619123      40.53226818      10.56934701       0.60000000      -0.00691294       0.02036644      -0.09596271      -0.01621585
Ni      35.24616966      38.77319650      14.09526283       0.60000000      -0.00884021      -0.00698142      -0.00189656      -0.00676251
Ni      35.24652783      40.53625274      15.85905166       0.60000000      -0.00640204       0.01936213      -0.13120768      -0.02828171
Ni      37.01000857      38.77329378      15.85933568       0.60000000      -0.00901151      -0.00717307      -0.00314344      -0.00660887
Ni      37.00788098      40.53405715      14.09568776       0.60000000      -0.00675417       0.01853595      -0.11080704      -0.02267565
Ni      35.24927912      38.77618242      17.62355627       0.60000000      -0.00915506      -0.01410598      -0.01262921      -0.01196931
Ni      35.24901134      40.53847256      19.38657161       0.60000000      -0.00613067       0.01259670      -0.14052097      -0.03393185
Ni      37.01258604      38.77577566      19.38706734       0.60000000      -0.00932740      -0.01229058      -0.01081234      -0.00798875
Ni      37.00994034      40.53605451      17.62264563       0.60000000      -0.00659852       0.01428841      -0.12195009      -0.02862327
Ni      35.25226324      38.77881110      21.15179391       0.60000000      -0.00940701      -0.02039489      -0.02322578      -0.01609769
Ni      35.25101357      40.54001561      22.91363329       0.60000000      -0.00601870       0.00399764      -0.14168953      -0.03477586
Ni      37.01455198      38.77757861      22.91425098       0.60000000      -0.00956324      -0.01545844      -0.01553309      -0.01018389
Ni      37.01185663      40.53777143      21.14957869       0.60000000      -0.00647031       0.00806104      -0.12674392      -0.03148627
Ni      35.25406254      38.78016197      24.67880634       0.60000000      -0.00959725      -0.02328804      -0.02905478      -0.01651632
Ni      35.25194501      40.54042847      26.43960112       0.60000000      -0.00609946      -0.00432241      -0.13479564      -0.03076805
Ni      37.01532714      38.77817234      26.44022528       0.60000000      -0.00968992      -0.01496675      -0.01627456      -0.00834986
Ni      37.01306642      40.53870870      24.67583082       0.60000000      -0.00652223       0.00103928      -0.12470908      -0.03014276
Ni      35.25426657      38.77993609      28.20417458       0.60000000      -0.00972494      -0.02571088      -0.03250009      -0.01472778
Ni      35.25170586      40.53970675      29.96436007       0.60000000      -0.00638481      -0.01034024      -0.12193632      -0.02385808
Ni      37.01486636      38.77754464      29.96491041       0.60000000      -0.00960906      -0.01149451      -0.01358557      -0.00225650
Ni      37.01329866      40.53865773      28.20108439       0.60000000      -0.00669313      -0.00513231      -0.11638613      -0.02540922
Ni      35.25314102      38.77845031      31.72815237       0.60000000      -0.00938290      -0.01965307      -0.02256081      -0.00967706
Ni      35.25059283      40.53818830      33.48817307       0.60000000      -0.00666686      -0.01329489      -0.10546060      -0.01680258
Ni      37.01352113      38.77606039      33.48861674       0.60000000      -0.00933276      -0.01288863      -0.01066242      -0.00095205
Ni      37.01264735      40.53775073      31.72539846       0.60000000      -0.00687875      -0.00918948      -0.10357402      -0.01928897
Ni      35.25126999      38.77629677      35.25126999       0.60000000      -0.00914483      -0.01080057      -0.01486906      -0.01080057
Ni      35.24904254      40.53631463      37.01142507       0.60000000      -0.00697295      -0.01357006      -0.08857033      -0.01088653
Ni      37.01176291      38.77419197      37.01176291       0.60000000      -0.00933071      -0.00767395      -0.01123227      -0.00767395
Ni      37.01142507      40.53631463      35.24904254       0.60000000      -0.00697295      -0.01088653      -0.08857033      -0.01357006
Ni      35.24920796      38.77401891      38.77401891       0.60000000      -0.01084865       0.00129805      -0.00403951      -0.00403951
Ni      35.24742346      40.53444311      40.53444311       0.60000000      -0.00706318      -0.02655930      -0.07568981      -0.07568981
Ni      37.00997444      38.77231785      40.53469207       0.60000000      -0.00855971      -0.01092140      -0.00478766      -0.07512447
Ni      37.00997444      40.53469207      38.77231785       0.60000000      -0.00855971      -0.01092140      -0.07512447      -0.00478766
Ni      38.76984793      -0.00537809      -0.00537809       0.60000000      -0.00822143      -0.01216206       0.05820220       0.05820220
Ni      38.77101280       1.75596807       1.75596807       0.60000000      -0.01055253       0.00388924      -0.00350746      -0.00350746
Ni      40.53216964      -0.00542485       1.75684458       0.60000000      -0.00818315      -0.06477845       0.04957045      -0.00037267
Ni      40.53216964       1.75684458      -0.00542485       0.60000000      -0.00818315      -0.06477845      -0.00037267       0.04957045
Ni      38.77092013      -0.00629909       3.51833078       0.60000000      -0.00857407      -0.00374290       0.05225342      -0.00016106
Ni      38.77231785       1.75492776       5.27964538       0.60000000      -0.01000101       0.00482843      -0.00450121      -0.00059647
Ni      40.53313132      -0.00624006       5.28066600       0.60000000      -0.00719743      -0.07479970       0.05721674       0.00608151
Ni      40.53331796       1.75596807       3.51827323       0.60000000      -0.00839999      -0.06457867      -0.00227863       0.00229787
Ni      38.77195443      -0.00724558       7.04216594       0.60000000      -0.00870056      -0.00263471       0.06136279       0.00198986
Ni      38.77352397       1.75388829       8.80348405       0.60000000      -0.01038773       0.00570449      -0.00554609      -0.00046510
Ni      40.53397527      -0.00702840       8.80463602       0.60000000      -0.00707029      -0.08354496       0.06570993       0.01162488
Ni      40.53444311       1.75507637       7.04209602       0.60000000      -0.00849975      -0.07542309      -0.00435306       0.00484385
Ni      38.77277333      -0.00813762      10.56619075       0.60000000      -0.00880011       0.00025549       0.07218784       0.00565107
Ni      38.77437803       1.75295688      12.32756309       0.60000000      -0.01077583       0.00644657      -0.00660601      -0.00014115
Ni      40.53453539      -0.00770898      12.32881139       0.60000000      -0.00693559      -0.08891260       0.07533597       0.01949659
Ni      40.53536459       1.75425058      10.56610728       0.60000000      -0.00861563      -0.08557131      -0.00694308       0.00871439
Ni      38.77316514      -0.00887142      14.09047378       0.60000000      -0.00884077       0.00554078       0.08497955       0.01110688
Ni      38.77460590       1.75226419      15.85196869       0.60000000      -0.01108403       0.00690797      -0.00751230       0.00041109
Ni      40.53465034      -0.00818910      15.85324700       0.60000000      -0.00680918      -0.08923311       0.08584239       0.02910370
Ni      40.53586280       1.75359349      14.09037676       0.60000000      -0.00873913      -0.09346838      -0.00963789       0.01383558
Ni      38.77295995      -0.00933256      17.61507861       0.60000000      -0.00879325       0.01290805       0.09881539       0.01783719
Ni      38.77403634       1.75194395      19.37677960       0.60000000      -0.01124625       0.00692203      -0.00792394       0.00105214
Ni      40.53423496      -0.00838068      19.37798167       0.60000000      -0.00671020      -0.08417008       0.09575904       0.03870905
Ni      40.53575425       1.75321446      17.61497042       0.60000000      -0.00885939      -0.09764921      -0.01182700       0.01935326
Ni      38.77212936      -0.00941841      21.14004149       0.60000000      -0.00865534       0.02072292       0.11092500       0.02434139
Ni      38.77273466       1.75210147      22.90202991       0.60000000      -0.01122113       0.00642588      -0.00757880       0.00150238
Ni      40.53334442      -0.00822346      22.90301395       0.60000000      -0.00666222      -0.07508308       0.10249382       0.04590222
Ni      40.53499335       1.75320572      21.13992840       0.60000000      -0.00895154      -0.09733005      -0.01303502       0.02382566
Ni      38.77084532      -0.00907074      24.66533415       0.60000000      -0.00847272       0.02680041       0.11769031       0.02872713
Ni      38.77103522       1.75276786      26.42764922       0.60000000      -0.01100617       0.00556836      -0.00664802       0.00148227
Ni      40.53217664      -0.00771213      26.42827400       0.60000000      -0.00668585      -0.06431262       0.10365795       0.04880801
Ni      40.53373723       1.75361119      24.66522668       0.60000000      -0.00898682      -0.09275753      -0.01323404       0.02590504
Ni      38.76942402      -0.00831373      28.19082997       0.60000000      -0.00831303       0.02968546       0.11677603       0.02983849
Ni      38.76938057       1.75385183      29.95342405       0.60000000      -0.01065859       0.00465222      -0.00564723       0.00102334
Ni      40.53098509      -0.00691492      29.95361624       0.60000000      -0.00678229      -0.05400166       0.09852247       0.04710113
Ni      40.53229685       1.75439323      28.19074025       0.60000000      -0.00895090      -0.08503986      -0.01282940       0.02512838
Ni      38.76816076      -0.00727050      31.71631758       0.60000000      -0.00821467       0.02927448       0.10846803       0.02787668
Ni      38.76806371       1.75514647      33.47905776       0.60000000      -0.01025838       0.00392065      -0.00491405       0.00042474
Ni      40.52995630      -0.00596077      33.47885922       0.60000000      -0.00692720      -0.04529648       0.08839679       0.04197035
Ni      40.53097400       1.75542234      31.71625378       0.60000000      -0.00885690      -0.07559136      -0.01224557       0.02215760
Ni      38.76719300      -0.00612198      35.24158385       0.60000000      -0.00816835       0.02650371       0.09528320       0.02401130
Ni      38.76713081       1.75642573      37.00431885       0.60000000      -0.00987870       0.00337540      -0.00434282       0.00006102
Ni      40.52915405      -0.00498985      37.00385845       0.60000000      -0.00708571      -0.03834300       0.07573983       0.03525990
Ni      40.52991971       1.75652179      35.24154647       0.60000000      -0.00872790      -0.06564167      -0.01157601       0.01821625
Ni      38.76650626      -0.00502778      38.76650626       0.60000000      -0.00906153       0.02264936       0.08028671       0.02264936
Ni      38.76648974       1.75754436      40.52913450       0.60000000      -0.00952325       0.01749659      -0.01070540      -0.05599536
Ni      40.52855432      -0.00410343      40.52855432       0.60000000      -0.00706309      -0.02548746       0.05860631      -0.02548746
Ni      40.52913450       1.75754436      38.76648974       0.60000000      -0.00952325      -0.05599536      -0.01070540       0.01749659
Ni      38.77092013       3.51833078      -0.00629909       0.60000000      -0.00857407      -0.00374290      -0.00016106       0.05225342
Ni      38.77231785       5.27964538       1.75492776       0.60000000      -0.01000101       0.00482843      -0.00059647      -0.00450121
Ni      40.53331796       3.51827323       1.75596807       0.60000000      -0.00839999      -0.06457867       0.00229787      -0.00227863
Ni      40.53313132       5.28066600      -0.00624006       0.60000000      -0.00719743      -0.07479970       0.00608151       0.05721674
Ni      38.77244430       3.51722737       3.51722737       0.60000000      -0.00890320       0.00516555      -0.00104236      -0.00104236
Ni      38.77419197       5.27839894       5.27839894       0.60000000      -0.00922376      -0.00715663       0.00578495       0.00578495
Ni      40.53469207       3.51730198       5.27964538       0.60000000      -0.00735507      -0.07698498       0.00086148       0.00277365
Ni      40.53469207       5.27964538       3.51730198       0.60000000      -0.00735507      -0.07698498       0.00277365       0.00086148
Ni      38.77401891       3.51606654       7.04087748       0.60000000      -0.00926725      -0.00156575       0.00634252      -0.00110144
Ni      38.77606039       5.27712903       8.80203342       0.60000000      -0.00943518      -0.00886573       0.00861192       0.00355601
Ni      40.53598327       3.51634759       8.80348405       0.60000000      -0.00724921      -0.08958668      -0.00117136       0.00626624
Ni      40.53631463       5.27858840       7.04097092       0.60000000      -0.00705094      -0.09112249       0.00110591       0.00370456
Ni      38.77538780       3.51495214      10.56473474       0.60000000      -0.00950961      -0.00115241       0.00648474      -0.00077671
Ni      38.77754464       5.27597966      12.32593561       0.60000000      -0.00972205      -0.01032651       0.00908645       0.00191156
Ni      40.53693899       3.51551785      12.32756309       0.60000000      -0.00714958      -0.10068030      -0.00364916       0.01152958
Ni      40.53775073       5.27760139      10.56485029       0.60000000      -0.00690542      -0.10542952      -0.00146949       0.00853286
Ni      38.77619828       3.51402506      14.08889850       0.60000000      -0.00967246      -0.00109708       0.00688122      -0.00019321
Ni      38.77817234       5.27513105      15.85023291       0.60000000      -0.00983630      -0.01210959       0.00966362       0.00184395
Ni      40.53728137       3.51493967      15.85196869       0.60000000      -0.00705308      -0.10821745      -0.00600711       0.01811261
Ni      40.53865773       5.27682426      14.08903852       0.60000000      -0.00674642      -0.11686051      -0.00448155       0.01559924
Ni      38.77611653       3.51344469      17.61347928       0.60000000      -0.00969364      -0.00143567       0.00755951       0.00065374
Ni      38.77757861       5.27476922      19.37507021       0.60000000      -0.00979455      -0.01320097       0.01021807       0.00308642
Ni      40.53682783       3.51473544      19.37677960       0.60000000      -0.00698549      -0.11068631      -0.00759396       0.02451159
Ni      40.53870870       5.27640737      17.61364298       0.60000000      -0.00661398      -0.12313599      -0.00710433       0.02373689
Ni      38.77501763       3.51335916      21.13857452       0.60000000      -0.00955993      -0.00134875       0.00774314       0.00149150
Ni      38.77577566       5.27504411      22.90056281       0.60000000      -0.00957195      -0.01077454       0.00972264       0.00489539
Ni      40.53562322       3.51499004      22.90202991       0.60000000      -0.00696962      -0.10774152      -0.00816075       0.02873280
Ni      40.53777143       5.27647616      21.13875410       0.60000000      -0.00657765      -0.12311469      -0.00865056       0.03055303
Ni      38.77314357       3.51386146      24.66420286       0.60000000      -0.00929636      -0.00038165       0.00695328       0.00186168
Ni      38.77329378       5.27600534      26.42667823       0.60000000      -0.00921490      -0.00721804       0.00933720       0.00546433
Ni      40.53397680       3.51570944      26.42764922       0.60000000      -0.00699853      -0.10027391      -0.00807647       0.02942891
Ni      40.53605451       5.27708561      24.66438032       0.60000000      -0.00664536      -0.11712327      -0.00912197       0.03360381
Ni      38.77104860       3.51492323      28.19021061       0.60000000      -0.00900598      -0.00063793       0.00702714       0.00155245
Ni      38.77091956       5.27750839      29.95310553       0.60000000      -0.00885126      -0.00579812       0.00986444       0.00185464
Ni      40.53231384       3.51678511      29.95342405       0.60000000      -0.00706024      -0.08991194      -0.00795086       0.02681835
Ni      40.53405715       5.27816782      28.19036104       0.60000000      -0.00674091      -0.10655154      -0.00916339       0.03205384
Ni      38.76926071       3.51634524      31.71625137       0.60000000      -0.00871905      -0.00047471       0.00616927       0.00087690
Ni      38.76913583       5.27920764      33.47932669       0.60000000      -0.00855692      -0.00482596       0.00780151      -0.00197703
Ni      40.53093013       3.51801289      33.47905776       0.60000000      -0.00714517      -0.07830291      -0.00799197       0.02234595
Ni      40.53226818       5.27951213      31.71635635       0.60000000      -0.00686929      -0.09350103      -0.00932445       0.02728108
Ni      38.76797487       3.51783047      35.24194822       0.60000000      -0.00852486      -0.00076049       0.00552748       0.00029382
Ni      38.76793901       5.28075828      37.00494712       0.60000000      -0.00848482      -0.00378559       0.00414801      -0.00448377
Ni      40.52989272       3.51918764      37.00431885       0.60000000      -0.00725206      -0.06678566      -0.00791538       0.01765713
Ni      40.53089373       5.28085096      35.24200685       0.60000000      -0.00699975      -0.07973663      -0.00941883       0.02152278
Ni      38.76710657       3.51914910      38.76710657       0.60000000      -0.00939286       0.00343337       0.00048037       0.00343337
Ni      38.76713081       5.28199960      40.52989272       0.60000000      -0.00834204       0.02007380      -0.00908621      -0.06707038
Ni      40.52913450       3.52018912      40.52913450       0.60000000      -0.00723332      -0.04902800      -0.01562796      -0.04902800
Ni      40.52989272       5.28199960      38.76713081       0.60000000      -0.00834204      -0.06707038      -0.00908621       0.02007380
Ni      38.77195443       7.04216594      -0.00724558       0.60000000      -0.00870056      -0.00263471       0.00198986       0.06136279
Ni      38.77352397       8.80348405       1.75388829       0.60000000      -0.01038773       0.00570449      -0.00046510      -0.00554609
Ni      40.53444311       7.04209602       1.75507637       0.60000000      -0.00849975      -0.07542309       0.00484385      -0.00435306
Ni      40.53397527       8.80463602      -0.00702840       0.60000000      -0.00707029      -0.08354496       0.01162488       0.06570993
Ni      38.77401891       7.04087748       3.51606654       0.60000000      -0.00926725      -0.00156575      -0.00110144       0.00634252
Ni      38.77606039       8.80203342       5.27712903       0.60000000      -0.00943518      -0.00886573       0.00355601       0.00861192
Ni      40.53631463       7.04097092       5.27858840       0.60000000      -0.00705094      -0.09112249       0.00370456       0.00110591
Ni      40.53598327       8.80348405       3.51634759       0.60000000      -0.00724921      -0.08958668       0.00626624      -0.00117136
Ni      38.77629677       7.03949175       7.03949175       0.60000000      -0.00934161      -0.00999897       0.00716069       0.00716069
Ni      38.77877011       8.80053245       8.80053245       0.60000000      -0.00966757      -0.01045006       0.00814642       0.00814642
Ni      40.53818830       7.03985310       8.80227286       0.60000000      -0.00682182      -0.10815760       0.00152921       0.00502036
Ni      40.53818830       8.80227286       7.03985310       0.60000000      -0.00682182      -0.10815760       0.00502036       0.00152921
Ni      38.77845031       7.03814623      10.56313487       0.60000000      -0.00967705      -0.01137895       0.00891610       0.00537555
Ni      38.78113266       8.79918092      12.32423086       0.60000000      -0.00992966      -0.01193661       0.00855829       0.00507032
Ni      40.53970675       7.03888864      12.32623443       0.60000000      -0.00660739      -0.12369437      -0.00170869       0.01171898
Ni      40.54027556       8.80114469      10.56359577       0.60000000      -0.00657032      -0.12750287       0.00226840       0.00700143
Ni      38.77993609       7.03703620      14.08712818       0.60000000      -0.00985698      -0.01342623       0.00872006       0.00315356
Ni      38.78240545       8.79823678      15.84839784       0.60000000      -0.01011145      -0.01815648       0.00956320       0.00398787
Ni      40.54042847       7.03825341      15.85059730       0.60000000      -0.00639247      -0.13460536      -0.00530029       0.02087420
Ni      40.54175103       8.80029517      14.08770829       0.60000000      -0.00628403      -0.14348092      -0.00175698       0.01599870
Ni      38.78016197       7.03638432      17.61164051       0.60000000      -0.00990459      -0.01653370       0.00922183       0.00355801
Ni      38.78192903       8.79796256      19.37326519       0.60000000      -0.01006815      -0.02022913       0.00966845       0.00611390
Ni      40.54001561       7.03811451      19.37549479       0.60000000      -0.00626659      -0.13867384      -0.00820346       0.03025710
Ni      40.54209299       8.79993553      17.61234968       0.60000000      -0.00603035      -0.15273228      -0.00601165       0.02720655
Ni      38.77881110       7.03639362      21.13686295       0.60000000      -0.00978067      -0.01597292       0.01014946       0.00611778
Ni      38.77959834       8.79855246      22.89907298       0.60000000      -0.00979432      -0.01555794       0.01142319       0.00988787
Ni      40.53847256       7.03857804      22.90101778       0.60000000      -0.00631102      -0.13544281      -0.00983896       0.03648540
Ni      40.54103993       8.80023019      21.13767805       0.60000000      -0.00598042      -0.15375158      -0.00934199       0.03689112
Ni      38.77618242       7.03718674      24.66290959       0.60000000      -0.00945895      -0.01084139       0.01067111       0.00844314
Ni      38.77619334       8.80003178      26.42585881       0.60000000      -0.00933344      -0.00871054       0.01367872       0.00832111
Ni      40.53625274       7.03962665      26.42710282       0.60000000      -0.00644840      -0.12586283      -0.01052595       0.03715982
Ni      40.53885208       8.80121859      24.66374460       0.60000000      -0.00610854      -0.14670040      -0.01144431       0.04101396
Ni      38.77319650       7.03870461      28.18961144       0.60000000      -0.00902352      -0.00671574       0.01167790       0.00549321
Ni      38.77298673       8.80210650      29.95314789       0.60000000      -0.00889160      -0.00528512       0.01215644       0.00043782
Ni      40.53402454       7.04106653      29.95343156       0.60000000      -0.00659160      -0.11185991      -0.01100019       0.03276426
Ni      40.53626087       8.80273700      28.19032262       0.60000000      -0.00630497      -0.13316882      -0.01281622       0.03823266
Ni      38.77075113       7.04060487      31.71639569       0.60000000      -0.00869137      -0.00608674       0.01044531      -0.00236887
Ni      38.77067418       8.80419396      33.48005060       0.60000000      -0.00864893      -0.00417137       0.00628265      -0.00623043
Ni      40.53222137       7.04257540      33.47952554       0.60000000      -0.00678411      -0.09597998      -0.01136172       0.02613288
Ni      40.53396925       8.80442094      31.71687203       0.60000000      -0.00652707      -0.11555083      -0.01375321       0.03119081
Ni      38.76908285       7.04241459      35.24260688       0.60000000      -0.00849506      -0.00484912       0.00482769      -0.00564031
Ni      38.76913583       8.80585481      37.00597386       0.60000000      -0.00854467      -0.00124429       0.00038117      -0.00508758
Ni      40.53089373       7.04388441      37.00504030       0.60000000      -0.00701217      -0.08035552      -0.01114824       0.01983102
Ni      40.53222137       8.80590174      35.24285188       0.60000000      -0.00681794      -0.09697178      -0.01382593       0.02362433
Ni      38.76797487       7.04385712      38.76797487       0.60000000      -0.00975600      -0.00032842       0.00039735      -0.00032842
Ni      38.76806371       8.80701884      40.53093013       0.60000000      -0.00840252       0.02169929      -0.01285101      -0.07973124
Ni      40.52991971       7.04489503      40.52991971       0.60000000      -0.00707284      -0.05884489      -0.02122245      -0.05884489
Ni      40.53093013       8.80701884      38.76806371       0.60000000      -0.00840252      -0.07973124      -0.01285101       0.02169929
Ni      38.77277333      10.56619075      -0.00813762       0.60000000      -0.00880011       0.00025549       0.00565107       0.07218784
Ni      38.77437803      12.32756309       1.75295688       0.60000000      -0.01077583       0.00644657      -0.00014115      -0.00660601
Ni      40.53536459      10.56610728       1.75425058       0.60000000      -0.00861563      -0.08557131       0.00871439      -0.00694308
Ni      40.53453539      12.32881139      -0.00770898       0.60000000      -0.00693559      -0.08891260       0.01949659       0.07533597
Ni      38.77538780      10.56473474       3.51495214       0.60000000      -0.00950961      -0.00115241      -0.00077671       0.00648474
Ni      38.77754464      12.32593561       5.27597966       0.60000000      -0.00972205      -0.01032651       0.00191156       0.00908645
Ni      40.53775073      10.56485029       5.27760139       0.60000000      -0.00690542      -0.10542952       0.00853286      -0.00146949
Ni      40.53693899      12.32756309       3.51551785       0.60000000      -0.00714958      -0.10068030       0.01152958      -0.00364916
Ni      38.77845031      10.56313487       7.03814623       0.60000000      -0.00967705      -0.01137895       0.00537555       0.00891610
Ni      38.78113266      12.32423086       8.79918092       0.60000000      -0.00992966      -0.01193661       0.00507032       0.00855829
Ni      40.54027556      10.56359577       8.80114469       0.60000000      -0.00657032      -0.12750287       0.00700143       0.00226840
Ni      40.53970675      12.32623443       7.03888864       0.60000000      -0.00660739      -0.12369437       0.01171898      -0.00170869
Ni      38.78155676      10.56157782      10.56157782       0.60000000      -0.00995831      -0.01092559       0.00770509       0.00770509
Ni      38.78447930      12.32273525      12.32273525       0.60000000      -0.01027663      -0.01833912       0.01032239       0.01032239
Ni      40.54247145      10.56254729      12.32501868       0.60000000      -0.00623860      -0.14831572       0.00351485       0.00982451
Ni      40.54247145      12.32501868      10.56254729       0.60000000      -0.00623860      -0.14831572       0.00982451       0.00351485
Ni      38.78393592      10.56034720      14.08541845       0.60000000      -0.01024396      -0.01857587       0.01098042       0.00678426
Ni      38.78652071      12.32184211      15.84687943       0.60000000      -0.01048430      -0.02826808       0.01229055       0.00832461
Ni      40.54370073      10.56195822      15.84939531       0.60000000      -0.00583657      -0.16332950      -0.00145102       0.02135647
Ni      40.54457858      12.32419899      14.08667474       0.60000000      -0.00572325      -0.16902039       0.00540864       0.01356146
Ni      38.78465781      10.55977357      17.60990939       0.60000000      -0.01032829      -0.02469025       0.01011295       0.00569896
Ni      38.78627497      12.32195859      19.37196670       0.60000000      -0.01041621      -0.02870601       0.01202827       0.00962448
Ni      40.54343786      10.56206345      19.37447680       0.60000000      -0.00565103      -0.17004620      -0.00659711       0.03382537
Ni      40.54529871      12.32408714      17.61149759       0.60000000      -0.00536898      -0.18227623      -0.00087222       0.02712058
Ni      38.78315590      10.56014380      21.13537092       0.60000000      -0.01015017      -0.02241584       0.01192178       0.00943741
Ni      38.78359517      12.32333758      22.89839729       0.60000000      -0.01005955      -0.02117307       0.01480500       0.01081844
Ni      40.54164531      10.56297688      22.90041881       0.60000000      -0.00570940      -0.16737056      -0.01087483       0.04209818
Ni      40.54426675      12.32490103      21.13725057       0.60000000      -0.00529488      -0.18568879      -0.00759402       0.03909137
Ni      38.77980450      10.56157284      24.66204400       0.60000000      -0.00969722      -0.01415412       0.01507614       0.01017696
Ni      38.77958135      12.32581307      26.42619706       0.60000000      -0.00954017      -0.01310178       0.01596090       0.00507119
Ni      40.53893643      10.56457587      26.42712935       0.60000000      -0.00591523      -0.15610982      -0.01415141       0.04246895
Ni      40.54183092      12.32659275      24.66398527       0.60000000      -0.00546449      -0.17892304      -0.01380097       0.04373273
Ni      38.77596228      10.56382061      28.18968023       0.60000000      -0.00918798      -0.00754955       0.01505891       0.00252103
Ni      38.77582115      12.32859407      29.95445745       0.60000000      -0.00902083      -0.00577744       0.00881652      -0.00465945
Ni      40.53620397      10.56645623      29.95409090       0.60000000      -0.00622160      -0.13829873      -0.01644417       0.03612448
Ni      40.53888851      12.32872415      28.19127809       0.60000000      -0.00577971      -0.16283986      -0.01875892       0.03970294
Ni      38.77287934      10.56621195      31.71729649       0.60000000      -0.00879252      -0.00273043       0.00674655      -0.00460026
Ni      38.77298673      12.33075322      33.48179461       0.60000000      -0.00874765      -0.00057456      -0.00143194      -0.00626574
Ni      40.53396925      10.56812900      33.48058009       0.60000000      -0.00656762      -0.11698347      -0.01720286       0.02767967
Ni      40.53620397      12.33064441      31.71827908       0.60000000      -0.00623591      -0.14018645      -0.02115919       0.03131173
Ni      38.77075113      10.56810320      35.24389403       0.60000000      -0.00865056      -0.00062888       0.00027423      -0.00565499
Ni      38.77091956      12.33204788      37.00764503       0.60000000      -0.00875870       0.00034448      -0.00266262      -0.00456767
Ni      40.53226818      10.56934701      37.00619123       0.60000000      -0.00691294      -0.09596271      -0.01621585       0.02036644
Ni      40.53402454      12.33197012      35.24433515       0.60000000      -0.00664777      -0.11538402      -0.02051295       0.02312467
Ni      38.76926071      10.56935458      38.76926071       0.60000000      -0.01009473       0.00198667      -0.00023366       0.00198667
Ni      38.76938057      12.33274162      40.53231384       0.60000000      -0.00847468       0.02166924      -0.01793583      -0.09279140
Ni      40.53097400      10.57014256      40.53097400       0.60000000      -0.00689167      -0.06976027      -0.02867420      -0.06976027
Ni      40.53231384      12.33274162      38.76938057       0.60000000      -0.00847468      -0.09279140      -0.01793583       0.02166924
Ni      38.77316514      14.09047378      -0.00887142       0.60000000      -0.00884077       0.00554078       0.01110688       0.08497955
Ni      38.77460590      15.85196869       1.75226419       0.60000000      -0.01108403       0.00690797       0.00041109      -0.00751230
Ni      40.53586280      14.09037676       1.75359349       0.60000000      -0.00873913      -0.09346838       0.01383558      -0.00963789
Ni      40.53465034      15.85324700      -0.00818910       0.60000000      -0.00680918      -0.08923311       0.02910370       0.08584239
Ni      38.77619828      14.08889850       3.51402506       0.60000000      -0.00967246      -0.00109708      -0.00019321       0.00688122
Ni      38.77817234      15.85023291       5.27513105       0.60000000      -0.00983630      -0.01210959       0.00184395       0.00966362
Ni      40.53865773      14.08903852       5.27682426       0.60000000      -0.00674642      -0.11686051       0.01559924      -0.00448155
Ni      40.53728137      15.85196869       3.51493967       0.60000000      -0.00705308      -0.10821745       0.01811261      -0.00600711
Ni      38.77993609      14.08712818       7.03703620       0.60000000      -0.00985698      -0.01342623       0.00315356       0.00872006
Ni      38.78240545      15.84839784       8.79823678       0.60000000      -0.01011145      -0.01815648       0.00398787       0.00956320
Ni      40.54175103      14.08770829       8.80029517       0.60000000      -0.00628403      -0.14348092       0.01599870      -0.00175698
Ni      40.54042847      15.85059730       7.03825341       0.60000000      -0.00639247      -0.13460536       0.02087420      -0.00530029
Ni      38.78393592      14.08541845      10.56034720       0.60000000      -0.01024396      -0.01857587       0.00678426       0.01098042
Ni      38.78652071      15.84687943      12.32184211       0.60000000      -0.01048430      -0.02826808       0.00832461       0.01229055
Ni      40.54457858      14.08667474      12.32419899       0.60000000      -0.00572325      -0.16902039       0.01356146       0.00540864
Ni      40.54370073      15.84939531      10.56195822       0.60000000      -0.00583657      -0.16332950       0.02135647      -0.00145102
Ni      38.78718125      14.08419778      14.08419778       0.60000000      -0.01051805      -0.02928109       0.01210376       0.01210376
Ni      38.78914133      15.84630471      15.84630471       0.60000000      -0.01064813      -0.03534071       0.01360859       0.01360859
Ni      40.54631430      14.08631656      15.84877832       0.60000000      -0.00519354      -0.18878146       0.00769158       0.01774454
Ni      40.54631430      15.84877832      14.08631656       0.60000000      -0.00519354      -0.18878146       0.01774454       0.00769158
Ni      38.78839367      14.08399865      17.60894350       0.60000000      -0.01059519      -0.03360760       0.01327867       0.01138353
Ni      38.78913493      15.84735389      19.37216914       0.60000000      -0.01065844      -0.03459643       0.01542297       0.01368795
Ni      40.54629902      14.08697853      19.37431960       0.60000000      -0.00495940      -0.19945340      -0.00083031       0.03165368
Ni      40.54740484      15.84921631      17.61164896       0.60000000      -0.00475711      -0.20676478       0.00920341       0.02090101
Ni      38.78690624      14.08527426      21.13508490       0.60000000      -0.01040525      -0.02868154       0.01489029       0.01211304
Ni      38.78669546      15.85032365      22.89994853       0.60000000      -0.01021572      -0.02195626       0.01327431       0.01006889
Ni      40.54455037      14.08874547      22.90100319       0.60000000      -0.00504257      -0.19926830      -0.01043894       0.04050592
Ni      40.54665203      15.85097976      21.13823684       0.60000000      -0.00468599      -0.21443234      -0.00321126       0.03233015
Ni      38.78338840      14.08802843      24.66291397       0.60000000      -0.00985535      -0.01724445       0.01420171       0.00871369
Ni      38.78317624      15.85439373      26.42920448       0.60000000      -0.00960235      -0.01589667       0.00506415      -0.00086555
Ni      40.54179918      14.09119484      26.42854315       0.60000000      -0.00529024      -0.18736220      -0.01939937       0.04013980
Ni      40.54453224      15.85375984      24.66595088       0.60000000      -0.00488713      -0.20941384      -0.01689830       0.03590187
Ni      38.77940602      14.09137498      28.19171660       0.60000000      -0.00932427      -0.01234573       0.00875367      -0.00374585
Ni      38.77958135      15.85767496      29.95805894       0.60000000      -0.00915616      -0.01497277      -0.00447658      -0.01364800
Ni      40.53888851      14.09347778      29.95603172       0.60000000      -0.00575022      -0.16522128      -0.02498725       0.03333752
Ni      40.54179918      15.85654995      28.19389826       0.60000000      -0.00521107      -0.19024738      -0.02729049       0.03208151
Ni      38.77596228      14.09394544      31.71980506       0.60000000      -0.00893121      -0.00624612      -0.00170166      -0.00962809
Ni      38.77619334      15.85912902      33.48495605       0.60000000      -0.00902420      -0.01069139      -0.01018741      -0.01378320
Ni      40.53626087      14.09496941      33.48255503       0.60000000      -0.00629491      -0.13772322      -0.02561421       0.02528168
Ni      40.53893643      15.85835722      31.72091070       0.60000000      -0.00577234      -0.16159633      -0.03076519       0.02563515
Ni      38.77319650      14.09526283      35.24616966       0.60000000      -0.00884021      -0.00189656      -0.00676251      -0.00698142
Ni      38.77329378      15.85933568      37.01000857       0.60000000      -0.00901151      -0.00314344      -0.00660887      -0.00717307
Ni      40.53405715      14.09568776      37.00788098       0.60000000      -0.00675417      -0.11080704      -0.02267565       0.01853595
Ni      40.53625274      15.85905166      35.24652783       0.60000000      -0.00640204      -0.13120768      -0.02828171       0.01936213
Ni      38.77104860      14.09576122      38.77104860       0.60000000      -0.01054062       0.00152404      -0.00151324       0.00152404
Ni      38.77103522      15.85909544      40.53397680       0.60000000      -0.00854719       0.01968418      -0.02332933      -0.10414229
Ni      40.53229685      14.09594983      40.53229685       0.60000000      -0.00671009      -0.08062845      -0.03717626      -0.08062845
Ni      40.53397680      15.85909544      38.77103522       0.60000000      -0.00854719      -0.10414229      -0.02332933       0.01968418
Ni      38.77295995      17.61507861      -0.00933256       0.60000000      -0.00879325       0.01290805       0.01783719       0.09881539
Ni      38.77403634      19.37677960       1.75194395       0.60000000      -0.01124625       0.00692203       0.00105214      -0.00792394
Ni      40.53575425      17.61497042       1.75321446       0.60000000      -0.00885939      -0.09764921       0.01935326      -0.01182700
Ni      40.53423496      19.37798167      -0.00838068       0.60000000      -0.00671020      -0.08417008       0.03870905       0.09575904
Ni      38.77611653      17.61347928       3.51344469       0.60000000      -0.00969364      -0.00143567       0.00065374       0.00755951
Ni      38.77757861      19.37507021       5.27476922       0.60000000      -0.00979455      -0.01320097       0.00308642       0.01021807
Ni      40.53870870      17.61364298       5.27640737       0.60000000      -0.00661398      -0.12313599       0.02373689      -0.00710433
Ni      40.53682783      19.37677960       3.51473544       0.60000000      -0.00698549      -0.11068631       0.02451159      -0.00759396
Ni      38.78016197      17.61164051       7.03638432       0.60000000      -0.00990459      -0.01653370       0.00355801       0.00922183
Ni      38.78192903      19.37326519       8.79796256       0.60000000      -0.01006815      -0.02022913       0.00611390       0.00966845
Ni      40.54209299      17.61234968       8.79993553       0.60000000      -0.00603035      -0.15273228       0.02720655      -0.00601165
Ni      40.54001561      19.37549479       7.03811451       0.60000000      -0.00626659      -0.13867384       0.03025710      -0.00820346
Ni      38.78465781      17.60990939      10.55977357       0.60000000      -0.01032829      -0.02469025       0.00569896       0.01011295
Ni      38.78627497      19.37196670      12.32195859       0.60000000      -0.01041621      -0.02870601       0.00962448       0.01202827
Ni      40.54529871      17.61149759      12.32408714       0.60000000      -0.00536898      -0.18227623       0.02712058      -0.00087222
Ni      40.54343786      19.37447680      10.56206345       0.60000000      -0.00565103      -0.17004620       0.03382537      -0.00659711
Ni      38.78839367      17.60894350      14.08399865       0.60000000      -0.01059519      -0.03360760       0.01138353       0.01327867
Ni      38.78913493      19.37216914      15.84735389       0.60000000      -0.01065844      -0.03459643       0.01368795       0.01542297
Ni      40.54740484      17.61164896      15.84921631       0.60000000      -0.00475711      -0.20676478       0.02090101       0.00920341
Ni      40.54629902      19.37431960      14.08697853       0.60000000      -0.00495940      -0.19945340       0.03165368      -0.00083031
Ni      38.78991606      17.60962096      17.60962096       0.60000000      -0.01074438      -0.03683444       0.01502176       0.01502176
Ni      38.78967243      19.37489443      19.37489443       0.60000000      -0.01056239      -0.02778622       0.01163980       0.01163980
Ni      40.54779115      17.61327943      19.37567859       0.60000000      -0.00447439      -0.22246853       0.00767453       0.02048488
Ni      40.54779115      19.37567859      17.61327943       0.60000000      -0.00447439      -0.22246853       0.02048488       0.00767453
Ni      38.78890303      17.61260411      21.13730211       0.60000000      -0.01047811      -0.02608556       0.01258932       0.01070916
Ni      38.78861724      19.38007210      22.90472232       0.60000000      -0.01014006      -0.01960415      -0.00081360      -0.00144874
Ni      40.54663907      17.61629676      22.90349611       0.60000000      -0.00455940      -0.22586258      -0.01020879       0.02667419
Ni      40.54777802      19.37874420      21.14112079       0.60000000      -0.00436333      -0.23455692       0.00063223       0.01393914
Ni      38.78644319      17.61736239      24.66691035       0.60000000      -0.00992667      -0.01857956       0.00247001       0.00011788
Ni      38.78669546      19.38547926      26.43510414       0.60000000      -0.00977894      -0.02821709      -0.01453717      -0.01787348
Ni      40.54453224      17.61967122      26.43186226       0.60000000      -0.00475346      -0.21272816      -0.02643191       0.02619598
Ni      40.54663907      19.38263261      24.66983197       0.60000000      -0.00442784      -0.22968189      -0.02107177       0.01563934
Ni      38.78338840      17.62166759      28.19655314       0.60000000      -0.00942474      -0.02210501      -0.00963996      -0.01593654
Ni      38.78359517      19.38833808      29.96339779       0.60000000      -0.00941376      -0.03120490      -0.02308163      -0.02644491
Ni      40.54183092      17.62201042      29.95940295       0.60000000      -0.00520489      -0.18540266      -0.03452253       0.02273672
Ni      40.54455037      19.38567283      28.19793056       0.60000000      -0.00470034      -0.20672899      -0.03513840       0.01549092
Ni      38.77980450      17.62359987      31.72407103       0.60000000      -0.00921467      -0.02184456      -0.01614357      -0.02076394
Ni      38.77959834      19.38834311      33.48886363       0.60000000      -0.00928008      -0.02475153      -0.01937977      -0.02219264
Ni      40.53885208      17.62282448      33.48535049       0.60000000      -0.00589584      -0.15272417      -0.03392550       0.01851907
Ni      40.54164531      19.38685803      31.72429996       0.60000000      -0.00533181      -0.17393395      -0.03824931       0.01467982
Ni      38.77618242      17.62355627      35.24927912       0.60000000      -0.00915506      -0.01262921      -0.01196931      -0.01410598
Ni      38.77577566      19.38706734      37.01258604       0.60000000      -0.00932740      -0.01081234      -0.00798875      -0.01229058
Ni      40.53605451      17.62264563      37.00994034       0.60000000      -0.00659852      -0.12195009      -0.02862327       0.01428841
Ni      40.53847256      19.38657161      35.24901134       0.60000000      -0.00613067      -0.14052097      -0.03393185       0.01259670
Ni      38.77314357      17.62280217      38.77314357       0.60000000      -0.01099229       0.00068239      -0.00256637       0.00068239
Ni      38.77273466      19.38569479      40.53562322       0.60000000      -0.00861413       0.01580998      -0.02717849      -0.11140044
Ni      40.53373723      17.62212174      40.53373723       0.60000000      -0.00657246      -0.08965824      -0.04472229      -0.08965824
Ni      40.53562322      19.38569479      38.77273466       0.60000000      -0.00861413      -0.11140044      -0.02717849       0.01580998
Ni      38.77212936      21.14004149      -0.00941841       0.60000000      -0.00865534       0.02072292       0.02434139       0.11092500
Ni      38.77273466      22.90202991       1.75210147       0.60000000      -0.01122113       0.00642588       0.00150238      -0.00757880
Ni      40.53499335      21.13992840       1.75320572       0.60000000      -0.00895154      -0.09733005       0.02382566      -0.01303502
Ni      40.53334442      22.90301395      -0.00822346       0.60000000      -0.00666222      -0.07508308       0.04590222       0.10249382
Ni      38.77501763      21.13857452       3.51335916       0.60000000      -0.00955993      -0.00134875       0.00149150       0.00774314
Ni      38.77577566      22.90056281       5.27504411       0.60000000      -0.00957195      -0.01077454       0.00489539       0.00972264
Ni      40.53777143      21.13875410       5.27647616       0.60000000      -0.00657765      -0.12311469       0.03055303      -0.00865056
Ni      40.53562322      22.90202991       3.51499004       0.60000000      -0.00696962      -0.10774152       0.02873280      -0.00816075
Ni      38.77881110      21.13686295       7.03639362       0.60000000      -0.00978067      -0.01597292       0.00611778       0.01014946
Ni      38.77959834      22.89907298       8.79855246       0.60000000      -0.00979432      -0.01555794       0.00988787       0.01142319
Ni      40.54103993      21.13767805       8.80023019       0.60000000      -0.00598042      -0.15375158       0.03689112      -0.00934199
Ni      40.53847256      22.90101778       7.03857804       0.60000000      -0.00631102      -0.13544281       0.03648540      -0.00983896
Ni      38.78315590      21.13537092      10.56014380       0.60000000      -0.01015017      -0.02241584       0.00943741       0.01192178
Ni      38.78359517      22.89839729      12.32333758       0.60000000      -0.01005955      -0.02117307       0.01081844       0.01480500
Ni      40.54426675      21.13725057      12.32490103       0.60000000      -0.00529488      -0.18568879       0.03909137      -0.00759402
Ni      40.54164531      22.90041881      10.56297688       0.60000000      -0.00570940      -0.16737056       0.04209818      -0.01087483
Ni      38.78690624      21.13508490      14.08527426       0.60000000      -0.01040525      -0.02868154       0.01211304       0.01489029
Ni      38.78669546      22.89994853      15.85032365       0.60000000      -0.01021572      -0.02195626       0.01006889       0.01327431
Ni      40.54665203      21.13823684      15.85097976       0.60000000      -0.00468599      -0.21443234       0.03233015      -0.00321126
Ni      40.54455037      22.90100319      14.08874547       0.60000000      -0.00504257      -0.19926830       0.04050592      -0.01043894
Ni      38.78890303      21.13730211      17.61260411       0.60000000      -0.01047811      -0.02608556       0.01070916       0.01258932
Ni      38.78861724      22.90472232      19.38007210       0.60000000      -0.01014006      -0.01960415      -0.00144874      -0.00081360
Ni      40.54777802      21.14112079      19.37874420       0.60000000      -0.00436333      -0.23455692       0.01393914       0.00063223
Ni      40.54663907      22.90349611      17.61629676       0.60000000      -0.00455940      -0.22586258       0.02667419      -0.01020879
Ni      38.78937346      21.14249237      21.14249237       0.60000000      -0.01024034      -0.02065924      -0.00238699      -0.00238699
Ni      38.78967243      22.91140104      22.91140104       0.60000000      -0.01004930      -0.02988587      -0.02076500      -0.02076500
Ni      40.54777802      21.14530828      22.90768487       0.60000000      -0.00427129      -0.23880138      -0.01102630       0.00221270
Ni      40.54777802      22.90768487      21.14530828       0.60000000      -0.00427129      -0.23880138       0.00221270      -0.01102630
Ni      38.78890303      21.14876253      24.67346053       0.60000000      -0.00997734      -0.02967414      -0.01855880      -0.01938298
Ni      38.78913493      22.91658987      26.44140513       0.60000000      -0.00979946      -0.04018999      -0.03535158      -0.03579086
Ni      40.54665203      21.14906032      26.43631740       0.60000000      -0.00432020      -0.22280711      -0.03115510       0.00409535
Ni      40.54779115      22.91198122      24.67438038       0.60000000      -0.00414037      -0.23152034      -0.02217674      -0.00949360
Ni      38.78690624      21.15281734      28.20262798       0.60000000      -0.00964386      -0.03804452      -0.02934457      -0.03172336
Ni      38.78627497      22.91810667      29.96811478       0.60000000      -0.00957226      -0.04709043      -0.03264384      -0.03529892
Ni      40.54426675      21.15087031      29.96321984       0.60000000      -0.00480699      -0.19280585      -0.03960090       0.00697135
Ni      40.54629902      22.91454343      28.20188451       0.60000000      -0.00441301      -0.20708315      -0.03657467      -0.00426363
Ni      38.78315590      21.15336239      31.72858951       0.60000000      -0.00943638      -0.03742794      -0.02618416      -0.02955517
Ni      38.78192903      22.91669171      33.49199435       0.60000000      -0.00955037      -0.03871771      -0.02381853      -0.03083829
Ni      40.54103993      21.15072157      33.48816942       0.60000000      -0.00559745      -0.15855444      -0.03798213       0.00851350
Ni      40.54343786      22.91482793      31.72724128       0.60000000      -0.00502167      -0.17418007      -0.03937598       0.00124750
Ni      38.77881110      21.15179391      35.25226324       0.60000000      -0.00940701      -0.02322578      -0.01609769      -0.02039489
Ni      38.77757861      22.91425098      37.01455198       0.60000000      -0.00956324      -0.01553309      -0.01018389      -0.01545844
Ni      40.53777143      21.14957869      37.01185663       0.60000000      -0.00647031      -0.12674392      -0.03148627       0.00806104
Ni      40.54001561      22.91363329      35.25101357       0.60000000      -0.00601870      -0.14168953      -0.03477586       0.00399764
Ni      38.77501763      21.14980227      38.77501763       0.60000000      -0.01142171      -0.00205090      -0.00244009      -0.00205090
Ni      38.77403634      22.91199218      40.53682783       0.60000000      -0.00867287       0.01050835      -0.02788834      -0.11301115
Ni      40.53499335      21.14827066      40.53499335       0.60000000      -0.00651641      -0.09508300      -0.04881732      -0.09508300
Ni      40.53682783      22.91199218      38.77403634       0.60000000      -0.00867287      -0.11301115      -0.02788834       0.01050835
Ni      38.77084532      24.66533415      -0.00907074       0.60000000      -0.00847272       0.02680041       0.02872713       0.11769031
Ni      38.77103522      26.42764922       1.75276786       0.60000000      -0.01100617       0.00556836       0.00148227      -0.00664802
Ni      40.53373723      24.66522668       1.75361119       0.60000000      -0.00898682      -0.09275753       0.02590504      -0.01323404
Ni      40.53217664      26.42827400      -0.00771213       0.60000000      -0.00668585      -0.06431262       0.04880801       0.10365795
Ni      38.77314357      24.66420286       3.51386146       0.60000000      -0.00929636      -0.00038165       0.00186168       0.00695328
Ni      38.77329378      26.42667823       5.27600534       0.60000000      -0.00921490      -0.00721804       0.00546433       0.00933720
Ni      40.53605451      24.66438032       5.27708561       0.60000000      -0.00664536      -0.11712327       0.03360381      -0.00912197
Ni      40.53397680      26.42764922       3.51570944       0.60000000      -0.00699853      -0.10027391       0.02942891      -0.00807647
Ni      38.77618242      24.66290959       7.03718674       0.60000000      -0.00945895      -0.01084139       0.00844314       0.01067111
Ni      38.77619334      26.42585881       8.80003178       0.60000000      -0.00933344      -0.00871054       0.00832111       0.01367872
Ni      40.53885208      24.66374460       8.80121859       0.60000000      -0.00610854      -0.14670040       0.04101396      -0.01144431
Ni      40.53625274      26.42710282       7.03962665       0.60000000      -0.00644840      -0.12586283       0.03715982      -0.01052595
Ni      38.77980450      24.66204400      10.56157284       0.60000000      -0.00969722      -0.01415412       0.01017696       0.01507614
Ni      38.77958135      26.42619706      12.32581307       0.60000000      -0.00954017      -0.01310178       0.00507119       0.01596090
Ni      40.54183092      24.66398527      12.32659275       0.60000000      -0.00546449      -0.17892304       0.04373273      -0.01380097
Ni      40.53893643      26.42712935      10.56457587       0.60000000      -0.00591523      -0.15610982       0.04246895      -0.01415141
Ni      38.78338840      24.66291397      14.08802843       0.60000000      -0.00985535      -0.01724445       0.00871369       0.01420171
Ni      38.78317624      26.42920448      15.85439373       0.60000000      -0.00960235      -0.01589667      -0.00086555       0.00506415
Ni      40.54453224      24.66595088      15.85375984       0.60000000      -0.00488713      -0.20941384       0.03590187      -0.01689830
Ni      40.54179918      26.42854315      14.09119484       0.60000000      -0.00529024      -0.18736220       0.04013980      -0.01939937
Ni      38.78644319      24.66691035      17.61736239       0.60000000      -0.00992667      -0.01857956       0.00011788       0.00247001
Ni      38.78669546      26.43510414      19.38547926       0.60000000      -0.00977894      -0.02821709      -0.01787348      -0.01453717
Ni      40.54663907      24.66983197      19.38263261       0.60000000      -0.00442784      -0.22968189       0.01563934      -0.02107177
Ni      40.54453224      26.43186226      17.61967122       0.60000000      -0.00475346      -0.21272816       0.02619598      -0.02643191
Ni      38.78890303      24.67346053      21.14876253       0.60000000      -0.00997734      -0.02967414      -0.01938298      -0.01855880
Ni      38.78913493      26.44140513      22.91658987       0.60000000      -0.00979946      -0.04018999      -0.03579086      -0.03535158
Ni      40.54779115      24.67438038      22.91198122       0.60000000      -0.00414037      -0.23152034      -0.00949360      -0.02217674
Ni      40.54665203      26.43631740      21.14906032       0.60000000      -0.00432020      -0.22280711       0.00409535      -0.03115510
Ni      38.78991606      24.67944780      24.67944780       0.60000000      -0.00983696      -0.04008983      -0.03757541      -0.03757541
Ni      38.78914133      26.44510292      26.44510292       0.60000000      -0.00966743      -0.05248960      -0.04183234      -0.04183234
Ni      40.54740484      24.67764284      26.44007549       0.60000000      -0.00422109      -0.21484611      -0.02872737      -0.01711737
Ni      40.54740484      26.44007549      24.67764284       0.60000000      -0.00422109      -0.21484611      -0.01711737      -0.02872737
Ni      38.78839367      24.68210864      28.20705349       0.60000000      -0.00965798      -0.05167450      -0.03890905      -0.03939574
Ni      38.78652071      26.44530000      29.97033731       0.60000000      -0.00965925      -0.06185034      -0.04479050      -0.04770108
Ni      40.54529871      24.67858517      29.96599561       0.60000000      -0.00454512      -0.18580309      -0.03691698      -0.00885962
Ni      40.54631430      26.44175163      28.20421339       0.60000000      -0.00430170      -0.19211138      -0.03020997      -0.02016124
Ni      38.78465781      24.68133286      31.73146869       0.60000000      -0.00964470      -0.05335598      -0.03357897      -0.04031658
Ni      38.78240545      26.44313515      33.49329621       0.60000000      -0.00955749      -0.04255702      -0.02336682      -0.03119580
Ni      40.54209299      24.67762864      33.49004278       0.60000000      -0.00553973      -0.15452635      -0.03579833      -0.00231564
Ni      40.54370073      26.44130136      31.72873845       0.60000000      -0.00513100      -0.16396372      -0.03368221      -0.01074240
Ni      38.78016197      24.67880634      35.25406254       0.60000000      -0.00959725      -0.02905478      -0.01651632      -0.02328804
Ni      38.77817234      26.44022528      37.01532714       0.60000000      -0.00968992      -0.01627456      -0.00834986      -0.01496675
Ni      40.53870870      24.67583082      37.01306642       0.60000000      -0.00652223      -0.12470908      -0.03014276       0.00103928
Ni      40.54042847      26.43960112      35.25194501       0.60000000      -0.00609946      -0.13479564      -0.03076805      -0.00432241
Ni      38.77611653      24.67608194      38.77611653       0.60000000      -0.01158207      -0.00101844      -0.00129699      -0.00101844
Ni      38.77460590      26.43757687      40.53728137       0.60000000      -0.00871143       0.00480908      -0.02538015      -0.10875646
Ni      40.53575425      24.67399828      40.53575425       0.60000000      -0.00656570      -0.09590493      -0.04801008      -0.09590493
Ni      40.53728137      26.43757687      38.77460590       0.60000000      -0.00871143      -0.10875646      -0.02538015       0.00480908
Ni      38.76942402      28.19082997      -0.00831373       0.60000000      -0.00831303       0.02968546       0.02983849       0.11677603
Ni      38.76938057      29.95342405       1.75385183       0.60000000      -0.01065859       0.00465222       0.00102334      -0.00564723
Ni      40.53229685      28.19074025       1.75439323       0.60000000      -0.00895090      -0.08503986       0.02512838      -0.01282940
Ni      40.53098509      29.95361624      -0.00691492       0.60000000      -0.00678229      -0.05400166       0.04710113       0.09852247
Ni      38.77104860      28.19021061       3.51492323       0.60000000      -0.00900598      -0.00063793       0.00155245       0.00702714
Ni      38.77091956      29.95310553       5.27750839       0.60000000      -0.00885126      -0.00579812       0.00185464       0.00986444
Ni      40.53405715      28.19036104       5.27816782       0.60000000      -0.00674091      -0.10655154       0.03205384      -0.00916339
Ni      40.53231384      29.95342405       3.51678511       0.60000000      -0.00706024      -0.08991194       0.02681835      -0.00795086
Ni      38.77319650      28.18961144       7.03870461       0.60000000      -0.00902352      -0.00671574       0.00549321       0.01167790
Ni      38.77298673      29.95314789       8.80210650       0.60000000      -0.00889160      -0.00528512       0.00043782       0.01215644
Ni      40.53626087      28.19032262       8.80273700       0.60000000      -0.00630497      -0.13316882       0.03823266      -0.01281622
Ni      40.53402454      29.95343156       7.04106653       0.60000000      -0.00659160      -0.11185991       0.03276426      -0.01100019
Ni      38.77596228      28.18968023      10.56382061       0.60000000      -0.00918798      -0.00754955       0.00252103       0.01505891
Ni      38.77582115      29.95445745      12.32859407       0.60000000      -0.00902083      -0.00577744      -0.00465945       0.00881652
Ni      40.53888851      28.19127809      12.32872415       0.60000000      -0.00577971      -0.16283986       0.03970294      -0.01875892
Ni      40.53620397      29.95409090      10.56645623       0.60000000      -0.00622160      -0.13829873       0.03612448      -0.01644417
Ni      38.77940602      28.19171660      14.09137498       0.60000000      -0.00932427      -0.01234573      -0.00374585       0.00875367
Ni      38.77958135      29.95805894      15.85767496       0.60000000      -0.00915616      -0.01497277      -0.01364800      -0.00447658
Ni      40.54179918      28.19389826      15.85654995       0.60000000      -0.00521107      -0.19024738       0.03208151      -0.02729049
Ni      40.53888851      29.95603172      14.09347778       0.60000000      -0.00575022      -0.16522128       0.03333752      -0.02498725
Ni      38.78338840      28.19655314      17.62166759       0.60000000      -0.00942474      -0.02210501      -0.01593654      -0.00963996
Ni      38.78359517      29.96339779      19.38833808       0.60000000      -0.00941376      -0.03120490      -0.02644491      -0.02308163
Ni      40.54455037      28.19793056      19.38567283       0.60000000      -0.00470034      -0.20672899       0.01549092      -0.03513840
Ni      40.54183092      29.95940295      17.62201042       0.60000000      -0.00520489      -0.18540266       0.02273672      -0.03452253
Ni      38.78690624      28.20262798      21.15281734       0.60000000      -0.00964386      -0.03804452      -0.03172336      -0.02934457
Ni      38.78627497      29.96811478      22.91810667       0.60000000      -0.00957226      -0.04709043      -0.03529892      -0.03264384
Ni      40.54629902      28.20188451      22.91454343       0.60000000      -0.00441301      -0.20708315      -0.00426363      -0.03657467
Ni      40.54426675      29.96321984      21.15087031       0.60000000      -0.00480699      -0.19280585       0.00697135      -0.03960090
Ni      38.78839367      28.20705349      24.68210864       0.60000000      -0.00965798      -0.05167450      -0.03939574      -0.03890905
Ni      38.78652071      29.97033731      26.44530000       0.60000000      -0.00965925      -0.06185034      -0.04770108      -0.04479050
Ni      40.54631430      28.20421339      26.44175163       0.60000000      -0.00430170      -0.19211138      -0.02016124      -0.03020997
Ni      40.54529871      29.96599561      24.67858517       0.60000000      -0.00454512      -0.18580309      -0.00885962      -0.03691698
Ni      38.78718125      28.20832350      28.20832350       0.60000000      -0.00965563      -0.06398564      -0.05021876      -0.05021876
Ni      38.78447930      29.96987277      29.96987277       0.60000000      -0.00924271      -0.05214308      -0.03899762      -0.03899762
Ni      40.54457858      28.20443292      29.96690868       0.60000000      -0.00492066      -0.16906702      -0.02817499      -0.01998808
Ni      40.54457858      29.96690868      28.20443292       0.60000000      -0.00492066      -0.16906702      -0.01998808      -0.02817499
Ni      38.78393592      28.20690210      31.73197335       0.60000000      -0.00935659      -0.05022342      -0.03346381      -0.03678897
Ni      38.78113266      29.96767821      33.49272815       0.60000000      -0.00964796      -0.04657579      -0.02877957      -0.03671183
Ni      40.54175103      28.20309226      33.49050538       0.60000000      -0.00566661      -0.14182664      -0.02899277      -0.01100295
Ni      40.54247145      29.96612421      31.72859560       0.60000000      -0.00537943      -0.14536801      -0.02465347      -0.01824733
Ni      38.77993609      28.20417458      35.25426657       0.60000000      -0.00972494      -0.03250009      -0.01472778      -0.02571088
Ni      38.77754464      29.96491041      37.01486636       0.60000000      -0.00960906      -0.01358557      -0.00225650      -0.01149451
Ni      40.53865773      28.20108439      37.01329866       0.60000000      -0.00669313      -0.11638613      -0.02540922      -0.00513231
Ni      40.53970675      29.96436007      35.25170586       0.60000000      -0.00638481      -0.12193632      -0.02385808      -0.01034024
Ni      38.77619828      28.20132485      38.77619828       0.60000000      -0.01147354       0.00089399      -0.00009213       0.00089399
Ni      38.77437803      29.96233278      40.53693899       0.60000000      -0.00870470      -0.00002665      -0.02079547      -0.09972471
Ni      40.53586280      28.19907954      40.53586280       0.60000000      -0.00670332      -0.09220452      -0.04273502      -0.09220452
Ni      40.53693899      29.96233278      38.77437803       0.60000000      -0.00870470      -0.09972471      -0.02079547      -0.00002665
Ni      38.76816076      31.71631758      -0.00727050       0.60000000      -0.00821467       0.02927448       0.02787668       0.10846803
Ni      38.76806371      33.47905776       1.75514647       0.60000000      -0.01025838       0.00392065       0.00042474      -0.00491405
Ni      40.53097400      31.71625378       1.75542234       0.60000000      -0.00885690      -0.07559136       0.02215760      -0.01224557
Ni      40.52995630      33.47885922      -0.00596077       0.60000000      -0.00692720      -0.04529648       0.04197035       0.08839679
Ni      38.76926071      31.71625137       3.51634524       0.60000000      -0.00871905      -0.00047471       0.00087690       0.00616927
Ni      38.76913583      33.47932669       5.27920764       0.60000000      -0.00855692      -0.00482596      -0.00197703       0.00780151
Ni      40.53226818      31.71635635       5.27951213       0.60000000      -0.00686929      -0.09350103       0.02728108      -0.00932445
Ni      40.53093013      33.47905776       3.51801289       0.60000000      -0.00714517      -0.07830291       0.02234595      -0.00799197
Ni      38.77075113      31.71639569       7.04060487       0.60000000      -0.00869137      -0.00608674      -0.00236887       0.01044531
Ni      38.77067418      33.48005060       8.80419396       0.60000000      -0.00864893      -0.00417137      -0.00623043       0.00628265
Ni      40.53396925      31.71687203       8.80442094       0.60000000      -0.00652707      -0.11555083       0.03119081      -0.01375321
Ni      40.53222137      33.47952554       7.04257540       0.60000000      -0.00678411      -0.09597998       0.02613288      -0.01136172
Ni      38.77287934      31.71729649      10.56621195       0.60000000      -0.00879252      -0.00273043      -0.00460026       0.00674655
Ni      38.77298673      33.48179461      12.33075322       0.60000000      -0.00874765      -0.00057456      -0.00626574      -0.00143194
Ni      40.53620397      31.71827908      12.33064441       0.60000000      -0.00623591      -0.14018645       0.03131173      -0.02115919
Ni      40.53396925      33.48058009      10.56812900       0.60000000      -0.00656762      -0.11698347       0.02767967      -0.01720286
Ni      38.77596228      31.71980506      14.09394544       0.60000000      -0.00893121      -0.00624612      -0.00962809      -0.00170166
Ni      38.77619334      33.48495605      15.85912902       0.60000000      -0.00902420      -0.01069139      -0.01378320      -0.01018741
Ni      40.53893643      31.72091070      15.85835722       0.60000000      -0.00577234      -0.16159633       0.02563515      -0.03076519
Ni      40.53626087      33.48255503      14.09496941       0.60000000      -0.00629491      -0.13772322       0.02528168      -0.02561421
Ni      38.77980450      31.72407103      17.62359987       0.60000000      -0.00921467      -0.02184456      -0.02076394      -0.01614357
Ni      38.77959834      33.48886363      19.38834311       0.60000000      -0.00928008      -0.02475153      -0.02219264      -0.01937977
Ni      40.54164531      31.72429996      19.38685803       0.60000000      -0.00533181      -0.17393395       0.01467982      -0.03824931
Ni      40.53885208      33.48535049      17.62282448       0.60000000      -0.00589584      -0.15272417       0.01851907      -0.03392550
Ni      38.78315590      31.72858951      21.15336239       0.60000000      -0.00943638      -0.03742794      -0.02955517      -0.02618416
Ni      38.78192903      33.49199435      22.91669171       0.60000000      -0.00955037      -0.03871771      -0.03083829      -0.02381853
Ni      40.54343786      31.72724128      22.91482793       0.60000000      -0.00502167      -0.17418007       0.00124750      -0.03937598
Ni      40.54103993      33.48816942      21.15072157       0.60000000      -0.00559745      -0.15855444       0.00851350      -0.03798213
Ni      38.78465781      31.73146869      24.68133286       0.60000000      -0.00964470      -0.05335598      -0.04031658      -0.03357897
Ni      38.78240545      33.49329621      26.44313515       0.60000000      -0.00955749      -0.04255702      -0.03119580      -0.02336682
Ni      40.54370073      31.72873845      26.44130136       0.60000000      -0.00513100      -0.16396372      -0.01074240      -0.03368221
Ni      40.54209299      33.49004278      24.67762864       0.60000000      -0.00553973      -0.15452635      -0.00231564      -0.03579833
Ni      38.78393592      31.73197335      28.20690210       0.60000000      -0.00935659      -0.05022342      -0.03678897      -0.03346381
Ni      38.78113266      33.49272815      29.96767821       0.60000000      -0.00964796      -0.04657579      -0.03671183      -0.02877957
Ni      40.54247145      31.72859560      29.96612421       0.60000000      -0.00537943      -0.14536801      -0.01824733      -0.02465347
Ni      40.54175103      33.49050538      28.20309226       0.60000000      -0.00566661      -0.14182664      -0.01100295      -0.02899277
Ni      38.78155676      31.73055193      31.73055193       0.60000000      -0.00956861      -0.05210030      -0.04008721      -0.04008721
Ni      38.77877011      33.49091454      33.49091454       0.60000000      -0.00923814      -0.02598160      -0.02038986      -0.02038986
Ni      40.54027556      31.72726470      33.48971577       0.60000000      -0.00617421      -0.12470260      -0.02051188      -0.01573230
Ni      40.54027556      33.48971577      31.72726470       0.60000000      -0.00617421      -0.12470260      -0.01573230      -0.02051188
Ni      38.77845031      31.72815237      35.25314102       0.60000000      -0.00938290      -0.02256081      -0.00967706      -0.01965307
Ni      38.77606039      33.48861674      37.01352113       0.60000000      -0.00933276      -0.01066242      -0.00095205      -0.01288863
Ni      40.53775073      31.72539846      37.01264735       0.60000000      -0.00687875      -0.10357402      -0.01928897      -0.00918948
Ni      40.53818830      33.48817307      35.25059283       0.60000000      -0.00666686      -0.10546060      -0.01680258      -0.01329489
Ni      38.77538780      31.72560520      38.77538780       0.60000000      -0.01119524       0.00043921       0.00066393       0.00043921
Ni      38.77352397      33.48638751      40.53598327       0.60000000      -0.00864433      -0.00322331      -0.01565514      -0.08785805
Ni      40.53536459      31.72350789      40.53536459       0.60000000      -0.00688453      -0.08498877      -0.03486964      -0.08498877
Ni      40.53598327      33.48638751      38.77352397       0.60000000      -0.00864433      -0.08785805      -0.01565514      -0.00322331
Ni      38.76719300      35.24158385      -0.00612198       0.60000000      -0.00816835       0.02650371       0.02401130       0.09528320
Ni      38.76713081      37.00431885       1.75642573       0.60000000      -0.00987870       0.00337540       0.00006102      -0.00434282
Ni      40.52991971      35.24154647       1.75652179       0.60000000      -0.00872790      -0.06564167       0.01821625      -0.01157601
Ni      40.52915405      37.00385845      -0.00498985       0.60000000      -0.00708571      -0.03834300       0.03525990       0.07573983
Ni      38.76797487      35.24194822       3.51783047       0.60000000      -0.00852486      -0.00076049       0.00029382       0.00552748
Ni      38.76793901      37.00494712       5.28075828       0.60000000      -0.00848482      -0.00378559      -0.00448377       0.00414801
Ni      40.53089373      35.24200685       5.28085096       0.60000000      -0.00699975      -0.07973663       0.02152278      -0.00941883
Ni      40.52989272      37.00431885       3.51918764       0.60000000      -0.00725206      -0.06678566       0.01765713      -0.00791538
Ni      38.76908285      35.24260688       7.04241459       0.60000000      -0.00849506      -0.00484912      -0.00564031       0.00482769
Ni      38.76913583      37.00597386       8.80585481       0.60000000      -0.00854467      -0.00124429      -0.00508758       0.00038117
Ni      40.53222137      35.24285188       8.80590174       0.60000000      -0.00681794      -0.09697178       0.02362433      -0.01382593
Ni      40.53089373      37.00504030       7.04388441       0.60000000      -0.00701217      -0.08035552       0.01983102      -0.01114824
Ni      38.77075113      35.24389403      10.56810320       0.60000000      -0.00865056      -0.00062888      -0.00565499       0.00027423
Ni      38.77091956      37.00764503      12.33204788       0.60000000      -0.00875870       0.00034448      -0.00456767      -0.00266262
Ni      40.53402454      35.24433515      12.33197012       0.60000000      -0.00664777      -0.11538402       0.02312467      -0.02051295
Ni      40.53226818      37.00619123      10.56934701       0.60000000      -0.00691294      -0.09596271       0.02036644      -0.01621585
Ni      38.77319650      35.24616966      14.09526283       0.60000000      -0.00884021      -0.00189656      -0.00698142      -0.00676251
Ni      38.77329378      37.01000857      15.85933568       0.60000000      -0.00901151      -0.00314344      -0.00717307      -0.00660887
Ni      40.53625274      35.24652783      15.85905166       0.60000000      -0.00640204      -0.13120768       0.01936213      -0.02828171
Ni      40.53405715      37.00788098      14.09568776       0.60000000      -0.00675417      -0.11080704       0.01853595      -0.02267565
Ni      38.77618242      35.24927912      17.62355627       0.60000000      -0.00915506      -0.01262921      -0.01410598      -0.01196931
Ni      38.77577566      37.01258604      19.38706734       0.60000000      -0.00932740      -0.01081234      -0.01229058      -0.00798875
Ni      40.53847256      35.24901134      19.38657161       0.60000000      -0.00613067      -0.14052097       0.01259670      -0.03393185
Ni      40.53605451      37.00994034      17.62264563       0.60000000      -0.00659852      -0.12195009       0.01428841      -0.02862327
Ni      38.77881110      35.25226324      21.15179391       0.60000000      -0.00940701      -0.02322578      -0.02039489      -0.01609769
Ni      38.77757861      37.01455198      22.91425098       0.60000000      -0.00956324      -0.01553309      -0.01545844      -0.01018389
Ni      40.54001561      35.25101357      22.91363329       0.60000000      -0.00601870      -0.14168953       0.00399764      -0.03477586
Ni      40.53777143      37.01185663      21.14957869       0.60000000      -0.00647031      -0.12674392       0.00806104      -0.03148627
Ni      38.78016197      35.25406254      24.67880634       0.60000000      -0.00959725      -0.02905478      -0.02328804      -0.01651632
Ni      38.77817234      37.01532714      26.44022528       0.60000000      -0.00968992      -0.01627456      -0.01496675      -0.00834986
Ni      40.54042847      35.25194501      26.43960112       0.60000000      -0.00609946      -0.13479564      -0.00432241      -0.03076805
Ni      40.53870870      37.01306642      24.67583082       0.60000000      -0.00652223      -0.12470908       0.00103928      -0.03014276
Ni      38.77993609      35.25426657      28.20417458       0.60000000      -0.00972494      -0.03250009      -0.02571088      -0.01472778
Ni      38.77754464      37.01486636      29.96491041       0.60000000      -0.00960906      -0.01358557      -0.01149451      -0.00225650
Ni      40.53970675      35.25170586      29.96436007       0.60000000      -0.00638481      -0.12193632      -0.01034024      -0.02385808
Ni      40.53865773      37.01329866      28.20108439       0.60000000      -0.00669313      -0.11638613      -0.00513231      -0.02540922
Ni      38.77845031      35.25314102      31.72815237       0.60000000      -0.00938290      -0.02256081      -0.01965307      -0.00967706
Ni      38.77606039      37.01352113      33.48861674       0.60000000      -0.00933276      -0.01066242      -0.01288863      -0.00095205
Ni      40.53818830      35.25059283      33.48817307       0.60000000      -0.00666686      -0.10546060      -0.01329489      -0.01680258
Ni      40.53775073      37.01264735      31.72539846       0.60000000      -0.00687875      -0.10357402      -0.00918948      -0.01928897
Ni      38.77629677      35.25126999      35.25126999       0.60000000      -0.00914483      -0.01486906      -0.01080057      -0.01080057
Ni      38.77419197      37.01176291      37.01176291       0.60000000      -0.00933071      -0.01123227      -0.00767395      -0.00767395
Ni      40.53631463      35.24904254      37.01142507       0.60000000      -0.00697295      -0.08857033      -0.01357006      -0.01088653
Ni      40.53631463      37.01142507      35.24904254       0.60000000      -0.00697295      -0.08857033      -0.01088653      -0.01357006
Ni      38.77401891      35.24920796      38.77401891       0.60000000      -0.01084865      -0.00403951       0.00129805      -0.00403951
Ni      38.77231785      37.00997444      40.53469207       0.60000000      -0.00855971      -0.00478766      -0.01092140      -0.07512447
Ni      40.53444311      35.24742346      40.53444311       0.60000000      -0.00706318      -0.07568981      -0.02655930      -0.07568981
Ni      40.53469207      37.00997444      38.77231785       0.60000000      -0.00855971      -0.07512447      -0.01092140      -0.00478766
Ni      38.76650626      38.76650626      -0.00502778       0.60000000      -0.00906153       0.02264936       0.02264936       0.08028671
Ni      38.76648974      40.52913450       1.75754436       0.60000000      -0.00952325       0.01749659      -0.05599536      -0.01070540
Ni      40.52913450      38.76648974       1.75754436       0.60000000      -0.00952325      -0.05599536       0.01749659      -0.01070540
Ni      40.52855432      40.52855432      -0.00410343       0.60000000      -0.00706309      -0.02548746      -0.02548746       0.05860631
Ni      38.76710657      38.76710657       3.51914910       0.60000000      -0.00939286       0.00343337       0.00343337       0.00048037
Ni      38.76713081      40.52989272       5.28199960       0.60000000      -0.00834204       0.02007380      -0.06707038      -0.00908621
Ni      40.52989272      38.76713081       5.28199960       0.60000000      -0.00834204      -0.06707038       0.02007380      -0.00908621
Ni      40.52913450      40.52913450       3.52018912       0.60000000      -0.00723332      -0.04902800      -0.04902800      -0.01562796
Ni      38.76797487      38.76797487       7.04385712       0.60000000      -0.00975600      -0.00032842      -0.00032842       0.00039735
Ni      38.76806371      40.53093013       8.80701884       0.60000000      -0.00840252       0.02169929      -0.07973124      -0.01285101
Ni      40.53093013      38.76806371       8.80701884       0.60000000      -0.00840252      -0.07973124       0.02169929      -0.01285101
Ni      40.52991971      40.52991971       7.04489503       0.60000000      -0.00707284      -0.05884489      -0.05884489      -0.02122245
Ni      38.76926071      38.76926071      10.56935458       0.60000000      -0.01009473       0.00198667       0.00198667      -0.00023366
Ni      38.76938057      40.53231384      12.33274162       0.60000000      -0.00847468       0.02166924      -0.09279140      -0.01793583
Ni      40.53231384      38.76938057      12.33274162       0.60000000      -0.00847468      -0.09279140       0.02166924      -0.01793583
Ni      40.53097400      40.53097400      10.57014256       0.60000000      -0.00689167      -0.06976027      -0.06976027      -0.02867420
Ni      38.77104860      38.77104860      14.09576122       0.60000000      -0.01054062       0.00152404       0.00152404      -0.00151324
Ni      38.77103522      40.53397680      15.85909544       0.60000000      -0.00854719       0.01968418      -0.10414229      -0.02332933
Ni      40.53397680      38.77103522      15.85909544       0.60000000      -0.00854719      -0.10414229       0.01968418      -0.02332933
Ni      40.53229685      40.53229685      14.09594983       0.60000000      -0.00671009      -0.08062845      -0.08062845      -0.03717626
Ni      38.77314357      38.77314357      17.62280217       0.60000000      -0.01099229       0.00068239       0.00068239      -0.00256637
Ni      38.77273466      40.53562322      19.38569479       0.60000000      -0.00861413       0.01580998      -0.11140044      -0.02717849
Ni      40.53562322      38.77273466      19.38569479       0.60000000      -0.00861413      -0.11140044       0.01580998      -0.02717849
Ni      40.53373723      40.53373723      17.62212174       0.60000000      -0.00657246      -0.08965824      -0.08965824      -0.04472229
Ni      38.77501763      38.77501763      21.14980227       0.60000000      -0.01142171      -0.00205090      -0.00205090      -0.00244009
Ni      38.77403634      40.53682783      22.91199218       0.60000000      -0.00867287       0.01050835      -0.11301115      -0.02788834
Ni      40.53682783      38.77403634      22.91199218       0.60000000      -0.00867287      -0.11301115       0.01050835      -0.02788834
Ni      40.53499335      40.53499335      21.14827066       0.60000000      -0.00651641      -0.09508300      -0.09508300      -0.04881732
Ni      38.77611653      38.77611653      24.67608194       0.60000000      -0.01158207      -0.00101844      -0.00101844      -0.00129699
Ni      38.77460590      40.53728137      26.43757687       0.60000000      -0.00871143       0.00480908      -0.10875646      -0.02538015
Ni      40.53728137      38.77460590      26.43757687       0.60000000      -0.00871143      -0.10875646       0.00480908      -0.02538015
Ni      40.53575425      40.53575425      24.67399828       0.60000000      -0.00656570      -0.09590493      -0.09590493      -0.04801008
Ni      38.77619828      38.77619828      28.20132485       0.60000000      -0.01147354       0.00089399       0.00089399      -0.00009213
Ni      38.77437803      40.53693899      29.96233278       0.60000000      -0.00870470      -0.00002665      -0.09972471      -0.02079547
Ni      40.53693899      38.77437803      29.96233278       0.60000000      -0.00870470      -0.09972471      -0.00002665      -0.02079547
Ni      40.53586280      40.53586280      28.19907954       0.60000000      -0.00670332      -0.09220452      -0.09220452      -0.04273502
Ni      38.77538780      38.77538780      31.72560520       0.60000000      -0.01119524       0.00043921       0.00043921       0.00066393
Ni      38.77352397      40.53598327      33.48638751       0.60000000      -0.00864433      -0.00322331      -0.08785805      -0.01565514
Ni      40.53598327      38.77352397      33.48638751       0.60000000      -0.00864433      -0.08785805      -0.00322331      -0.01565514
Ni      40.53536459      40.53536459      31.72350789       0.60000000      -0.00688453      -0.08498877      -0.08498877      -0.03486964
Ni      38.77401891      38.77401891      35.24920796       0.60000000      -0.01084865      -0.00403951      -0.00403951       0.00129805
Ni      38.77231785      40.53469207      37.00997444       0.60000000      -0.00855971      -0.00478766      -0.07512447      -0.01092140
Ni      40.53469207      38.77231785      37.00997444       0.60000000      -0.00855971      -0.07512447      -0.00478766      -0.01092140
Ni      40.53444311      40.53444311      35.24742346       0.60000000      -0.00706318      -0.07568981      -0.07568981      -0.02655930
Ni      38.77244430      38.77244430      38.77244430       0.60000000      -0.01144146       0.00556676       0.00556676       0.00556676
Ni      38.77101280      40.53331796      40.53331796       0.60000000      -0.00826140      -0.01563525      -0.06579393      -0.06579393
Ni      40.53331796      38.77101280      40.53331796       0.60000000      -0.00826140      -0.06579393      -0.01563525      -0.06579393
Ni      40.53331796      40.53331796      38.77101280       0.60000000      -0.00826140      -0.06579393      -0.06579393      -0.01563525
