4000
Lattice="35.24 0.0 0.0 0.0 35.24 0.0 0.0 0.0 35.24" Properties=species:S:1:pos:R:3:initial_magmoms:R:1 pbc="T T T"
Ni       0.00000000       0.00000000       0.00000000       0.60000000
Ni       0.00000000       1.76200000       1.76200000       0.60000000
Ni       1.76200000       0.00000000       1.76200000       0.60000000
Ni       1.76200000       1.76200000       0.00000000       0.60000000
Ni       0.00000000       0.00000000       3.52400000       0.60000000
Ni       0.00000000       1.76200000       5.28600000       0.60000000
Ni       1.76200000       0.00000000       5.28600000       0.60000000
Ni       1.76200000       1.76200000       3.52400000       0.60000000
Ni       0.00000000       0.00000000       7.04800000       0.60000000
Ni       0.00000000       1.76200000       8.81000000       0.60000000
Ni       1.76200000       0.00000000       8.81000000       0.60000000
Ni       1.76200000       1.76200000       7.04800000       0.60000000
Ni       0.00000000       0.00000000      10.57200000       0.60000000
Ni       0.00000000       1.76200000      12.33400000       0.60000000
Ni       1.76200000       0.00000000      12.33400000       0.60000000
Ni       1.76200000       1.76200000      10.57200000       0.60000000
Ni       0.00000000       0.00000000      14.09600000       0.60000000
Ni       0.00000000       1.76200000      15.85800000       0.60000000
Ni       1.76200000       0.00000000      15.85800000       0.60000000
Ni       1.76200000       1.76200000      14.09600000       0.60000000
Ni       0.00000000       0.00000000      17.62000000       0.60000000
Ni       0.00000000       1.76200000      19.38200000       0.60000000
Ni       1.76200000       0.00000000      19.38200000       0.60000000
Ni       1.76200000       1.76200000      17.62000000       0.60000000
Ni       0.00000000       0.00000000      21.14400000       0.60000000
Ni       0.00000000       1.76200000      22.90600000       0.60000000
Ni       1.76200000       0.00000000      22.90600000       0.60000000
Ni       1.76200000       1.76200000      21.14400000       0.60000000
Ni       0.00000000       0.00000000      24.66800000       0.60000000
Ni       0.00000000       1.76200000      26.43000000       0.60000000
Ni       1.76200000       0.00000000      26.43000000       0.60000000
Ni       1.76200000       1.76200000      24.66800000       0.60000000
Ni       0.00000000       0.00000000      28.19200000       0.60000000
Ni       0.00000000       1.76200000      29.95400000       0.60000000
Ni       1.76200000       0.00000000      29.95400000       0.60000000
Ni       1.76200000       1.76200000      28.19200000       0.60000000
Ni       0.00000000       0.00000000      31.71600000       0.60000000
Ni       0.00000000       1.76200000      33.47800000       0.60000000
Ni       1.76200000       0.00000000      33.47800000       0.60000000
Ni       1.76200000       1.76200000      31.71600000       0.60000000
Ni       0.00000000       3.52400000       0.00000000       0.60000000
Ni       0.00000000       5.28600000       1.76200000       0.60000000
Ni       1.76200000       3.52400000       1.76200000       0.60000000
Ni       1.76200000       5.28600000       0.00000000       0.60000000
Ni       0.00000000       3.52400000       3.52400000       0.60000000
Ni       0.00000000       5.28600000       5.28600000       0.60000000
Ni       1.76200000       3.52400000       5.28600000       0.60000000
Ni       1.76200000       5.28600000       3.52400000       0.60000000
Ni       0.00000000       3.52400000       7.04800000       0.60000000
Ni       0.00000000       5.28600000       8.81000000       0.60000000
Ni       1.76200000       3.52400000       8.81000000       0.60000000
Ni       1.76200000       5.28600000       7.04800000       0.60000000
Ni       0.00000000       3.52400000      10.57200000       0.60000000
Ni       0.00000000       5.28600000      12.33400000       0.60000000
Ni       1.76200000       3.52400000      12.33400000       0.60000000
Ni       1.76200000       5.28600000      10.57200000       0.60000000
Ni       0.00000000       3.52400000      14.09600000       0.60000000
Ni       0.00000000       5.28600000      15.85800000       0.60000000
Ni       1.76200000       3.52400000      15.85800000       0.60000000
Ni       1.76200000       5.28600000      14.09600000       0.60000000
Ni       0.00000000       3.52400000      17.62000000       0.60000000
Ni       0.00000000       5.28600000      19.38200000       0.60000000
Ni       1.76200000       3.52400000      19.38200000       0.60000000
Ni       1.76200000       5.28600000      17.62000000       0.60000000
Ni       0.00000000       3.52400000      21.14400000       0.60000000
Ni       0.00000000       5.28600000      22.90600000       0.60000000
Ni       1.76200000       3.52400000      22.90600000       0.60000000
Ni       1.76200000       5.28600000      21.14400000       0.60000000
Ni       0.00000000       3.52400000      24.66800000       0.60000000
Ni       0.00000000       5.28600000      26.43000000       0.60000000
Ni       1.76200000       3.52400000      26.43000000       0.60000000
Ni       1.76200000       5.28600000      24.66800000       0.60000000
Ni       0.00000000       3.52400000      28.19200000       0.60000000
Ni       0.00000000       5.28600000      29.95400000       0.60000000
Ni       1.76200000       3.52400000      29.95400000       0.60000000
Ni       1.76200000       5.28600000      28.19200000       0.60000000
Ni       0.00000000       3.52400000      31.71600000       0.60000000
Ni       0.00000000       5.28600000      33.47800000       0.60000000
Ni       1.76200000       3.52400000      33.47800000       0.60000000
Ni       1.76200000       5.28600000      31.71600000       0.60000000
Ni       0.00000000       7.04800000       0.00000000       0.60000000
Ni       0.00000000       8.81000000       1.76200000       0.60000000
Ni       1.76200000       7.04800000       1.76200000       0.60000000
Ni       1.76200000       8.81000000       0.00000000       0.60000000
Ni       0.00000000       7.04800000       3.52400000       0.60000000
Ni       0.00000000       8.81000000       5.28600000       0.60000000
Ni       1.76200000       7.04800000       5.28600000       0.60000000
Ni       1.76200000       8.81000000       3.52400000       0.60000000
Ni       0.00000000       7.04800000       7.04800000       0.60000000
Ni       0.00000000       8.81000000       8.81000000       0.60000000
Ni       1.76200000       7.04800000       8.81000000       0.60000000
Ni       1.76200000       8.81000000       7.04800000       0.60000000
Ni       0.00000000       7.04800000      10.57200000       0.60000000
Ni       0.00000000       8.81000000      12.33400000       0.60000000
Ni       1.76200000       7.04800000      12.33400000       0.60000000
Ni       1.76200000       8.81000000      10.57200000       0.60000000
Ni       0.00000000       7.04800000      14.09600000       0.60000000
Ni       0.00000000       8.81000000      15.85800000       0.60000000
Ni       1.76200000       7.04800000      15.85800000       0.60000000
Ni       1.76200000       8.81000000      14.09600000       0.60000000
Ni       0.00000000       7.04800000      17.62000000       0.60000000
Ni       0.00000000       8.81000000      19.38200000       0.60000000
Ni       1.76200000       7.04800000      19.38200000       0.60000000
Ni       1.76200000       8.81000000      17.62000000       0.60000000
Ni       0.00000000       7.04800000      21.14400000       0.60000000
Ni       0.00000000       8.81000000      22.90600000       0.60000000
Ni       1.76200000       7.04800000      22.90600000       0.60000000
Ni       1.76200000       8.81000000      21.14400000       0.60000000
Ni       0.00000000       7.04800000      24.66800000       0.60000000
Ni       0.00000000       8.81000000      26.43000000       0.60000000
Ni       1.76200000       7.04800000      26.43000000       0.60000000
Ni       1.76200000       8.81000000      24.66800000       0.60000000
Ni       0.00000000       7.04800000      28.19200000       0.60000000
Ni       0.00000000       8.81000000      29.95400000       0.60000000
Ni       1.76200000       7.04800000      29.95400000       0.60000000
Ni       1.76200000       8.81000000      28.19200000       0.60000000
Ni       0.00000000       7.04800000      31.71600000       0.60000000
Ni       0.00000000       8.81000000      33.47800000       0.60000000
Ni       1.76200000       7.04800000      33.47800000       0.60000000
Ni       1.76200000       8.81000000      31.71600000       0.60000000
Ni       0.00000000      10.57200000       0.00000000       0.60000000
Ni       0.00000000      12.33400000       1.76200000       0.60000000
Ni       1.76200000      10.57200000       1.76200000       0.60000000
Ni       1.76200000      12.33400000       0.00000000       0.60000000
Ni       0.00000000      10.57200000       3.52400000       0.60000000
Ni       0.00000000      12.33400000       5.28600000       0.60000000
Ni       1.76200000      10.57200000       5.28600000       0.60000000
Ni       1.76200000      12.33400000       3.52400000       0.60000000
Ni       0.00000000      10.57200000       7.04800000       0.60000000
Ni       0.00000000      12.33400000       8.81000000       0.60000000
Ni       1.76200000      10.57200000       8.81000000       0.60000000
Ni       1.76200000      12.33400000       7.04800000       0.60000000
Ni       0.00000000      10.57200000      10.57200000       0.60000000
Ni       0.00000000      12.33400000      12.33400000       0.60000000
Ni       1.76200000      10.57200000      12.33400000       0.60000000
Ni       1.76200000      12.33400000      10.57200000       0.60000000
Ni       0.00000000      10.57200000      14.09600000       0.60000000
Ni       0.00000000      12.33400000      15.85800000       0.60000000
Ni       1.76200000      10.57200000      15.85800000       0.60000000
Ni       1.76200000      12.33400000      14.09600000       0.60000000
Ni       0.00000000      10.57200000      17.62000000       0.60000000
Ni       0.00000000      12.33400000      19.38200000       0.60000000
Ni       1.76200000      10.57200000      19.38200000       0.60000000
Ni       1.76200000      12.33400000      17.62000000       0.60000000
Ni       0.00000000      10.57200000      21.14400000       0.60000000
Ni       0.00000000      12.33400000      22.90600000       0.60000000
Ni       1.76200000      10.57200000      22.90600000       0.60000000
Ni       1.76200000      12.33400000      21.14400000       0.60000000
Ni       0.00000000      10.57200000      24.66800000       0.60000000
Ni       0.00000000      12.33400000      26.43000000       0.60000000
Ni       1.76200000      10.57200000      26.43000000       0.60000000
Ni       1.76200000      12.33400000      24.66800000       0.60000000
Ni       0.00000000      10.57200000      28.19200000       0.60000000
Ni       0.00000000      12.33400000      29.95400000       0.60000000
Ni       1.76200000      10.57200000      29.95400000       0.60000000
Ni       1.76200000      12.33400000      28.19200000       0.60000000
Ni       0.00000000      10.57200000      31.71600000       0.60000000
Ni       0.00000000      12.33400000      33.47800000       0.60000000
Ni       1.76200000      10.57200000      33.47800000       0.60000000
Ni       1.76200000      12.33400000      31.71600000       0.60000000
Ni       0.00000000      14.09600000       0.00000000       0.60000000
Ni       0.00000000      15.85800000       1.76200000       0.60000000
Ni       1.76200000      14.09600000       1.76200000       0.60000000
Ni       1.76200000      15.85800000       0.00000000       0.60000000
Ni       0.00000000      14.09600000       3.52400000       0.60000000
Ni       0.00000000      15.85800000       5.28600000       0.60000000
Ni       1.76200000      14.09600000       5.28600000       0.60000000
Ni       1.76200000      15.85800000       3.52400000       0.60000000
Ni       0.00000000      14.09600000       7.04800000       0.60000000
Ni       0.00000000      15.85800000       8.81000000       0.60000000
Ni       1.76200000      14.09600000       8.81000000       0.60000000
Ni       1.76200000      15.85800000       7.04800000       0.60000000
Ni       0.00000000      14.09600000      10.57200000       0.60000000
Ni       0.00000000      15.85800000      12.33400000       0.60000000
Ni       1.76200000      14.09600000      12.33400000       0.60000000
Ni       1.76200000      15.85800000      10.57200000       0.60000000
Ni       0.00000000      14.09600000      14.09600000       0.60000000
Ni       0.00000000      15.85800000      15.85800000       0.60000000
Ni       1.76200000      14.09600000      15.85800000       0.60000000
Ni       1.76200000      15.85800000      14.09600000       0.60000000
Ni       0.00000000      14.09600000      17.62000000       0.60000000
Ni       0.00000000      15.85800000      19.38200000       0.60000000
Ni       1.76200000      14.09600000      19.38200000       0.60000000
Ni       1.76200000      15.85800000      17.62000000       0.60000000
Ni       0.00000000      14.09600000      21.14400000       0.60000000
Ni       0.00000000      15.85800000      22.90600000       0.60000000
Ni       1.76200000      14.09600000      22.90600000       0.60000000
Ni       1.76200000      15.85800000      21.14400000       0.60000000
Ni       0.00000000      14.09600000      24.66800000       0.60000000
Ni       0.00000000      15.85800000      26.43000000       0.60000000
Ni       1.76200000      14.09600000      26.43000000       0.60000000
Ni       1.76200000      15.85800000      24.66800000       0.60000000
Ni       0.00000000      14.09600000      28.19200000       0.60000000
Ni       0.00000000      15.85800000      29.95400000       0.60000000
Ni       1.76200000      14.09600000      29.95400000       0.60000000
Ni       1.76200000      15.85800000      28.19200000       0.60000000
Ni       0.00000000      14.09600000      31.71600000       0.60000000
Ni       0.00000000      15.85800000      33.47800000       0.60000000
Ni       1.76200000      14.09600000      33.47800000       0.60000000
Ni       1.76200000      15.85800000      31.71600000       0.60000000
Ni       0.00000000      17.62000000       0.00000000       0.60000000
Ni       0.00000000      19.38200000       1.76200000       0.60000000
Ni       1.76200000      17.62000000       1.76200000       0.60000000
Ni       1.76200000      19.38200000       0.00000000       0.60000000
Ni       0.00000000      17.62000000       3.52400000       0.60000000
Ni       0.00000000      19.38200000       5.28600000       0.60000000
Ni       1.76200000      17.62000000       5.28600000       0.60000000
Ni       1.76200000      19.38200000       3.52400000       0.60000000
Ni       0.00000000      17.62000000       7.04800000       0.60000000
Ni       0.00000000      19.38200000       8.81000000       0.60000000
Ni       1.76200000      17.62000000       8.81000000       0.60000000
Ni       1.76200000      19.38200000       7.04800000       0.60000000
Ni       0.00000000      17.62000000      10.57200000       0.60000000
Ni       0.00000000      19.38200000      12.33400000       0.60000000
Ni       1.76200000      17.62000000      12.33400000       0.60000000
Ni       1.76200000      19.38200000      10.57200000       0.60000000
Ni       0.00000000      17.62000000      14.09600000       0.60000000
Ni       0.00000000      19.38200000      15.85800000       0.60000000
Ni       1.76200000      17.62000000      15.85800000       0.60000000
Ni       1.76200000      19.38200000      14.09600000       0.60000000
Ni       0.00000000      17.62000000      17.62000000       0.60000000
Ni       0.00000000      19.38200000      19.38200000       0.60000000
Ni       1.76200000      17.62000000      19.38200000       0.60000000
Ni       1.76200000      19.38200000      17.62000000       0.60000000
Ni       0.00000000      17.62000000      21.14400000       0.60000000
Ni       0.00000000      19.38200000      22.90600000       0.60000000
Ni       1.76200000      17.62000000      22.90600000       0.60000000
Ni       1.76200000      19.38200000      21.14400000       0.60000000
Ni       0.00000000      17.62000000      24.66800000       0.60000000
Ni       0.00000000      19.38200000      26.43000000       0.60000000
Ni       1.76200000      17.62000000      26.43000000       0.60000000
Ni       1.76200000      19.38200000      24.66800000       0.60000000
Ni       0.00000000      17.62000000      28.19200000       0.60000000
Ni       0.00000000      19.38200000      29.95400000       0.60000000
Ni       1.76200000      17.62000000      29.95400000       0.60000000
Ni       1.76200000      19.38200000      28.19200000       0.60000000
Ni       0.00000000      17.62000000      31.71600000       0.60000000
Ni       0.00000000      19.38200000      33.47800000       0.60000000
Ni       1.76200000      17.62000000      33.47800000       0.60000000
Ni       1.76200000      19.38200000      31.71600000       0.60000000
Ni       0.00000000      21.14400000       0.00000000       0.60000000
Ni       0.00000000      22.90600000       1.76200000       0.60000000
Ni       1.76200000      21.14400000       1.76200000       0.60000000
Ni       1.76200000      22.90600000       0.00000000       0.60000000
Ni       0.00000000      21.14400000       3.52400000       0.60000000
Ni       0.00000000      22.90600000       5.28600000       0.60000000
Ni       1.76200000      21.14400000       5.28600000       0.60000000
Ni       1.76200000      22.90600000       3.52400000       0.60000000
Ni       0.00000000      21.14400000       7.04800000       0.60000000
Ni       0.00000000      22.90600000       8.81000000       0.60000000
Ni       1.76200000      21.14400000       8.81000000       0.60000000
Ni       1.76200000      22.90600000       7.04800000       0.60000000
Ni       0.00000000      21.14400000      10.57200000       0.60000000
Ni       0.00000000      22.90600000      12.33400000       0.60000000
Ni       1.76200000      21.14400000      12.33400000       0.60000000
Ni       1.76200000      22.90600000      10.57200000       0.60000000
Ni       0.00000000      21.14400000      14.09600000       0.60000000
Ni       0.00000000      22.90600000      15.85800000       0.60000000
Ni       1.76200000      21.14400000      15.85800000       0.60000000
Ni       1.76200000      22.90600000      14.09600000       0.60000000
Ni       0.00000000      21.14400000      17.62000000       0.60000000
Ni       0.00000000      22.90600000      19.38200000       0.60000000
Ni       1.76200000      21.14400000      19.38200000       0.60000000
Ni       1.76200000      22.90600000      17.62000000       0.60000000
Ni       0.00000000      21.14400000      21.14400000       0.60000000
Ni       0.00000000      22.90600000      22.90600000       0.60000000
Ni       1.76200000      21.14400000      22.90600000       0.60000000
Ni       1.76200000      22.90600000      21.14400000       0.60000000
Ni       0.00000000      21.14400000      24.66800000       0.60000000
Ni       0.00000000      22.90600000      26.43000000       0.60000000
Ni       1.76200000      21.14400000      26.43000000       0.60000000
Ni       1.76200000      22.90600000      24.66800000       0.60000000
Ni       0.00000000      21.14400000      28.19200000       0.60000000
Ni       0.00000000      22.90600000      29.95400000       0.60000000
Ni       1.76200000      21.14400000      29.95400000       0.60000000
Ni       1.76200000      22.90600000      28.19200000       0.60000000
Ni       0.00000000      21.14400000      31.71600000       0.60000000
Ni       0.00000000      22.90600000      33.47800000       0.60000000
Ni       1.76200000      21.14400000      33.47800000       0.60000000
Ni       1.76200000      22.90600000      31.71600000       0.60000000
Ni       0.00000000      24.66800000       0.00000000       0.60000000
Ni       0.00000000      26.43000000       1.76200000       0.60000000
Ni       1.76200000      24.66800000       1.76200000       0.60000000
Ni       1.76200000      26.43000000       0.00000000       0.60000000
Ni       0.00000000      24.66800000       3.52400000       0.60000000
Ni       0.00000000      26.43000000       5.28600000       0.60000000
Ni       1.76200000      24.66800000       5.28600000       0.60000000
Ni       1.76200000      26.43000000       3.52400000       0.60000000
Ni       0.00000000      24.66800000       7.04800000       0.60000000
Ni       0.00000000      26.43000000       8.81000000       0.60000000
Ni       1.76200000      24.66800000       8.81000000       0.60000000
Ni       1.76200000      26.43000000       7.04800000       0.60000000
Ni       0.00000000      24.66800000      10.57200000       0.60000000
Ni       0.00000000      26.43000000      12.33400000       0.60000000
Ni       1.76200000      24.66800000      12.33400000       0.60000000
Ni       1.76200000      26.43000000      10.57200000       0.60000000
Ni       0.00000000      24.66800000      14.09600000       0.60000000
Ni       0.00000000      26.43000000      15.85800000       0.60000000
Ni       1.76200000      24.66800000      15.85800000       0.60000000
Ni       1.76200000      26.43000000      14.09600000       0.60000000
Ni       0.00000000      24.66800000      17.62000000       0.60000000
Ni       0.00000000      26.43000000      19.38200000       0.60000000
Ni       1.76200000      24.66800000      19.38200000       0.60000000
Ni       1.76200000      26.43000000      17.62000000       0.60000000
Ni       0.00000000      24.66800000      21.14400000       0.60000000
Ni       0.00000000      26.43000000      22.90600000       0.60000000
Ni       1.76200000      24.66800000      22.90600000       0.60000000
Ni       1.76200000      26.43000000      21.14400000       0.60000000
Ni       0.00000000      24.66800000      24.66800000       0.60000000
Ni       0.00000000      26.43000000      26.43000000       0.60000000
Ni       1.76200000      24.66800000      26.43000000       0.60000000
Ni       1.76200000      26.43000000      24.66800000       0.60000000
Ni       0.00000000      24.66800000      28.19200000       0.60000000
Ni       0.00000000      26.43000000      29.95400000       0.60000000
Ni       1.76200000      24.66800000      29.95400000       0.60000000
Ni       1.76200000      26.43000000      28.19200000       0.60000000
Ni       0.00000000      24.66800000      31.71600000       0.60000000
Ni       0.00000000      26.43000000      33.47800000       0.60000000
Ni       1.76200000      24.66800000      33.47800000       0.60000000
Ni       1.76200000      26.43000000      31.71600000       0.60000000
Ni       0.00000000      28.19200000       0.00000000       0.60000000
Ni       0.00000000      29.95400000       1.76200000       0.60000000
Ni       1.76200000      28.19200000       1.76200000       0.60000000
Ni       1.76200000      29.95400000       0.00000000       0.60000000
Ni       0.00000000      28.19200000       3.52400000       0.60000000
Ni       0.00000000      29.95400000       5.28600000       0.60000000
Ni       1.76200000      28.19200000       5.28600000       0.60000000
Ni       1.76200000      29.95400000       3.52400000       0.60000000
Ni       0.00000000      28.19200000       7.04800000       0.60000000
Ni       0.00000000      29.95400000       8.81000000       0.60000000
Ni       1.76200000      28.19200000       8.81000000       0.60000000
Ni       1.76200000      29.95400000       7.04800000       0.60000000
Ni       0.00000000      28.19200000      10.57200000       0.60000000
Ni       0.00000000      29.95400000      12.33400000       0.60000000
Ni       1.76200000      28.19200000      12.33400000       0.60000000
Ni       1.76200000      29.95400000      10.57200000       0.60000000
Ni       0.00000000      28.19200000      14.09600000       0.60000000
Ni       0.00000000      29.95400000      15.85800000       0.60000000
Ni       1.76200000      28.19200000      15.85800000       0.60000000
Ni       1.76200000      29.95400000      14.09600000       0.60000000
Ni       0.00000000      28.19200000      17.62000000       0.60000000
Ni       0.00000000      29.95400000      19.38200000       0.60000000
Ni       1.76200000      28.19200000      19.38200000       0.60000000
Ni       1.76200000      29.95400000      17.62000000       0.60000000
Ni       0.00000000      28.19200000      21.14400000       0.60000000
Ni       0.00000000      29.95400000      22.90600000       0.60000000
Ni       1.76200000      28.19200000      22.90600000       0.60000000
Ni       1.76200000      29.95400000      21.14400000       0.60000000
Ni       0.00000000      28.19200000      24.66800000       0.60000000
Ni       0.00000000      29.95400000      26.43000000       0.60000000
Ni       1.76200000      28.19200000      26.43000000       0.60000000
Ni       1.76200000      29.95400000      24.66800000       0.60000000
Ni       0.00000000      28.19200000      28.19200000       0.60000000
Ni       0.00000000      29.95400000      29.95400000       0.60000000
Ni       1.76200000      28.19200000      29.95400000       0.60000000
Ni       1.76200000      29.95400000      28.19200000       0.60000000
Ni       0.00000000      28.19200000      31.71600000       0.60000000
Ni       0.00000000      29.95400000      33.47800000       0.60000000
Ni       1.76200000      28.19200000      33.47800000       0.60000000
Ni       1.76200000      29.95400000      31.71600000       0.60000000
Ni       0.00000000      31.71600000       0.00000000       0.60000000
Ni       0.00000000      33.47800000       1.76200000       0.60000000
Ni       1.76200000      31.71600000       1.76200000       0.60000000
Ni       1.76200000      33.47800000       0.00000000       0.60000000
Ni       0.00000000      31.71600000       3.52400000       0.60000000
Ni       0.00000000      33.47800000       5.28600000       0.60000000
Ni       1.76200000      31.71600000       5.28600000       0.60000000
Ni       1.76200000      33.47800000       3.52400000       0.60000000
Ni       0.00000000      31.71600000       7.04800000       0.60000000
Ni       0.00000000      33.47800000       8.81000000       0.60000000
Ni       1.76200000      31.71600000       8.81000000       0.60000000
Ni       1.76200000      33.47800000       7.04800000       0.60000000
Ni       0.00000000      31.71600000      10.57200000       0.60000000
Ni       0.00000000      33.47800000      12.33400000       0.60000000
Ni       1.76200000      31.71600000      12.33400000       0.60000000
Ni       1.76200000      33.47800000      10.57200000       0.60000000
Ni       0.00000000      31.71600000      14.09600000       0.60000000
Ni       0.00000000      33.47800000      15.85800000       0.60000000
Ni       1.76200000      31.71600000      15.85800000       0.60000000
Ni       1.76200000      33.47800000      14.09600000       0.60000000
Ni       0.00000000      31.71600000      17.62000000       0.60000000
Ni       0.00000000      33.47800000      19.38200000       0.60000000
Ni       1.76200000      31.71600000      19.38200000       0.60000000
Ni       1.76200000      33.47800000      17.62000000       0.60000000
Ni       0.00000000      31.71600000      21.14400000       0.60000000
Ni       0.00000000      33.47800000      22.90600000       0.60000000
Ni       1.76200000      31.71600000      22.90600000       0.60000000
Ni       1.76200000      33.47800000      21.14400000       0.60000000
Ni       0.00000000      31.71600000      24.66800000       0.60000000
Ni       0.00000000      33.47800000      26.43000000       0.60000000
Ni       1.76200000      31.71600000      26.43000000       0.60000000
Ni       1.76200000      33.47800000      24.66800000       0.60000000
Ni       0.00000000      31.71600000      28.19200000       0.60000000
Ni       0.00000000      33.47800000      29.95400000       0.60000000
Ni       1.76200000      31.71600000      29.95400000       0.60000000
Ni       1.76200000      33.47800000      28.19200000       0.60000000
Ni       0.00000000      31.71600000      31.71600000       0.60000000
Ni       0.00000000      33.47800000      33.47800000       0.60000000
Ni       1.76200000      31.71600000      33.47800000       0.60000000
Ni       1.76200000      33.47800000      31.71600000       0.60000000
Ni       3.52400000       0.00000000       0.00000000       0.60000000
Ni       3.52400000       1.76200000       1.76200000       0.60000000
Ni       5.28600000       0.00000000       1.76200000       0.60000000
Ni       5.28600000       1.76200000       0.00000000       0.60000000
Ni       3.52400000       0.00000000       3.52400000       0.60000000
Ni       3.52400000       1.76200000       5.28600000       0.60000000
Ni       5.28600000       0.00000000       5.28600000       0.60000000
Ni       5.28600000       1.76200000       3.52400000       0.60000000
Ni       3.52400000       0.00000000       7.04800000       0.60000000
Ni       3.52400000       1.76200000       8.81000000       0.60000000
Ni       5.28600000       0.00000000       8.81000000       0.60000000
Ni       5.28600000       1.76200000       7.04800000       0.60000000
Ni       3.52400000       0.00000000      10.57200000       0.60000000
Ni       3.52400000       1.76200000      12.33400000       0.60000000
Ni       5.28600000       0.00000000      12.33400000       0.60000000
Ni       5.28600000       1.76200000      10.57200000       0.60000000
Ni       3.52400000       0.00000000      14.09600000       0.60000000
Ni       3.52400000       1.76200000      15.85800000       0.60000000
Ni       5.28600000       0.00000000      15.85800000       0.60000000
Ni       5.28600000       1.76200000      14.09600000       0.60000000
Ni       3.52400000       0.00000000      17.62000000       0.60000000
Ni       3.52400000       1.76200000      19.38200000       0.60000000
Ni       5.28600000       0.00000000      19.38200000       0.60000000
Ni       5.28600000       1.76200000      17.62000000       0.60000000
Ni       3.52400000       0.00000000      21.14400000       0.60000000
Ni       3.52400000       1.76200000      22.90600000       0.60000000
Ni       5.28600000       0.00000000      22.90600000       0.60000000
Ni       5.28600000       1.76200000      21.14400000       0.60000000
Ni       3.52400000       0.00000000      24.66800000       0.60000000
Ni       3.52400000       1.76200000      26.43000000       0.60000000
Ni       5.28600000       0.00000000      26.43000000       0.60000000
Ni       5.28600000       1.76200000      24.66800000       0.60000000
Ni       3.52400000       0.00000000      28.19200000       0.60000000
Ni       3.52400000       1.76200000      29.95400000       0.60000000
Ni       5.28600000       0.00000000      29.95400000       0.60000000
Ni       5.28600000       1.76200000      28.19200000       0.60000000
Ni       3.52400000       0.00000000      31.71600000       0.60000000
Ni       3.52400000       1.76200000      33.47800000       0.60000000
Ni       5.28600000       0.00000000      33.47800000       0.60000000
Ni       5.28600000       1.76200000      31.71600000       0.60000000
Ni       3.52400000       3.52400000       0.00000000       0.60000000
Ni       3.52400000       5.28600000       1.76200000       0.60000000
Ni       5.28600000       3.52400000       1.76200000       0.60000000
Ni       5.28600000       5.28600000       0.00000000       0.60000000
Ni       3.52400000       3.52400000       3.52400000       0.60000000
Ni       3.52400000       5.28600000       5.28600000       0.60000000
Ni       5.28600000       3.52400000       5.28600000       0.60000000
Ni       5.28600000       5.28600000       3.52400000       0.60000000
Ni       3.52400000       3.52400000       7.04800000       0.60000000
Ni       3.52400000       5.28600000       8.81000000       0.60000000
Ni       5.28600000       3.52400000       8.81000000       0.60000000
Ni       5.28600000       5.28600000       7.04800000       0.60000000
Ni       3.52400000       3.52400000      10.57200000       0.60000000
Ni       3.52400000       5.28600000      12.33400000       0.60000000
Ni       5.28600000       3.52400000      12.33400000       0.60000000
Ni       5.28600000       5.28600000      10.57200000       0.60000000
Ni       3.52400000       3.52400000      14.09600000       0.60000000
Ni       3.52400000       5.28600000      15.85800000       0.60000000
Ni       5.28600000       3.52400000      15.85800000       0.60000000
Ni       5.28600000       5.28600000      14.09600000       0.60000000
Ni       3.52400000       3.52400000      17.62000000       0.60000000
Ni       3.52400000       5.28600000      19.38200000       0.60000000
Ni       5.28600000       3.52400000      19.38200000       0.60000000
Ni       5.28600000       5.28600000      17.62000000       0.60000000
Ni       3.52400000       3.52400000      21.14400000       0.60000000
Ni       3.52400000       5.28600000      22.90600000       0.60000000
Ni       5.28600000       3.52400000      22.90600000       0.60000000
Ni       5.28600000       5.28600000      21.14400000       0.60000000
Ni       3.52400000       3.52400000      24.66800000       0.60000000
Ni       3.52400000       5.28600000      26.43000000       0.60000000
Ni       5.28600000       3.52400000      26.43000000       0.60000000
Ni       5.28600000       5.28600000      24.66800000       0.60000000
Ni       3.52400000       3.52400000      28.19200000       0.60000000
Ni       3.52400000       5.28600000      29.95400000       0.60000000
Ni       5.28600000       3.52400000      29.95400000       0.60000000
Ni       5.28600000       5.28600000      28.19200000       0.60000000
Ni       3.52400000       3.52400000      31.71600000       0.60000000
Ni       3.52400000       5.28600000      33.47800000       0.60000000
Ni       5.28600000       3.52400000      33.47800000       0.60000000
Ni       5.28600000       5.28600000      31.71600000       0.60000000
Ni       3.52400000       7.04800000       0.00000000       0.60000000
Ni       3.52400000       8.81000000       1.76200000       0.60000000
Ni       5.28600000       7.04800000       1.76200000       0.60000000
Ni       5.28600000       8.81000000       0.00000000       0.60000000
Ni       3.52400000       7.04800000       3.52400000       0.60000000
Ni       3.52400000       8.81000000       5.28600000       0.60000000
Ni       5.28600000       7.04800000       5.28600000       0.60000000
Ni       5.28600000       8.81000000       3.52400000       0.60000000
Ni       3.52400000       7.04800000       7.04800000       0.60000000
Ni       3.52400000       8.81000000       8.81000000       0.60000000
Ni       5.28600000       7.04800000       8.81000000       0.60000000
Ni       5.28600000       8.81000000       7.04800000       0.60000000
Ni       3.52400000       7.04800000      10.57200000       0.60000000
Ni       3.52400000       8.81000000      12.33400000       0.60000000
Ni       5.28600000       7.04800000      12.33400000       0.60000000
Ni       5.28600000       8.81000000      10.57200000       0.60000000
Ni       3.52400000       7.04800000      14.09600000       0.60000000
Ni       3.52400000       8.81000000      15.85800000       0.60000000
Ni       5.28600000       7.04800000      15.85800000       0.60000000
Ni       5.28600000       8.81000000      14.09600000       0.60000000
Ni       3.52400000       7.04800000      17.62000000       0.60000000
Ni       3.52400000       8.81000000      19.38200000       0.60000000
Ni       5.28600000       7.04800000      19.38200000       0.60000000
Ni       5.28600000       8.81000000      17.62000000       0.60000000
Ni       3.52400000       7.04800000      21.14400000       0.60000000
Ni       3.52400000       8.81000000      22.90600000       0.60000000
Ni       5.28600000       7.04800000      22.90600000       0.60000000
Ni       5.28600000       8.81000000      21.14400000       0.60000000
Ni       3.52400000       7.04800000      24.66800000       0.60000000
Ni       3.52400000       8.81000000      26.43000000       0.60000000
Ni       5.28600000       7.04800000      26.43000000       0.60000000
Ni       5.28600000       8.81000000      24.66800000       0.60000000
Ni       3.52400000       7.04800000      28.19200000       0.60000000
Ni       3.52400000       8.81000000      29.95400000       0.60000000
Ni       5.28600000       7.04800000      29.95400000       0.60000000
Ni       5.28600000       8.81000000      28.19200000       0.60000000
Ni       3.52400000       7.04800000      31.71600000       0.60000000
Ni       3.52400000       8.81000000      33.47800000       0.60000000
Ni       5.28600000       7.04800000      33.47800000       0.60000000
Ni       5.28600000       8.81000000      31.71600000       0.60000000
Ni       3.52400000      10.57200000       0.00000000       0.60000000
Ni       3.52400000      12.33400000       1.76200000       0.60000000
Ni       5.28600000      10.57200000       1.76200000       0.60000000
Ni       5.28600000      12.33400000       0.00000000       0.60000000
Ni       3.52400000      10.57200000       3.52400000       0.60000000
Ni       3.52400000      12.33400000       5.28600000       0.60000000
Ni       5.28600000      10.57200000       5.28600000       0.60000000
Ni       5.28600000      12.33400000       3.52400000       0.60000000
Ni       3.52400000      10.57200000       7.04800000       0.60000000
Ni       3.52400000      12.33400000       8.81000000       0.60000000
Ni       5.28600000      10.57200000       8.81000000       0.60000000
Ni       5.28600000      12.33400000       7.04800000       0.60000000
Ni       3.52400000      10.57200000      10.57200000       0.60000000
Ni       3.52400000      12.33400000      12.33400000       0.60000000
Ni       5.28600000      10.57200000      12.33400000       0.60000000
Ni       5.28600000      12.33400000      10.57200000       0.60000000
Ni       3.52400000      10.57200000      14.09600000       0.60000000
Ni       3.52400000      12.33400000      15.85800000       0.60000000
Ni       5.28600000      10.57200000      15.85800000       0.60000000
Ni       5.28600000      12.33400000      14.09600000       0.60000000
Ni       3.52400000      10.57200000      17.62000000       0.60000000
Ni       3.52400000      12.33400000      19.38200000       0.60000000
Ni       5.28600000      10.57200000      19.38200000       0.60000000
Ni       5.28600000      12.33400000      17.62000000       0.60000000
Ni       3.52400000      10.57200000      21.14400000       0.60000000
Ni       3.52400000      12.33400000      22.90600000       0.60000000
Ni       5.28600000      10.57200000      22.90600000       0.60000000
Ni       5.28600000      12.33400000      21.14400000       0.60000000
Ni       3.52400000      10.57200000      24.66800000       0.60000000
Ni       3.52400000      12.33400000      26.43000000       0.60000000
Ni       5.28600000      10.57200000      26.43000000       0.60000000
Ni       5.28600000      12.33400000      24.66800000       0.60000000
Ni       3.52400000      10.57200000      28.19200000       0.60000000
Ni       3.52400000      12.33400000      29.95400000       0.60000000
Ni       5.28600000      10.57200000      29.95400000       0.60000000
Ni       5.28600000      12.33400000      28.19200000       0.60000000
Ni       3.52400000      10.57200000      31.71600000       0.60000000
Ni       3.52400000      12.33400000      33.47800000       0.60000000
Ni       5.28600000      10.57200000      33.47800000       0.60000000
Ni       5.28600000      12.33400000      31.71600000       0.60000000
Ni       3.52400000      14.09600000       0.00000000       0.60000000
Ni       3.52400000      15.85800000       1.76200000       0.60000000
Ni       5.28600000      14.09600000       1.76200000       0.60000000
Ni       5.28600000      15.85800000       0.00000000       0.60000000
Ni       3.52400000      14.09600000       3.52400000       0.60000000
Ni       3.52400000      15.85800000       5.28600000       0.60000000
Ni       5.28600000      14.09600000       5.28600000       0.60000000
Ni       5.28600000      15.85800000       3.52400000       0.60000000
Ni       3.52400000      14.09600000       7.04800000       0.60000000
Ni       3.52400000      15.85800000       8.81000000       0.60000000
Ni       5.28600000      14.09600000       8.81000000       0.60000000
Ni       5.28600000      15.85800000       7.04800000       0.60000000
Ni       3.52400000      14.09600000      10.57200000       0.60000000
Ni       3.52400000      15.85800000      12.33400000       0.60000000
Ni       5.28600000      14.09600000      12.33400000       0.60000000
Ni       5.28600000      15.85800000      10.57200000       0.60000000
Ni       3.52400000      14.09600000      14.09600000       0.60000000
Ni       3.52400000      15.85800000      15.85800000       0.60000000
Ni       5.28600000      14.09600000      15.85800000       0.60000000
Ni       5.28600000      15.85800000      14.09600000       0.60000000
Ni       3.52400000      14.09600000      17.62000000       0.60000000
Ni       3.52400000      15.85800000      19.38200000       0.60000000
Ni       5.28600000      14.09600000      19.38200000       0.60000000
Ni       5.28600000      15.85800000      17.62000000       0.60000000
Ni       3.52400000      14.09600000      21.14400000       0.60000000
Ni       3.52400000      15.85800000      22.90600000       0.60000000
Ni       5.28600000      14.09600000      22.90600000       0.60000000
Ni       5.28600000      15.85800000      21.14400000       0.60000000
Ni       3.52400000      14.09600000      24.66800000       0.60000000
Ni       3.52400000      15.85800000      26.43000000       0.60000000
Ni       5.28600000      14.09600000      26.43000000       0.60000000
Ni       5.28600000      15.85800000      24.66800000       0.60000000
Ni       3.52400000      14.09600000      28.19200000       0.60000000
Ni       3.52400000      15.85800000      29.95400000       0.60000000
Ni       5.28600000      14.09600000      29.95400000       0.60000000
Ni       5.28600000      15.85800000      28.19200000       0.60000000
Ni       3.52400000      14.09600000      31.71600000       0.60000000
Ni       3.52400000      15.85800000      33.47800000       0.60000000
Ni       5.28600000      14.09600000      33.47800000       0.60000000
Ni       5.28600000      15.85800000      31.71600000       0.60000000
Ni       3.52400000      17.62000000       0.00000000       0.60000000
Ni       3.52400000      19.38200000       1.76200000       0.60000000
Ni       5.28600000      17.62000000       1.76200000       0.60000000
Ni       5.28600000      19.38200000       0.00000000       0.60000000
Ni       3.52400000      17.62000000       3.52400000       0.60000000
Ni       3.52400000      19.38200000       5.28600000       0.60000000
Ni       5.28600000      17.62000000       5.28600000       0.60000000
Ni       5.28600000      19.38200000       3.52400000       0.60000000
Ni       3.52400000      17.62000000       7.04800000       0.60000000
Ni       3.52400000      19.38200000       8.81000000       0.60000000
Ni       5.28600000      17.62000000       8.81000000       0.60000000
Ni       5.28600000      19.38200000       7.04800000       0.60000000
Ni       3.52400000      17.62000000      10.57200000       0.60000000
Ni       3.52400000      19.38200000      12.33400000       0.60000000
Ni       5.28600000      17.62000000      12.33400000       0.60000000
Ni       5.28600000      19.38200000      10.57200000       0.60000000
Ni       3.52400000      17.62000000      14.09600000       0.60000000
Ni       3.52400000      19.38200000      15.85800000       0.60000000
Ni       5.28600000      17.62000000      15.85800000       0.60000000
Ni       5.28600000      19.38200000      14.09600000       0.60000000
Ni       3.52400000      17.62000000      17.62000000       0.60000000
Ni       3.52400000      19.38200000      19.38200000       0.60000000
Ni       5.28600000      17.62000000      19.38200000       0.60000000
Ni       5.28600000      19.38200000      17.62000000       0.60000000
Ni       3.52400000      17.62000000      21.14400000       0.60000000
Ni       3.52400000      19.38200000      22.90600000       0.60000000
Ni       5.28600000      17.62000000      22.90600000       0.60000000
Ni       5.28600000      19.38200000      21.14400000       0.60000000
Ni       3.52400000      17.62000000      24.66800000       0.60000000
Ni       3.52400000      19.38200000      26.43000000       0.60000000
Ni       5.28600000      17.62000000      26.43000000       0.60000000
Ni       5.28600000      19.38200000      24.66800000       0.60000000
Ni       3.52400000      17.62000000      28.19200000       0.60000000
Ni       3.52400000      19.38200000      29.95400000       0.60000000
Ni       5.28600000      17.62000000      29.95400000       0.60000000
Ni       5.28600000      19.38200000      28.19200000       0.60000000
Ni       3.52400000      17.62000000      31.71600000       0.60000000
Ni       3.52400000      19.38200000      33.47800000       0.60000000
Ni       5.28600000      17.62000000      33.47800000       0.60000000
Ni       5.28600000      19.38200000      31.71600000       0.60000000
Ni       3.52400000      21.14400000       0.00000000       0.60000000
Ni       3.52400000      22.90600000       1.76200000       0.60000000
Ni       5.28600000      21.14400000       1.76200000       0.60000000
Ni       5.28600000      22.90600000       0.00000000       0.60000000
Ni       3.52400000      21.14400000       3.52400000       0.60000000
Ni       3.52400000      22.90600000       5.28600000       0.60000000
Ni       5.28600000      21.14400000       5.28600000       0.60000000
Ni       5.28600000      22.90600000       3.52400000       0.60000000
Ni       3.52400000      21.14400000       7.04800000       0.60000000
Ni       3.52400000      22.90600000       8.81000000       0.60000000
Ni       5.28600000      21.14400000       8.81000000       0.60000000
Ni       5.28600000      22.90600000       7.04800000       0.60000000
Ni       3.52400000      21.14400000      10.57200000       0.60000000
Ni       3.52400000      22.90600000      12.33400000       0.60000000
Ni       5.28600000      21.14400000      12.33400000       0.60000000
Ni       5.28600000      22.90600000      10.57200000       0.60000000
Ni       3.52400000      21.14400000      14.09600000       0.60000000
Ni       3.52400000      22.90600000      15.85800000       0.60000000
Ni       5.28600000      21.14400000      15.85800000       0.60000000
Ni       5.28600000      22.90600000      14.09600000       0.60000000
Ni       3.52400000      21.14400000      17.62000000       0.60000000
Ni       3.52400000      22.90600000      19.38200000       0.60000000
Ni       5.28600000      21.14400000      19.38200000       0.60000000
Ni       5.28600000      22.90600000      17.62000000       0.60000000
Ni       3.52400000      21.14400000      21.14400000       0.60000000
Ni       3.52400000      22.90600000      22.90600000       0.60000000
Ni       5.28600000      21.14400000      22.90600000       0.60000000
Ni       5.28600000      22.90600000      21.14400000       0.60000000
Ni       3.52400000      21.14400000      24.66800000       0.60000000
Ni       3.52400000      22.90600000      26.43000000       0.60000000
Ni       5.28600000      21.14400000      26.43000000       0.60000000
Ni       5.28600000      22.90600000      24.66800000       0.60000000
Ni       3.52400000      21.14400000      28.19200000       0.60000000
Ni       3.52400000      22.90600000      29.95400000       0.60000000
Ni       5.28600000      21.14400000      29.95400000       0.60000000
Ni       5.28600000      22.90600000      28.19200000       0.60000000
Ni       3.52400000      21.14400000      31.71600000       0.60000000
Ni       3.52400000      22.90600000      33.47800000       0.60000000
Ni       5.28600000      21.14400000      33.47800000       0.60000000
Ni       5.28600000      22.90600000      31.71600000       0.60000000
Ni       3.52400000      24.66800000       0.00000000       0.60000000
Ni       3.52400000      26.43000000       1.76200000       0.60000000
Ni       5.28600000      24.66800000       1.76200000       0.60000000
Ni       5.28600000      26.43000000       0.00000000       0.60000000
Ni       3.52400000      24.66800000       3.52400000       0.60000000
Ni       3.52400000      26.43000000       5.28600000       0.60000000
Ni       5.28600000      24.66800000       5.28600000       0.60000000
Ni       5.28600000      26.43000000       3.52400000       0.60000000
Ni       3.52400000      24.66800000       7.04800000       0.60000000
Ni       3.52400000      26.43000000       8.81000000       0.60000000
Ni       5.28600000      24.66800000       8.81000000       0.60000000
Ni       5.28600000      26.43000000       7.04800000       0.60000000
Ni       3.52400000      24.66800000      10.57200000       0.60000000
Ni       3.52400000      26.43000000      12.33400000       0.60000000
Ni       5.28600000      24.66800000      12.33400000       0.60000000
Ni       5.28600000      26.43000000      10.57200000       0.60000000
Ni       3.52400000      24.66800000      14.09600000       0.60000000
Ni       3.52400000      26.43000000      15.85800000       0.60000000
Ni       5.28600000      24.66800000      15.85800000       0.60000000
Ni       5.28600000      26.43000000      14.09600000       0.60000000
Ni       3.52400000      24.66800000      17.62000000       0.60000000
Ni       3.52400000      26.43000000      19.38200000       0.60000000
Ni       5.28600000      24.66800000      19.38200000       0.60000000
Ni       5.28600000      26.43000000      17.62000000       0.60000000
Ni       3.52400000      24.66800000      21.14400000       0.60000000
Ni       3.52400000      26.43000000      22.90600000       0.60000000
Ni       5.28600000      24.66800000      22.90600000       0.60000000
Ni       5.28600000      26.43000000      21.14400000       0.60000000
Ni       3.52400000      24.66800000      24.66800000       0.60000000
Ni       3.52400000      26.43000000      26.43000000       0.60000000
Ni       5.28600000      24.66800000      26.43000000       0.60000000
Ni       5.28600000      26.43000000      24.66800000       0.60000000
Ni       3.52400000      24.66800000      28.19200000       0.60000000
Ni       3.52400000      26.43000000      29.95400000       0.60000000
Ni       5.28600000      24.66800000      29.95400000       0.60000000
Ni       5.28600000      26.43000000      28.19200000       0.60000000
Ni       3.52400000      24.66800000      31.71600000       0.60000000
Ni       3.52400000      26.43000000      33.47800000       0.60000000
Ni       5.28600000      24.66800000      33.47800000       0.60000000
Ni       5.28600000      26.43000000      31.71600000       0.60000000
Ni       3.52400000      28.19200000       0.00000000       0.60000000
Ni       3.52400000      29.95400000       1.76200000       0.60000000
Ni       5.28600000      28.19200000       1.76200000       0.60000000
Ni       5.28600000      29.95400000       0.00000000       0.60000000
Ni       3.52400000      28.19200000       3.52400000       0.60000000
Ni       3.52400000      29.95400000       5.28600000       0.60000000
Ni       5.28600000      28.19200000       5.28600000       0.60000000
Ni       5.28600000      29.95400000       3.52400000       0.60000000
Ni       3.52400000      28.19200000       7.04800000       0.60000000
Ni       3.52400000      29.95400000       8.81000000       0.60000000
Ni       5.28600000      28.19200000       8.81000000       0.60000000
Ni       5.28600000      29.95400000       7.04800000       0.60000000
Ni       3.52400000      28.19200000      10.57200000       0.60000000
Ni       3.52400000      29.95400000      12.33400000       0.60000000
Ni       5.28600000      28.19200000      12.33400000       0.60000000
Ni       5.28600000      29.95400000      10.57200000       0.60000000
Ni       3.52400000      28.19200000      14.09600000       0.60000000
Ni       3.52400000      29.95400000      15.85800000       0.60000000
Ni       5.28600000      28.19200000      15.85800000       0.60000000
Ni       5.28600000      29.95400000      14.09600000       0.60000000
Ni       3.52400000      28.19200000      17.62000000       0.60000000
Ni       3.52400000      29.95400000      19.38200000       0.60000000
Ni       5.28600000      28.19200000      19.38200000       0.60000000
Ni       5.28600000      29.95400000      17.62000000       0.60000000
Ni       3.52400000      28.19200000      21.14400000       0.60000000
Ni       3.52400000      29.95400000      22.90600000       0.60000000
Ni       5.28600000      28.19200000      22.90600000       0.60000000
Ni       5.28600000      29.95400000      21.14400000       0.60000000
Ni       3.52400000      28.19200000      24.66800000       0.60000000
Ni       3.52400000      29.95400000      26.43000000       0.60000000
Ni       5.28600000      28.19200000      26.43000000       0.60000000
Ni       5.28600000      29.95400000      24.66800000       0.60000000
Ni       3.52400000      28.19200000      28.19200000       0.60000000
Ni       3.52400000      29.95400000      29.95400000       0.60000000
Ni       5.28600000      28.19200000      29.95400000       0.60000000
Ni       5.28600000      29.95400000      28.19200000       0.60000000
Ni       3.52400000      28.19200000      31.71600000       0.60000000
Ni       3.52400000      29.95400000      33.47800000       0.60000000
Ni       5.28600000      28.19200000      33.47800000       0.60000000
Ni       5.28600000      29.95400000      31.71600000       0.60000000
Ni       3.52400000      31.71600000       0.00000000       0.60000000
Ni       3.52400000      33.47800000       1.76200000       0.60000000
Ni       5.28600000      31.71600000       1.76200000       0.60000000
Ni       5.28600000      33.47800000       0.00000000       0.60000000
Ni       3.52400000      31.71600000       3.52400000       0.60000000
Ni       3.52400000      33.47800000       5.28600000       0.60000000
Ni       5.28600000      31.71600000       5.28600000       0.60000000
Ni       5.28600000      33.47800000       3.52400000       0.60000000
Ni       3.52400000      31.71600000       7.04800000       0.60000000
Ni       3.52400000      33.47800000       8.81000000       0.60000000
Ni       5.28600000      31.71600000       8.81000000       0.60000000
Ni       5.28600000      33.47800000       7.04800000       0.60000000
Ni       3.52400000      31.71600000      10.57200000       0.60000000
Ni       3.52400000      33.47800000      12.33400000       0.60000000
Ni       5.28600000      31.71600000      12.33400000       0.60000000
Ni       5.28600000      33.47800000      10.57200000       0.60000000
Ni       3.52400000      31.71600000      14.09600000       0.60000000
Ni       3.52400000      33.47800000      15.85800000       0.60000000
Ni       5.28600000      31.71600000      15.85800000       0.60000000
Ni       5.28600000      33.47800000      14.09600000       0.60000000
Ni       3.52400000      31.71600000      17.62000000       0.60000000
Ni       3.52400000      33.47800000      19.38200000       0.60000000
Ni       5.28600000      31.71600000      19.38200000       0.60000000
Ni       5.28600000      33.47800000      17.62000000       0.60000000
Ni       3.52400000      31.71600000      21.14400000       0.60000000
Ni       3.52400000      33.47800000      22.90600000       0.60000000
Ni       5.28600000      31.71600000      22.90600000       0.60000000
Ni       5.28600000      33.47800000      21.14400000       0.60000000
Ni       3.52400000      31.71600000      24.66800000       0.60000000
Ni       3.52400000      33.47800000      26.43000000       0.60000000
Ni       5.28600000      31.71600000      26.43000000       0.60000000
Ni       5.28600000      33.47800000      24.66800000       0.60000000
Ni       3.52400000      31.71600000      28.19200000       0.60000000
Ni       3.52400000      33.47800000      29.95400000       0.60000000
Ni       5.28600000      31.71600000      29.95400000       0.60000000
Ni       5.28600000      33.47800000      28.19200000       0.60000000
Ni       3.52400000      31.71600000      31.71600000       0.60000000
Ni       3.52400000      33.47800000      33.47800000       0.60000000
Ni       5.28600000      31.71600000      33.47800000       0.60000000
Ni       5.28600000      33.47800000      31.71600000       0.60000000
Ni       7.04800000       0.00000000       0.00000000       0.60000000
Ni       7.04800000       1.76200000       1.76200000       0.60000000
Ni       8.81000000       0.00000000       1.76200000       0.60000000
Ni       8.81000000       1.76200000       0.00000000       0.60000000
Ni       7.04800000       0.00000000       3.52400000       0.60000000
Ni       7.04800000       1.76200000       5.28600000       0.60000000
Ni       8.81000000       0.00000000       5.28600000       0.60000000
Ni       8.81000000       1.76200000       3.52400000       0.60000000
Ni       7.04800000       0.00000000       7.04800000       0.60000000
Ni       7.04800000       1.76200000       8.81000000       0.60000000
Ni       8.81000000       0.00000000       8.81000000       0.60000000
Ni       8.81000000       1.76200000       7.04800000       0.60000000
Ni       7.04800000       0.00000000      10.57200000       0.60000000
Ni       7.04800000       1.76200000      12.33400000       0.60000000
Ni       8.81000000       0.00000000      12.33400000       0.60000000
Ni       8.81000000       1.76200000      10.57200000       0.60000000
Ni       7.04800000       0.00000000      14.09600000       0.60000000
Ni       7.04800000       1.76200000      15.85800000       0.60000000
Ni       8.81000000       0.00000000      15.85800000       0.60000000
Ni       8.81000000       1.76200000      14.09600000       0.60000000
Ni       7.04800000       0.00000000      17.62000000       0.60000000
Ni       7.04800000       1.76200000      19.38200000       0.60000000
Ni       8.81000000       0.00000000      19.38200000       0.60000000
Ni       8.81000000       1.76200000      17.62000000       0.60000000
Ni       7.04800000       0.00000000      21.14400000       0.60000000
Ni       7.04800000       1.76200000      22.90600000       0.60000000
Ni       8.81000000       0.00000000      22.90600000       0.60000000
Ni       8.81000000       1.76200000      21.14400000       0.60000000
Ni       7.04800000       0.00000000      24.66800000       0.60000000
Ni       7.04800000       1.76200000      26.43000000       0.60000000
Ni       8.81000000       0.00000000      26.43000000       0.60000000
Ni       8.81000000       1.76200000      24.66800000       0.60000000
Ni       7.04800000       0.00000000      28.19200000       0.60000000
Ni       7.04800000       1.76200000      29.95400000       0.60000000
Ni       8.81000000       0.00000000      29.95400000       0.60000000
Ni       8.81000000       1.76200000      28.19200000       0.60000000
Ni       7.04800000       0.00000000      31.71600000       0.60000000
Ni       7.04800000       1.76200000      33.47800000       0.60000000
Ni       8.81000000       0.00000000      33.47800000       0.60000000
Ni       8.81000000       1.76200000      31.71600000       0.60000000
Ni       7.04800000       3.52400000       0.00000000       0.60000000
Ni       7.04800000       5.28600000       1.76200000       0.60000000
Ni       8.81000000       3.52400000       1.76200000       0.60000000
Ni       8.81000000       5.28600000       0.00000000       0.60000000
Ni       7.04800000       3.52400000       3.52400000       0.60000000
Ni       7.04800000       5.28600000       5.28600000       0.60000000
Ni       8.81000000       3.52400000       5.28600000       0.60000000
Ni       8.81000000       5.28600000       3.52400000       0.60000000
Ni       7.04800000       3.52400000       7.04800000       0.60000000
Ni       7.04800000       5.28600000       8.81000000       0.60000000
Ni       8.81000000       3.52400000       8.81000000       0.60000000
Ni       8.81000000       5.28600000       7.04800000       0.60000000
Ni       7.04800000       3.52400000      10.57200000       0.60000000
Ni       7.04800000       5.28600000      12.33400000       0.60000000
Ni       8.81000000       3.52400000      12.33400000       0.60000000
Ni       8.81000000       5.28600000      10.57200000       0.60000000
Ni       7.04800000       3.52400000      14.09600000       0.60000000
Ni       7.04800000       5.28600000      15.85800000       0.60000000
Ni       8.81000000       3.52400000      15.85800000       0.60000000
Ni       8.81000000       5.28600000      14.09600000       0.60000000
Ni       7.04800000       3.52400000      17.62000000       0.60000000
Ni       7.04800000       5.28600000      19.38200000       0.60000000
Ni       8.81000000       3.52400000      19.38200000       0.60000000
Ni       8.81000000       5.28600000      17.62000000       0.60000000
Ni       7.04800000       3.52400000      21.14400000       0.60000000
Ni       7.04800000       5.28600000      22.90600000       0.60000000
Ni       8.81000000       3.52400000      22.90600000       0.60000000
Ni       8.81000000       5.28600000      21.14400000       0.60000000
Ni       7.04800000       3.52400000      24.66800000       0.60000000
Ni       7.04800000       5.28600000      26.43000000       0.60000000
Ni       8.81000000       3.52400000      26.43000000       0.60000000
Ni       8.81000000       5.28600000      24.66800000       0.60000000
Ni       7.04800000       3.52400000      28.19200000       0.60000000
Ni       7.04800000       5.28600000      29.95400000       0.60000000
Ni       8.81000000       3.52400000      29.95400000       0.60000000
Ni       8.81000000       5.28600000      28.19200000       0.60000000
Ni       7.04800000       3.52400000      31.71600000       0.60000000
Ni       7.04800000       5.28600000      33.47800000       0.60000000
Ni       8.81000000       3.52400000      33.47800000       0.60000000
Ni       8.81000000       5.28600000      31.71600000       0.60000000
Ni       7.04800000       7.04800000       0.00000000       0.60000000
Ni       7.04800000       8.81000000       1.76200000       0.60000000
Ni       8.81000000       7.04800000       1.76200000       0.60000000
Ni       8.81000000       8.81000000       0.00000000       0.60000000
Ni       7.04800000       7.04800000       3.52400000       0.60000000
Ni       7.04800000       8.81000000       5.28600000       0.60000000
Ni       8.81000000       7.04800000       5.28600000       0.60000000
Ni       8.81000000       8.81000000       3.52400000       0.60000000
Ni       7.04800000       7.04800000       7.04800000       0.60000000
Ni       7.04800000       8.81000000       8.81000000       0.60000000
Ni       8.81000000       7.04800000       8.81000000       0.60000000
Ni       8.81000000       8.81000000       7.04800000       0.60000000
Ni       7.04800000       7.04800000      10.57200000       0.60000000
Ni       7.04800000       8.81000000      12.33400000       0.60000000
Ni       8.81000000       7.04800000      12.33400000       0.60000000
Ni       8.81000000       8.81000000      10.57200000       0.60000000
Ni       7.04800000       7.04800000      14.09600000       0.60000000
Ni       7.04800000       8.81000000      15.85800000       0.60000000
Ni       8.81000000       7.04800000      15.85800000       0.60000000
Ni       8.81000000       8.81000000      14.09600000       0.60000000
Ni       7.04800000       7.04800000      17.62000000       0.60000000
Ni       7.04800000       8.81000000      19.38200000       0.60000000
Ni       8.81000000       7.04800000      19.38200000       0.60000000
Ni       8.81000000       8.81000000      17.62000000       0.60000000
Ni       7.04800000       7.04800000      21.14400000       0.60000000
Ni       7.04800000       8.81000000      22.90600000       0.60000000
Ni       8.81000000       7.04800000      22.90600000       0.60000000
Ni       8.81000000       8.81000000      21.14400000       0.60000000
Ni       7.04800000       7.04800000      24.66800000       0.60000000
Ni       7.04800000       8.81000000      26.43000000       0.60000000
Ni       8.81000000       7.04800000      26.43000000       0.60000000
Ni       8.81000000       8.81000000      24.66800000       0.60000000
Ni       7.04800000       7.04800000      28.19200000       0.60000000
Ni       7.04800000       8.81000000      29.95400000       0.60000000
Ni       8.81000000       7.04800000      29.95400000       0.60000000
Ni       8.81000000       8.81000000      28.19200000       0.60000000
Ni       7.04800000       7.04800000      31.71600000       0.60000000
Ni       7.04800000       8.81000000      33.47800000       0.60000000
Ni       8.81000000       7.04800000      33.47800000       0.60000000
Ni       8.81000000       8.81000000      31.71600000       0.60000000
Ni       7.04800000      10.57200000       0.00000000       0.60000000
Ni       7.04800000      12.33400000       1.76200000       0.60000000
Ni       8.81000000      10.57200000       1.76200000       0.60000000
Ni       8.81000000      12.33400000       0.00000000       0.60000000
Ni       7.04800000      10.57200000       3.52400000       0.60000000
Ni       7.04800000      12.33400000       5.28600000       0.60000000
Ni       8.81000000      10.57200000       5.28600000       0.60000000
Ni       8.81000000      12.33400000       3.52400000       0.60000000
Ni       7.04800000      10.57200000       7.04800000       0.60000000
Ni       7.04800000      12.33400000       8.81000000       0.60000000
Ni       8.81000000      10.57200000       8.81000000       0.60000000
Ni       8.81000000      12.33400000       7.04800000       0.60000000
Ni       7.04800000      10.57200000      10.57200000       0.60000000
Ni       7.04800000      12.33400000      12.33400000       0.60000000
Ni       8.81000000      10.57200000      12.33400000       0.60000000
Ni       8.81000000      12.33400000      10.57200000       0.60000000
Ni       7.04800000      10.57200000      14.09600000       0.60000000
Ni       7.04800000      12.33400000      15.85800000       0.60000000
Ni       8.81000000      10.57200000      15.85800000       0.60000000
Ni       8.81000000      12.33400000      14.09600000       0.60000000
Ni       7.04800000      10.57200000      17.62000000       0.60000000
Ni       7.04800000      12.33400000      19.38200000       0.60000000
Ni       8.81000000      10.57200000      19.38200000       0.60000000
Ni       8.81000000      12.33400000      17.62000000       0.60000000
Ni       7.04800000      10.57200000      21.14400000       0.60000000
Ni       7.04800000      12.33400000      22.90600000       0.60000000
Ni       8.81000000      10.57200000      22.90600000       0.60000000
Ni       8.81000000      12.33400000      21.14400000       0.60000000
Ni       7.04800000      10.57200000      24.66800000       0.60000000
Ni       7.04800000      12.33400000      26.43000000       0.60000000
Ni       8.81000000      10.57200000      26.43000000       0.60000000
Ni       8.81000000      12.33400000      24.66800000       0.60000000
Ni       7.04800000      10.57200000      28.19200000       0.60000000
Ni       7.04800000      12.33400000      29.95400000       0.60000000
Ni       8.81000000      10.57200000      29.95400000       0.60000000
Ni       8.81000000      12.33400000      28.19200000       0.60000000
Ni       7.04800000      10.57200000      31.71600000       0.60000000
Ni       7.04800000      12.33400000      33.47800000       0.60000000
Ni       8.81000000      10.57200000      33.47800000       0.60000000
Ni       8.81000000      12.33400000      31.71600000       0.60000000
Ni       7.04800000      14.09600000       0.00000000       0.60000000
Ni       7.04800000      15.85800000       1.76200000       0.60000000
Ni       8.81000000      14.09600000       1.76200000       0.60000000
Ni       8.81000000      15.85800000       0.00000000       0.60000000
Ni       7.04800000      14.09600000       3.52400000       0.60000000
Ni       7.04800000      15.85800000       5.28600000       0.60000000
Ni       8.81000000      14.09600000       5.28600000       0.60000000
Ni       8.81000000      15.85800000       3.52400000       0.60000000
Ni       7.04800000      14.09600000       7.04800000       0.60000000
Ni       7.04800000      15.85800000       8.81000000       0.60000000
Ni       8.81000000      14.09600000       8.81000000       0.60000000
Ni       8.81000000      15.85800000       7.04800000       0.60000000
Ni       7.04800000      14.09600000      10.57200000       0.60000000
Ni       7.04800000      15.85800000      12.33400000       0.60000000
Ni       8.81000000      14.09600000      12.33400000       0.60000000
Ni       8.81000000      15.85800000      10.57200000       0.60000000
Ni       7.04800000      14.09600000      14.09600000       0.60000000
Ni       7.04800000      15.85800000      15.85800000       0.60000000
Ni       8.81000000      14.09600000      15.85800000       0.60000000
Ni       8.81000000      15.85800000      14.09600000       0.60000000
Ni       7.04800000      14.09600000      17.62000000       0.60000000
Ni       7.04800000      15.85800000      19.38200000       0.60000000
Ni       8.81000000      14.09600000      19.38200000       0.60000000
Ni       8.81000000      15.85800000      17.62000000       0.60000000
Ni       7.04800000      14.09600000      21.14400000       0.60000000
Ni       7.04800000      15.85800000      22.90600000       0.60000000
Ni       8.81000000      14.09600000      22.90600000       0.60000000
Ni       8.81000000      15.85800000      21.14400000       0.60000000
Ni       7.04800000      14.09600000      24.66800000       0.60000000
Ni       7.04800000      15.85800000      26.43000000       0.60000000
Ni       8.81000000      14.09600000      26.43000000       0.60000000
Ni       8.81000000      15.85800000      24.66800000       0.60000000
Ni       7.04800000      14.09600000      28.19200000       0.60000000
Ni       7.04800000      15.85800000      29.95400000       0.60000000
Ni       8.81000000      14.09600000      29.95400000       0.60000000
Ni       8.81000000      15.85800000      28.19200000       0.60000000
Ni       7.04800000      14.09600000      31.71600000       0.60000000
Ni       7.04800000      15.85800000      33.47800000       0.60000000
Ni       8.81000000      14.09600000      33.47800000       0.60000000
Ni       8.81000000      15.85800000      31.71600000       0.60000000
Ni       7.04800000      17.62000000       0.00000000       0.60000000
Ni       7.04800000      19.38200000       1.76200000       0.60000000
Ni       8.81000000      17.62000000       1.76200000       0.60000000
Ni       8.81000000      19.38200000       0.00000000       0.60000000
Ni       7.04800000      17.62000000       3.52400000       0.60000000
Ni       7.04800000      19.38200000       5.28600000       0.60000000
Ni       8.81000000      17.62000000       5.28600000       0.60000000
Ni       8.81000000      19.38200000       3.52400000       0.60000000
Ni       7.04800000      17.62000000       7.04800000       0.60000000
Ni       7.04800000      19.38200000       8.81000000       0.60000000
Ni       8.81000000      17.62000000       8.81000000       0.60000000
Ni       8.81000000      19.38200000       7.04800000       0.60000000
Ni       7.04800000      17.62000000      10.57200000       0.60000000
Ni       7.04800000      19.38200000      12.33400000       0.60000000
Ni       8.81000000      17.62000000      12.33400000       0.60000000
Ni       8.81000000      19.38200000      10.57200000       0.60000000
Ni       7.04800000      17.62000000      14.09600000       0.60000000
Ni       7.04800000      19.38200000      15.85800000       0.60000000
Ni       8.81000000      17.62000000      15.85800000       0.60000000
Ni       8.81000000      19.38200000      14.09600000       0.60000000
Ni       7.04800000      17.62000000      17.62000000       0.60000000
Ni       7.04800000      19.38200000      19.38200000       0.60000000
Ni       8.81000000      17.62000000      19.38200000       0.60000000
Ni       8.81000000      19.38200000      17.62000000       0.60000000
Ni       7.04800000      17.62000000      21.14400000       0.60000000
Ni       7.04800000      19.38200000      22.90600000       0.60000000
Ni       8.81000000      17.62000000      22.90600000       0.60000000
Ni       8.81000000      19.38200000      21.14400000       0.60000000
Ni       7.04800000      17.62000000      24.66800000       0.60000000
Ni       7.04800000      19.38200000      26.43000000       0.60000000
Ni       8.81000000      17.62000000      26.43000000       0.60000000
Ni       8.81000000      19.38200000      24.66800000       0.60000000
Ni       7.04800000      17.62000000      28.19200000       0.60000000
Ni       7.04800000      19.38200000      29.95400000       0.60000000
Ni       8.81000000      17.62000000      29.95400000       0.60000000
Ni       8.81000000      19.38200000      28.19200000       0.60000000
Ni       7.04800000      17.62000000      31.71600000       0.60000000
Ni       7.04800000      19.38200000      33.47800000       0.60000000
Ni       8.81000000      17.62000000      33.47800000       0.60000000
Ni       8.81000000      19.38200000      31.71600000       0.60000000
Ni       7.04800000      21.14400000       0.00000000       0.60000000
Ni       7.04800000      22.90600000       1.76200000       0.60000000
Ni       8.81000000      21.14400000       1.76200000       0.60000000
Ni       8.81000000      22.90600000       0.00000000       0.60000000
Ni       7.04800000      21.14400000       3.52400000       0.60000000
Ni       7.04800000      22.90600000       5.28600000       0.60000000
Ni       8.81000000      21.14400000       5.28600000       0.60000000
Ni       8.81000000      22.90600000       3.52400000       0.60000000
Ni       7.04800000      21.14400000       7.04800000       0.60000000
Ni       7.04800000      22.90600000       8.81000000       0.60000000
Ni       8.81000000      21.14400000       8.81000000       0.60000000
Ni       8.81000000      22.90600000       7.04800000       0.60000000
Ni       7.04800000      21.14400000      10.57200000       0.60000000
Ni       7.04800000      22.90600000      12.33400000       0.60000000
Ni       8.81000000      21.14400000      12.33400000       0.60000000
Ni       8.81000000      22.90600000      10.57200000       0.60000000
Ni       7.04800000      21.14400000      14.09600000       0.60000000
Ni       7.04800000      22.90600000      15.85800000       0.60000000
Ni       8.81000000      21.14400000      15.85800000       0.60000000
Ni       8.81000000      22.90600000      14.09600000       0.60000000
Ni       7.04800000      21.14400000      17.62000000       0.60000000
Ni       7.04800000      22.90600000      19.38200000       0.60000000
Ni       8.81000000      21.14400000      19.38200000       0.60000000
Ni       8.81000000      22.90600000      17.62000000       0.60000000
Ni       7.04800000      21.14400000      21.14400000       0.60000000
Ni       7.04800000      22.90600000      22.90600000       0.60000000
Ni       8.81000000      21.14400000      22.90600000       0.60000000
Ni       8.81000000      22.90600000      21.14400000       0.60000000
Ni       7.04800000      21.14400000      24.66800000       0.60000000
Ni       7.04800000      22.90600000      26.43000000       0.60000000
Ni       8.81000000      21.14400000      26.43000000       0.60000000
Ni       8.81000000      22.90600000      24.66800000       0.60000000
Ni       7.04800000      21.14400000      28.19200000       0.60000000
Ni       7.04800000      22.90600000      29.95400000       0.60000000
Ni       8.81000000      21.14400000      29.95400000       0.60000000
Ni       8.81000000      22.90600000      28.19200000       0.60000000
Ni       7.04800000      21.14400000      31.71600000       0.60000000
Ni       7.04800000      22.90600000      33.47800000       0.60000000
Ni       8.81000000      21.14400000      33.47800000       0.60000000
Ni       8.81000000      22.90600000      31.71600000       0.60000000
Ni       7.04800000      24.66800000       0.00000000       0.60000000
Ni       7.04800000      26.43000000       1.76200000       0.60000000
Ni       8.81000000      24.66800000       1.76200000       0.60000000
Ni       8.81000000      26.43000000       0.00000000       0.60000000
Ni       7.04800000      24.66800000       3.52400000       0.60000000
Ni       7.04800000      26.43000000       5.28600000       0.60000000
Ni       8.81000000      24.66800000       5.28600000       0.60000000
Ni       8.81000000      26.43000000       3.52400000       0.60000000
Ni       7.04800000      24.66800000       7.04800000       0.60000000
Ni       7.04800000      26.43000000       8.81000000       0.60000000
Ni       8.81000000      24.66800000       8.81000000       0.60000000
Ni       8.81000000      26.43000000       7.04800000       0.60000000
Ni       7.04800000      24.66800000      10.57200000       0.60000000
Ni       7.04800000      26.43000000      12.33400000       0.60000000
Ni       8.81000000      24.66800000      12.33400000       0.60000000
Ni       8.81000000      26.43000000      10.57200000       0.60000000
Ni       7.04800000      24.66800000      14.09600000       0.60000000
Ni       7.04800000      26.43000000      15.85800000       0.60000000
Ni       8.81000000      24.66800000      15.85800000       0.60000000
Ni       8.81000000      26.43000000      14.09600000       0.60000000
Ni       7.04800000      24.66800000      17.62000000       0.60000000
Ni       7.04800000      26.43000000      19.38200000       0.60000000
Ni       8.81000000      24.66800000      19.38200000       0.60000000
Ni       8.81000000      26.43000000      17.62000000       0.60000000
Ni       7.04800000      24.66800000      21.14400000       0.60000000
Ni       7.04800000      26.43000000      22.90600000       0.60000000
Ni       8.81000000      24.66800000      22.90600000       0.60000000
Ni       8.81000000      26.43000000      21.14400000       0.60000000
Ni       7.04800000      24.66800000      24.66800000       0.60000000
Ni       7.04800000      26.43000000      26.43000000       0.60000000
Ni       8.81000000      24.66800000      26.43000000       0.60000000
Ni       8.81000000      26.43000000      24.66800000       0.60000000
Ni       7.04800000      24.66800000      28.19200000       0.60000000
Ni       7.04800000      26.43000000      29.95400000       0.60000000
Ni       8.81000000      24.66800000      29.95400000       0.60000000
Ni       8.81000000      26.43000000      28.19200000       0.60000000
Ni       7.04800000      24.66800000      31.71600000       0.60000000
Ni       7.04800000      26.43000000      33.47800000       0.60000000
Ni       8.81000000      24.66800000      33.47800000       0.60000000
Ni       8.81000000      26.43000000      31.71600000       0.60000000
Ni       7.04800000      28.19200000       0.00000000       0.60000000
Ni       7.04800000      29.95400000       1.76200000       0.60000000
Ni       8.81000000      28.19200000       1.76200000       0.60000000
Ni       8.81000000      29.95400000       0.00000000       0.60000000
Ni       7.04800000      28.19200000       3.52400000       0.60000000
Ni       7.04800000      29.95400000       5.28600000       0.60000000
Ni       8.81000000      28.19200000       5.28600000       0.60000000
Ni       8.81000000      29.95400000       3.52400000       0.60000000
Ni       7.04800000      28.19200000       7.04800000       0.60000000
Ni       7.04800000      29.95400000       8.81000000       0.60000000
Ni       8.81000000      28.19200000       8.81000000       0.60000000
Ni       8.81000000      29.95400000       7.04800000       0.60000000
Ni       7.04800000      28.19200000      10.57200000       0.60000000
Ni       7.04800000      29.95400000      12.33400000       0.60000000
Ni       8.81000000      28.19200000      12.33400000       0.60000000
Ni       8.81000000      29.95400000      10.57200000       0.60000000
Ni       7.04800000      28.19200000      14.09600000       0.60000000
Ni       7.04800000      29.95400000      15.85800000       0.60000000
Ni       8.81000000      28.19200000      15.85800000       0.60000000
Ni       8.81000000      29.95400000      14.09600000       0.60000000
Ni       7.04800000      28.19200000      17.62000000       0.60000000
Ni       7.04800000      29.95400000      19.38200000       0.60000000
Ni       8.81000000      28.19200000      19.38200000       0.60000000
Ni       8.81000000      29.95400000      17.62000000       0.60000000
Ni       7.04800000      28.19200000      21.14400000       0.60000000
Ni       7.04800000      29.95400000      22.90600000       0.60000000
Ni       8.81000000      28.19200000      22.90600000       0.60000000
Ni       8.81000000      29.95400000      21.14400000       0.60000000
Ni       7.04800000      28.19200000      24.66800000       0.60000000
Ni       7.04800000      29.95400000      26.43000000       0.60000000
Ni       8.81000000      28.19200000      26.43000000       0.60000000
Ni       8.81000000      29.95400000      24.66800000       0.60000000
Ni       7.04800000      28.19200000      28.19200000       0.60000000
Ni       7.04800000      29.95400000      29.95400000       0.60000000
Ni       8.81000000      28.19200000      29.95400000       0.60000000
Ni       8.81000000      29.95400000      28.19200000       0.60000000
Ni       7.04800000      28.19200000      31.71600000       0.60000000
Ni       7.04800000      29.95400000      33.47800000       0.60000000
Ni       8.81000000      28.19200000      33.47800000       0.60000000
Ni       8.81000000      29.95400000      31.71600000       0.60000000
Ni       7.04800000      31.71600000       0.00000000       0.60000000
Ni       7.04800000      33.47800000       1.76200000       0.60000000
Ni       8.81000000      31.71600000       1.76200000       0.60000000
Ni       8.81000000      33.47800000       0.00000000       0.60000000
Ni       7.04800000      31.71600000       3.52400000       0.60000000
Ni       7.04800000      33.47800000       5.28600000       0.60000000
Ni       8.81000000      31.71600000       5.28600000       0.60000000
Ni       8.81000000      33.47800000       3.52400000       0.60000000
Ni       7.04800000      31.71600000       7.04800000       0.60000000
Ni       7.04800000      33.47800000       8.81000000       0.60000000
Ni       8.81000000      31.71600000       8.81000000       0.60000000
Ni       8.81000000      33.47800000       7.04800000       0.60000000
Ni       7.04800000      31.71600000      10.57200000       0.60000000
Ni       7.04800000      33.47800000      12.33400000       0.60000000
Ni       8.81000000      31.71600000      12.33400000       0.60000000
Ni       8.81000000      33.47800000      10.57200000       0.60000000
Ni       7.04800000      31.71600000      14.09600000       0.60000000
Ni       7.04800000      33.47800000      15.85800000       0.60000000
Ni       8.81000000      31.71600000      15.85800000       0.60000000
Ni       8.81000000      33.47800000      14.09600000       0.60000000
Ni       7.04800000      31.71600000      17.62000000       0.60000000
Ni       7.04800000      33.47800000      19.38200000       0.60000000
Ni       8.81000000      31.71600000      19.38200000       0.60000000
Ni       8.81000000      33.47800000      17.62000000       0.60000000
Ni       7.04800000      31.71600000      21.14400000       0.60000000
Ni       7.04800000      33.47800000      22.90600000       0.60000000
Ni       8.81000000      31.71600000      22.90600000       0.60000000
Ni       8.81000000      33.47800000      21.14400000       0.60000000
Ni       7.04800000      31.71600000      24.66800000       0.60000000
Ni       7.04800000      33.47800000      26.43000000       0.60000000
Ni       8.81000000      31.71600000      26.43000000       0.60000000
Ni       8.81000000      33.47800000      24.66800000       0.60000000
Ni       7.04800000      31.71600000      28.19200000       0.60000000
Ni       7.04800000      33.47800000      29.95400000       0.60000000
Ni       8.81000000      31.71600000      29.95400000       0.60000000
Ni       8.81000000      33.47800000      28.19200000       0.60000000
Ni       7.04800000      31.71600000      31.71600000       0.60000000
Ni       7.04800000      33.47800000      33.47800000       0.60000000
Ni       8.81000000      31.71600000      33.47800000       0.60000000
Ni       8.81000000      33.47800000      31.71600000       0.60000000
Ni      10.57200000       0.00000000       0.00000000       0.60000000
Ni      10.57200000       1.76200000       1.76200000       0.60000000
Ni      12.33400000       0.00000000       1.76200000       0.60000000
Ni      12.33400000       1.76200000       0.00000000       0.60000000
Ni      10.57200000       0.00000000       3.52400000       0.60000000
Ni      10.57200000       1.76200000       5.28600000       0.60000000
Ni      12.33400000       0.00000000       5.28600000       0.60000000
Ni      12.33400000       1.76200000       3.52400000       0.60000000
Ni      10.57200000       0.00000000       7.04800000       0.60000000
Ni      10.57200000       1.76200000       8.81000000       0.60000000
Ni      12.33400000       0.00000000       8.81000000       0.60000000
Ni      12.33400000       1.76200000       7.04800000       0.60000000
Ni      10.57200000       0.00000000      10.57200000       0.60000000
Ni      10.57200000       1.76200000      12.33400000       0.60000000
Ni      12.33400000       0.00000000      12.33400000       0.60000000
Ni      12.33400000       1.76200000      10.57200000       0.60000000
Ni      10.57200000       0.00000000      14.09600000       0.60000000
Ni      10.57200000       1.76200000      15.85800000       0.60000000
Ni      12.33400000       0.00000000      15.85800000       0.60000000
Ni      12.33400000       1.76200000      14.09600000       0.60000000
Ni      10.57200000       0.00000000      17.62000000       0.60000000
Ni      10.57200000       1.76200000      19.38200000       0.60000000
Ni      12.33400000       0.00000000      19.38200000       0.60000000
Ni      12.33400000       1.76200000      17.62000000       0.60000000
Ni      10.57200000       0.00000000      21.14400000       0.60000000
Ni      10.57200000       1.76200000      22.90600000       0.60000000
Ni      12.33400000       0.00000000      22.90600000       0.60000000
Ni      12.33400000       1.76200000      21.14400000       0.60000000
Ni      10.57200000       0.00000000      24.66800000       0.60000000
Ni      10.57200000       1.76200000      26.43000000       0.60000000
Ni      12.33400000       0.00000000      26.43000000       0.60000000
Ni      12.33400000       1.76200000      24.66800000       0.60000000
Ni      10.57200000       0.00000000      28.19200000       0.60000000
Ni      10.57200000       1.76200000      29.95400000       0.60000000
Ni      12.33400000       0.00000000      29.95400000       0.60000000
Ni      12.33400000       1.76200000      28.19200000       0.60000000
Ni      10.57200000       0.00000000      31.71600000       0.60000000
Ni      10.57200000       1.76200000      33.47800000       0.60000000
Ni      12.33400000       0.00000000      33.47800000       0.60000000
Ni      12.33400000       1.76200000      31.71600000       0.60000000
Ni      10.57200000       3.52400000       0.00000000       0.60000000
Ni      10.57200000       5.28600000       1.76200000       0.60000000
Ni      12.33400000       3.52400000       1.76200000       0.60000000
Ni      12.33400000       5.28600000       0.00000000       0.60000000
Ni      10.57200000       3.52400000       3.52400000       0.60000000
Ni      10.57200000       5.28600000       5.28600000       0.60000000
Ni      12.33400000       3.52400000       5.28600000       0.60000000
Ni      12.33400000       5.28600000       3.52400000       0.60000000
Ni      10.57200000       3.52400000       7.04800000       0.60000000
Ni      10.57200000       5.28600000       8.81000000       0.60000000
Ni      12.33400000       3.52400000       8.81000000       0.60000000
Ni      12.33400000       5.28600000       7.04800000       0.60000000
Ni      10.57200000       3.52400000      10.57200000       0.60000000
Ni      10.57200000       5.28600000      12.33400000       0.60000000
Ni      12.33400000       3.52400000      12.33400000       0.60000000
Ni      12.33400000       5.28600000      10.57200000       0.60000000
Ni      10.57200000       3.52400000      14.09600000       0.60000000
Ni      10.57200000       5.28600000      15.85800000       0.60000000
Ni      12.33400000       3.52400000      15.85800000       0.60000000
Ni      12.33400000       5.28600000      14.09600000       0.60000000
Ni      10.57200000       3.52400000      17.62000000       0.60000000
Ni      10.57200000       5.28600000      19.38200000       0.60000000
Ni      12.33400000       3.52400000      19.38200000       0.60000000
Ni      12.33400000       5.28600000      17.62000000       0.60000000
Ni      10.57200000       3.52400000      21.14400000       0.60000000
Ni      10.57200000       5.28600000      22.90600000       0.60000000
Ni      12.33400000       3.52400000      22.90600000       0.60000000
Ni      12.33400000       5.28600000      21.14400000       0.60000000
Ni      10.57200000       3.52400000      24.66800000       0.60000000
Ni      10.57200000       5.28600000      26.43000000       0.60000000
Ni      12.33400000       3.52400000      26.43000000       0.60000000
Ni      12.33400000       5.28600000      24.66800000       0.60000000
Ni      10.57200000       3.52400000      28.19200000       0.60000000
Ni      10.57200000       5.28600000      29.95400000       0.60000000
Ni      12.33400000       3.52400000      29.95400000       0.60000000
Ni      12.33400000       5.28600000      28.19200000       0.60000000
Ni      10.57200000       3.52400000      31.71600000       0.60000000
Ni      10.57200000       5.28600000      33.47800000       0.60000000
Ni      12.33400000       3.52400000      33.47800000       0.60000000
Ni      12.33400000       5.28600000      31.71600000       0.60000000
Ni      10.57200000       7.04800000       0.00000000       0.60000000
Ni      10.57200000       8.81000000       1.76200000       0.60000000
Ni      12.33400000       7.04800000       1.76200000       0.60000000
Ni      12.33400000       8.81000000       0.00000000       0.60000000
Ni      10.57200000       7.04800000       3.52400000       0.60000000
Ni      10.57200000       8.81000000       5.28600000       0.60000000
Ni      12.33400000       7.04800000       5.28600000       0.60000000
Ni      12.33400000       8.81000000       3.52400000       0.60000000
Ni      10.57200000       7.04800000       7.04800000       0.60000000
Ni      10.57200000       8.81000000       8.81000000       0.60000000
Ni      12.33400000       7.04800000       8.81000000       0.60000000
Ni      12.33400000       8.81000000       7.04800000       0.60000000
Ni      10.57200000       7.04800000      10.57200000       0.60000000
Ni      10.57200000       8.81000000      12.33400000       0.60000000
Ni      12.33400000       7.04800000      12.33400000       0.60000000
Ni      12.33400000       8.81000000      10.57200000       0.60000000
Ni      10.57200000       7.04800000      14.09600000       0.60000000
Ni      10.57200000       8.81000000      15.85800000       0.60000000
Ni      12.33400000       7.04800000      15.85800000       0.60000000
Ni      12.33400000       8.81000000      14.09600000       0.60000000
Ni      10.57200000       7.04800000      17.62000000       0.60000000
Ni      10.57200000       8.81000000      19.38200000       0.60000000
Ni      12.33400000       7.04800000      19.38200000       0.60000000
Ni      12.33400000       8.81000000      17.62000000       0.60000000
Ni      10.57200000       7.04800000      21.14400000       0.60000000
Ni      10.57200000       8.81000000      22.90600000       0.60000000
Ni      12.33400000       7.04800000      22.90600000       0.60000000
Ni      12.33400000       8.81000000      21.14400000       0.60000000
Ni      10.57200000       7.04800000      24.66800000       0.60000000
Ni      10.57200000       8.81000000      26.43000000       0.60000000
Ni      12.33400000       7.04800000      26.43000000       0.60000000
Ni      12.33400000       8.81000000      24.66800000       0.60000000
Ni      10.57200000       7.04800000      28.19200000       0.60000000
Ni      10.57200000       8.81000000      29.95400000       0.60000000
Ni      12.33400000       7.04800000      29.95400000       0.60000000
Ni      12.33400000       8.81000000      28.19200000       0.60000000
Ni      10.57200000       7.04800000      31.71600000       0.60000000
Ni      10.57200000       8.81000000      33.47800000       0.60000000
Ni      12.33400000       7.04800000      33.47800000       0.60000000
Ni      12.33400000       8.81000000      31.71600000       0.60000000
Ni      10.57200000      10.57200000       0.00000000       0.60000000
Ni      10.57200000      12.33400000       1.76200000       0.60000000
Ni      12.33400000      10.57200000       1.76200000       0.60000000
Ni      12.33400000      12.33400000       0.00000000       0.60000000
Ni      10.57200000      10.57200000       3.52400000       0.60000000
Ni      10.57200000      12.33400000       5.28600000       0.60000000
Ni      12.33400000      10.57200000       5.28600000       0.60000000
Ni      12.33400000      12.33400000       3.52400000       0.60000000
Ni      10.57200000      10.57200000       7.04800000       0.60000000
Ni      10.57200000      12.33400000       8.81000000       0.60000000
Ni      12.33400000      10.57200000       8.81000000       0.60000000
Ni      12.33400000      12.33400000       7.04800000       0.60000000
Cr      10.57200000      10.57200000      10.57200000       0.60000000
Cr      10.57200000      12.33400000      12.33400000       0.60000000
Cr      12.33400000      10.57200000      12.33400000       0.60000000
Cr      12.33400000      12.33400000      10.57200000       0.60000000
Ni      10.57200000      10.57200000      14.09600000       0.60000000
Ni      10.57200000      12.33400000      15.85800000       0.60000000
Ni      12.33400000      10.57200000      15.85800000       0.60000000
Cr      12.33400000      12.33400000      14.09600000       0.60000000
Ni      10.57200000      10.57200000      17.62000000       0.60000000
Ni      10.57200000      12.33400000      19.38200000       0.60000000
Ni      12.33400000      10.57200000      19.38200000       0.60000000
Ni      12.33400000      12.33400000      17.62000000       0.60000000
Ni      10.57200000      10.57200000      21.14400000       0.60000000
Ni      10.57200000      12.33400000      22.90600000       0.60000000
Ni      12.33400000      10.57200000      22.90600000       0.60000000
Ni      12.33400000      12.33400000      21.14400000       0.60000000
Ni      10.57200000      10.57200000      24.66800000       0.60000000
Ni      10.57200000      12.33400000      26.43000000       0.60000000
Ni      12.33400000      10.57200000      26.43000000       0.60000000
Ni      12.33400000      12.33400000      24.66800000       0.60000000
Ni      10.57200000      10.57200000      28.19200000       0.60000000
Ni      10.57200000      12.33400000      29.95400000       0.60000000
Ni      12.33400000      10.57200000      29.95400000       0.60000000
Ni      12.33400000      12.33400000      28.19200000       0.60000000
Ni      10.57200000      10.57200000      31.71600000       0.60000000
Ni      10.57200000      12.33400000      33.47800000       0.60000000
Ni      12.33400000      10.57200000      33.47800000       0.60000000
Ni      12.33400000      12.33400000      31.71600000       0.60000000
Ni      10.57200000      14.09600000       0.00000000       0.60000000
Ni      10.57200000      15.85800000       1.76200000       0.60000000
Ni      12.33400000      14.09600000       1.76200000       0.60000000
Ni      12.33400000      15.85800000       0.00000000       0.60000000
Ni      10.57200000      14.09600000       3.52400000       0.60000000
Ni      10.57200000      15.85800000       5.28600000       0.60000000
Ni      12.33400000      14.09600000       5.28600000       0.60000000
Ni      12.33400000      15.85800000       3.52400000       0.60000000
Ni      10.57200000      14.09600000       7.04800000       0.60000000
Ni      10.57200000      15.85800000       8.81000000       0.60000000
Ni      12.33400000      14.09600000       8.81000000       0.60000000
Ni      12.33400000      15.85800000       7.04800000       0.60000000
Ni      10.57200000      14.09600000      10.57200000       0.60000000
Ni      10.57200000      15.85800000      12.33400000       0.60000000
Cr      12.33400000      14.09600000      12.33400000       0.60000000
Ni      12.33400000      15.85800000      10.57200000       0.60000000
Cr      10.57200000      14.09600000      14.09600000       0.60000000
Cr      10.57200000      15.85800000      15.85800000       0.60000000
Cr      12.33400000      14.09600000      15.85800000       0.60000000
Cr      12.33400000      15.85800000      14.09600000       0.60000000
Ni      10.57200000      14.09600000      17.62000000       0.60000000
Ni      10.57200000      15.85800000      19.38200000       0.60000000
Ni      12.33400000      14.09600000      19.38200000       0.60000000
Cr      12.33400000      15.85800000      17.62000000       0.60000000
Ni      10.57200000      14.09600000      21.14400000       0.60000000
Ni      10.57200000      15.85800000      22.90600000       0.60000000
Ni      12.33400000      14.09600000      22.90600000       0.60000000
Ni      12.33400000      15.85800000      21.14400000       0.60000000
Ni      10.57200000      14.09600000      24.66800000       0.60000000
Ni      10.57200000      15.85800000      26.43000000       0.60000000
Ni      12.33400000      14.09600000      26.43000000       0.60000000
Ni      12.33400000      15.85800000      24.66800000       0.60000000
Ni      10.57200000      14.09600000      28.19200000       0.60000000
Ni      10.57200000      15.85800000      29.95400000       0.60000000
Ni      12.33400000      14.09600000      29.95400000       0.60000000
Ni      12.33400000      15.85800000      28.19200000       0.60000000
Ni      10.57200000      14.09600000      31.71600000       0.60000000
Ni      10.57200000      15.85800000      33.47800000       0.60000000
Ni      12.33400000      14.09600000      33.47800000       0.60000000
Ni      12.33400000      15.85800000      31.71600000       0.60000000
Ni      10.57200000      17.62000000       0.00000000       0.60000000
Ni      10.57200000      19.38200000       1.76200000       0.60000000
Ni      12.33400000      17.62000000       1.76200000       0.60000000
Ni      12.33400000      19.38200000       0.00000000       0.60000000
Ni      10.57200000      17.62000000       3.52400000       0.60000000
Ni      10.57200000      19.38200000       5.28600000       0.60000000
Ni      12.33400000      17.62000000       5.28600000       0.60000000
Ni      12.33400000      19.38200000       3.52400000       0.60000000
Ni      10.57200000      17.62000000       7.04800000       0.60000000
Ni      10.57200000      19.38200000       8.81000000       0.60000000
Ni      12.33400000      17.62000000       8.81000000       0.60000000
Ni      12.33400000      19.38200000       7.04800000       0.60000000
Ni      10.57200000      17.62000000      10.57200000       0.60000000
Ni      10.57200000      19.38200000      12.33400000       0.60000000
Ni      12.33400000      17.62000000      12.33400000       0.60000000
Ni      12.33400000      19.38200000      10.57200000       0.60000000
Ni      10.57200000      17.62000000      14.09600000       0.60000000
Ni      10.57200000      19.38200000      15.85800000       0.60000000
Cr      12.33400000      17.62000000      15.85800000       0.60000000
Ni      12.33400000      19.38200000      14.09600000       0.60000000
Cr      10.57200000      17.62000000      17.62000000       0.60000000
Cr      10.57200000      19.38200000      19.38200000       0.60000000
Cr      12.33400000      17.62000000      19.38200000       0.60000000
Cr      12.33400000      19.38200000      17.62000000       0.60000000
Ni      10.57200000      17.62000000      21.14400000       0.60000000
Ni      10.57200000      19.38200000      22.90600000       0.60000000
Ni      12.33400000      17.62000000      22.90600000       0.60000000
Cr      12.33400000      19.38200000      21.14400000       0.60000000
Ni      10.57200000      17.62000000      24.66800000       0.60000000
Ni      10.57200000      19.38200000      26.43000000       0.60000000
Ni      12.33400000      17.62000000      26.43000000       0.60000000
Ni      12.33400000      19.38200000      24.66800000       0.60000000
Ni      10.57200000      17.62000000      28.19200000       0.60000000
Ni      10.57200000      19.38200000      29.95400000       0.60000000
Ni      12.33400000      17.62000000      29.95400000       0.60000000
Ni      12.33400000      19.38200000      28.19200000       0.60000000
Ni      10.57200000      17.62000000      31.71600000       0.60000000
Ni      10.57200000      19.38200000      33.47800000       0.60000000
Ni      12.33400000      17.62000000      33.47800000       0.60000000
Ni      12.33400000      19.38200000      31.71600000       0.60000000
Ni      10.57200000      21.14400000       0.00000000       0.60000000
Ni      10.57200000      22.90600000       1.76200000       0.60000000
Ni      12.33400000      21.14400000       1.76200000       0.60000000
Ni      12.33400000      22.90600000       0.00000000       0.60000000
Ni      10.57200000      21.14400000       3.52400000       0.60000000
Ni      10.57200000      22.90600000       5.28600000       0.60000000
Ni      12.33400000      21.14400000       5.28600000       0.60000000
Ni      12.33400000      22.90600000       3.52400000       0.60000000
Ni      10.57200000      21.14400000       7.04800000       0.60000000
Ni      10.57200000      22.90600000       8.81000000       0.60000000
Ni      12.33400000      21.14400000       8.81000000       0.60000000
Ni      12.33400000      22.90600000       7.04800000       0.60000000
Ni      10.57200000      21.14400000      10.57200000       0.60000000
Ni      10.57200000      22.90600000      12.33400000       0.60000000
Ni      12.33400000      21.14400000      12.33400000       0.60000000
Ni      12.33400000      22.90600000      10.57200000       0.60000000
Ni      10.57200000      21.14400000      14.09600000       0.60000000
Ni      10.57200000      22.90600000      15.85800000       0.60000000
Ni      12.33400000      21.14400000      15.85800000       0.60000000
Ni      12.33400000      22.90600000      14.09600000       0.60000000
Ni      10.57200000      21.14400000      17.62000000       0.60000000
Ni      10.57200000      22.90600000      19.38200000       0.60000000
Cr      12.33400000      21.14400000      19.38200000       0.60000000
Ni      12.33400000      22.90600000      17.62000000       0.60000000
Cr      10.57200000      21.14400000      21.14400000       0.60000000
Cr      10.57200000      22.90600000      22.90600000       0.60000000
Cr      12.33400000      21.14400000      22.90600000       0.60000000
Cr      12.33400000      22.90600000      21.14400000       0.60000000
Ni      10.57200000      21.14400000      24.66800000       0.60000000
Ni      10.57200000      22.90600000      26.43000000       0.60000000
Ni      12.33400000      21.14400000      26.43000000       0.60000000
Cr      12.33400000      22.90600000      24.66800000       0.60000000
Ni      10.57200000      21.14400000      28.19200000       0.60000000
Ni      10.57200000      22.90600000      29.95400000       0.60000000
Ni      12.33400000      21.14400000      29.95400000       0.60000000
Ni      12.33400000      22.90600000      28.19200000       0.60000000
Ni      10.57200000      21.14400000      31.71600000       0.60000000
Ni      10.57200000      22.90600000      33.47800000       0.60000000
Ni      12.33400000      21.14400000      33.47800000       0.60000000
Ni      12.33400000      22.90600000      31.71600000       0.60000000
Ni      10.57200000      24.66800000       0.00000000       0.60000000
Ni      10.57200000      26.43000000       1.76200000       0.60000000
Ni      12.33400000      24.66800000       1.76200000       0.60000000
Ni      12.33400000      26.43000000       0.00000000       0.60000000
Ni      10.57200000      24.66800000       3.52400000       0.60000000
Ni      10.57200000      26.43000000       5.28600000       0.60000000
Ni      12.33400000      24.66800000       5.28600000       0.60000000
Ni      12.33400000      26.43000000       3.52400000       0.60000000
Ni      10.57200000      24.66800000       7.04800000       0.60000000
Ni      10.57200000      26.43000000       8.81000000       0.60000000
Ni      12.33400000      24.66800000       8.81000000       0.60000000
Ni      12.33400000      26.43000000       7.04800000       0.60000000
Ni      10.57200000      24.66800000      10.57200000       0.60000000
Ni      10.57200000      26.43000000      12.33400000       0.60000000
Ni      12.33400000      24.66800000      12.33400000       0.60000000
Ni      12.33400000      26.43000000      10.57200000       0.60000000
Ni      10.57200000      24.66800000      14.09600000       0.60000000
Ni      10.57200000      26.43000000      15.85800000       0.60000000
Ni      12.33400000      24.66800000      15.85800000       0.60000000
Ni      12.33400000      26.43000000      14.09600000       0.60000000
Ni      10.57200000      24.66800000      17.62000000       0.60000000
Ni      10.57200000      26.43000000      19.38200000       0.60000000
Ni      12.33400000      24.66800000      19.38200000       0.60000000
Ni      12.33400000      26.43000000      17.62000000       0.60000000
Ni      10.57200000      24.66800000      21.14400000       0.60000000
Ni      10.57200000      26.43000000      22.90600000       0.60000000
Cr      12.33400000      24.66800000      22.90600000       0.60000000
Ni      12.33400000      26.43000000      21.14400000       0.60000000
Cr      10.57200000      24.66800000      24.66800000       0.60000000
Ni      10.57200000      26.43000000      26.43000000       0.60000000
Ni      12.33400000      24.66800000      26.43000000       0.60000000
Ni      12.33400000      26.43000000      24.66800000       0.60000000
Ni      10.57200000      24.66800000      28.19200000       0.60000000
Ni      10.57200000      26.43000000      29.95400000       0.60000000
Ni      12.33400000      24.66800000      29.95400000       0.60000000
Ni      12.33400000      26.43000000      28.19200000       0.60000000
Ni      10.57200000      24.66800000      31.71600000       0.60000000
Ni      10.57200000      26.43000000      33.47800000       0.60000000
Ni      12.33400000      24.66800000      33.47800000       0.60000000
Ni      12.33400000      26.43000000      31.71600000       0.60000000
Ni      10.57200000      28.19200000       0.00000000       0.60000000
Ni      10.57200000      29.95400000       1.76200000       0.60000000
Ni      12.33400000      28.19200000       1.76200000       0.60000000
Ni      12.33400000      29.95400000       0.00000000       0.60000000
Ni      10.57200000      28.19200000       3.52400000       0.60000000
Ni      10.57200000      29.95400000       5.28600000       0.60000000
Ni      12.33400000      28.19200000       5.28600000       0.60000000
Ni      12.33400000      29.95400000       3.52400000       0.60000000
Ni      10.57200000      28.19200000       7.04800000       0.60000000
Ni      10.57200000      29.95400000       8.81000000       0.60000000
Ni      12.33400000      28.19200000       8.81000000       0.60000000
Ni      12.33400000      29.95400000       7.04800000       0.60000000
Ni      10.57200000      28.19200000      10.57200000       0.60000000
Ni      10.57200000      29.95400000      12.33400000       0.60000000
Ni      12.33400000      28.19200000      12.33400000       0.60000000
Ni      12.33400000      29.95400000      10.57200000       0.60000000
Ni      10.57200000      28.19200000      14.09600000       0.60000000
Ni      10.57200000      29.95400000      15.85800000       0.60000000
Ni      12.33400000      28.19200000      15.85800000       0.60000000
Ni      12.33400000      29.95400000      14.09600000       0.60000000
Ni      10.57200000      28.19200000      17.62000000       0.60000000
Ni      10.57200000      29.95400000      19.38200000       0.60000000
Ni      12.33400000      28.19200000      19.38200000       0.60000000
Ni      12.33400000      29.95400000      17.62000000       0.60000000
Ni      10.57200000      28.19200000      21.14400000       0.60000000
Ni      10.57200000      29.95400000      22.90600000       0.60000000
Ni      12.33400000      28.19200000      22.90600000       0.60000000
Ni      12.33400000      29.95400000      21.14400000       0.60000000
Ni      10.57200000      28.19200000      24.66800000       0.60000000
Ni      10.57200000      29.95400000      26.43000000       0.60000000
Ni      12.33400000      28.19200000      26.43000000       0.60000000
Ni      12.33400000      29.95400000      24.66800000       0.60000000
Ni      10.57200000      28.19200000      28.19200000       0.60000000
Ni      10.57200000      29.95400000      29.95400000       0.60000000
Ni      12.33400000      28.19200000      29.95400000       0.60000000
Ni      12.33400000      29.95400000      28.19200000       0.60000000
Ni      10.57200000      28.19200000      31.71600000       0.60000000
Ni      10.57200000      29.95400000      33.47800000       0.60000000
Ni      12.33400000      28.19200000      33.47800000       0.60000000
Ni      12.33400000      29.95400000      31.71600000       0.60000000
Ni      10.57200000      31.71600000       0.00000000       0.60000000
Ni      10.57200000      33.47800000       1.76200000       0.60000000
Ni      12.33400000      31.71600000       1.76200000       0.60000000
Ni      12.33400000      33.47800000       0.00000000       0.60000000
Ni      10.57200000      31.71600000       3.52400000       0.60000000
Ni      10.57200000      33.47800000       5.28600000       0.60000000
Ni      12.33400000      31.71600000       5.28600000       0.60000000
Ni      12.33400000      33.47800000       3.52400000       0.60000000
Ni      10.57200000      31.71600000       7.04800000       0.60000000
Ni      10.57200000      33.47800000       8.81000000       0.60000000
Ni      12.33400000      31.71600000       8.81000000       0.60000000
Ni      12.33400000      33.47800000       7.04800000       0.60000000
Ni      10.57200000      31.71600000      10.57200000       0.60000000
Ni      10.57200000      33.47800000      12.33400000       0.60000000
Ni      12.33400000      31.71600000      12.33400000       0.60000000
Ni      12.33400000      33.47800000      10.57200000       0.60000000
Ni      10.57200000      31.71600000      14.09600000       0.60000000
Ni      10.57200000      33.47800000      15.85800000       0.60000000
Ni      12.33400000      31.71600000      15.85800000       0.60000000
Ni      12.33400000      33.47800000      14.09600000       0.60000000
Ni      10.57200000      31.71600000      17.62000000       0.60000000
Ni      10.57200000      33.47800000      19.38200000       0.60000000
Ni      12.33400000      31.71600000      19.38200000       0.60000000
Ni      12.33400000      33.47800000      17.62000000       0.60000000
Ni      10.57200000      31.71600000      21.14400000       0.60000000
Ni      10.57200000      33.47800000      22.90600000       0.60000000
Ni      12.33400000      31.71600000      22.90600000       0.60000000
Ni      12.33400000      33.47800000      21.14400000       0.60000000
Ni      10.57200000      31.71600000      24.66800000       0.60000000
Ni      10.57200000      33.47800000      26.43000000       0.60000000
Ni      12.33400000      31.71600000      26.43000000       0.60000000
Ni      12.33400000      33.47800000      24.66800000       0.60000000
Ni      10.57200000      31.71600000      28.19200000       0.60000000
Ni      10.57200000      33.47800000      29.95400000       0.60000000
Ni      12.33400000      31.71600000      29.95400000       0.60000000
Ni      12.33400000      33.47800000      28.19200000       0.60000000
Ni      10.57200000      31.71600000      31.71600000       0.60000000
Ni      10.57200000      33.47800000      33.47800000       0.60000000
Ni      12.33400000      31.71600000      33.47800000       0.60000000
Ni      12.33400000      33.47800000      31.71600000       0.60000000
Ni      14.09600000       0.00000000       0.00000000       0.60000000
Ni      14.09600000       1.76200000       1.76200000       0.60000000
Ni      15.85800000       0.00000000       1.76200000       0.60000000
Ni      15.85800000       1.76200000       0.00000000       0.60000000
Ni      14.09600000       0.00000000       3.52400000       0.60000000
Ni      14.09600000       1.76200000       5.28600000       0.60000000
Ni      15.85800000       0.00000000       5.28600000       0.60000000
Ni      15.85800000       1.76200000       3.52400000       0.60000000
Ni      14.09600000       0.00000000       7.04800000       0.60000000
Ni      14.09600000       1.76200000       8.81000000       0.60000000
Ni      15.85800000       0.00000000       8.81000000       0.60000000
Ni      15.85800000       1.76200000       7.04800000       0.60000000
Ni      14.09600000       0.00000000      10.57200000       0.60000000
Ni      14.09600000       1.76200000      12.33400000       0.60000000
Ni      15.85800000       0.00000000      12.33400000       0.60000000
Ni      15.85800000       1.76200000      10.57200000       0.60000000
Ni      14.09600000       0.00000000      14.09600000       0.60000000
Ni      14.09600000       1.76200000      15.85800000       0.60000000
Ni      15.85800000       0.00000000      15.85800000       0.60000000
Ni      15.85800000       1.76200000      14.09600000       0.60000000
Ni      14.09600000       0.00000000      17.62000000       0.60000000
Ni      14.09600000       1.76200000      19.38200000       0.60000000
Ni      15.85800000       0.00000000      19.38200000       0.60000000
Ni      15.85800000       1.76200000      17.62000000       0.60000000
Ni      14.09600000       0.00000000      21.14400000       0.60000000
Ni      14.09600000       1.76200000      22.90600000       0.60000000
Ni      15.85800000       0.00000000      22.90600000       0.60000000
Ni      15.85800000       1.76200000      21.14400000       0.60000000
Ni      14.09600000       0.00000000      24.66800000       0.60000000
Ni      14.09600000       1.76200000      26.43000000       0.60000000
Ni      15.85800000       0.00000000      26.43000000       0.60000000
Ni      15.85800000       1.76200000      24.66800000       0.60000000
Ni      14.09600000       0.00000000      28.19200000       0.60000000
Ni      14.09600000       1.76200000      29.95400000       0.60000000
Ni      15.85800000       0.00000000      29.95400000       0.60000000
Ni      15.85800000       1.76200000      28.19200000       0.60000000
Ni      14.09600000       0.00000000      31.71600000       0.60000000
Ni      14.09600000       1.76200000      33.47800000       0.60000000
Ni      15.85800000       0.00000000      33.47800000       0.60000000
Ni      15.85800000       1.76200000      31.71600000       0.60000000
Ni      14.09600000       3.52400000       0.00000000       0.60000000
Ni      14.09600000       5.28600000       1.76200000       0.60000000
Ni      15.85800000       3.52400000       1.76200000       0.60000000
Ni      15.85800000       5.28600000       0.00000000       0.60000000
Ni      14.09600000       3.52400000       3.52400000       0.60000000
Ni      14.09600000       5.28600000       5.28600000       0.60000000
Ni      15.85800000       3.52400000       5.28600000       0.60000000
Ni      15.85800000       5.28600000       3.52400000       0.60000000
Ni      14.09600000       3.52400000       7.04800000       0.60000000
Ni      14.09600000       5.28600000       8.81000000       0.60000000
Ni      15.85800000       3.52400000       8.81000000       0.60000000
Ni      15.85800000       5.28600000       7.04800000       0.60000000
Ni      14.09600000       3.52400000      10.57200000       0.60000000
Ni      14.09600000       5.28600000      12.33400000       0.60000000
Ni      15.85800000       3.52400000      12.33400000       0.60000000
Ni      15.85800000       5.28600000      10.57200000       0.60000000
Ni      14.09600000       3.52400000      14.09600000       0.60000000
Ni      14.09600000       5.28600000      15.85800000       0.60000000
Ni      15.85800000       3.52400000      15.85800000       0.60000000
Ni      15.85800000       5.28600000      14.09600000       0.60000000
Ni      14.09600000       3.52400000      17.62000000       0.60000000
Ni      14.09600000       5.28600000      19.38200000       0.60000000
Ni      15.85800000       3.52400000      19.38200000       0.60000000
Ni      15.85800000       5.28600000      17.62000000       0.60000000
Ni      14.09600000       3.52400000      21.14400000       0.60000000
Ni      14.09600000       5.28600000      22.90600000       0.60000000
Ni      15.85800000       3.52400000      22.90600000       0.60000000
Ni      15.85800000       5.28600000      21.14400000       0.60000000
Ni      14.09600000       3.52400000      24.66800000       0.60000000
Ni      14.09600000       5.28600000      26.43000000       0.60000000
Ni      15.85800000       3.52400000      26.43000000       0.60000000
Ni      15.85800000       5.28600000      24.66800000       0.60000000
Ni      14.09600000       3.52400000      28.19200000       0.60000000
Ni      14.09600000       5.28600000      29.95400000       0.60000000
Ni      15.85800000       3.52400000      29.95400000       0.60000000
Ni      15.85800000       5.28600000      28.19200000       0.60000000
Ni      14.09600000       3.52400000      31.71600000       0.60000000
Ni      14.09600000       5.28600000      33.47800000       0.60000000
Ni      15.85800000       3.52400000      33.47800000       0.60000000
Ni      15.85800000       5.28600000      31.71600000       0.60000000
Ni      14.09600000       7.04800000       0.00000000       0.60000000
Ni      14.09600000       8.81000000       1.76200000       0.60000000
Ni      15.85800000       7.04800000       1.76200000       0.60000000
Ni      15.85800000       8.81000000       0.00000000       0.60000000
Ni      14.09600000       7.04800000       3.52400000       0.60000000
Ni      14.09600000       8.81000000       5.28600000       0.60000000
Ni      15.85800000       7.04800000       5.28600000       0.60000000
Ni      15.85800000       8.81000000       3.52400000       0.60000000
Ni      14.09600000       7.04800000       7.04800000       0.60000000
Ni      14.09600000       8.81000000       8.81000000       0.60000000
Ni      15.85800000       7.04800000       8.81000000       0.60000000
Ni      15.85800000       8.81000000       7.04800000       0.60000000
Ni      14.09600000       7.04800000      10.57200000       0.60000000
Ni      14.09600000       8.81000000      12.33400000       0.60000000
Ni      15.85800000       7.04800000      12.33400000       0.60000000
Ni      15.85800000       8.81000000      10.57200000       0.60000000
Ni      14.09600000       7.04800000      14.09600000       0.60000000
Ni      14.09600000       8.81000000      15.85800000       0.60000000
Ni      15.85800000       7.04800000      15.85800000       0.60000000
Ni      15.85800000       8.81000000      14.09600000       0.60000000
Ni      14.09600000       7.04800000      17.62000000       0.60000000
Ni      14.09600000       8.81000000      19.38200000       0.60000000
Ni      15.85800000       7.04800000      19.38200000       0.60000000
Ni      15.85800000       8.81000000      17.62000000       0.60000000
Ni      14.09600000       7.04800000      21.14400000       0.60000000
Ni      14.09600000       8.81000000      22.90600000       0.60000000
Ni      15.85800000       7.04800000      22.90600000       0.60000000
Ni      15.85800000       8.81000000      21.14400000       0.60000000
Ni      14.09600000       7.04800000      24.66800000       0.60000000
Ni      14.09600000       8.81000000      26.43000000       0.60000000
Ni      15.85800000       7.04800000      26.43000000       0.60000000
Ni      15.85800000       8.81000000      24.66800000       0.60000000
Ni      14.09600000       7.04800000      28.19200000       0.60000000
Ni      14.09600000       8.81000000      29.95400000       0.60000000
Ni      15.85800000       7.04800000      29.95400000       0.60000000
Ni      15.85800000       8.81000000      28.19200000       0.60000000
Ni      14.09600000       7.04800000      31.71600000       0.60000000
Ni      14.09600000       8.81000000      33.47800000       0.60000000
Ni      15.85800000       7.04800000      33.47800000       0.60000000
Ni      15.85800000       8.81000000      31.71600000       0.60000000
Ni      14.09600000      10.57200000       0.00000000       0.60000000
Ni      14.09600000      12.33400000       1.76200000       0.60000000
Ni      15.85800000      10.57200000       1.76200000       0.60000000
Ni      15.85800000      12.33400000       0.00000000       0.60000000
Ni      14.09600000      10.57200000       3.52400000       0.60000000
Ni      14.09600000      12.33400000       5.28600000       0.60000000
Ni      15.85800000      10.57200000       5.28600000       0.60000000
Ni      15.85800000      12.33400000       3.52400000       0.60000000
Ni      14.09600000      10.57200000       7.04800000       0.60000000
Ni      14.09600000      12.33400000       8.81000000       0.60000000
Ni      15.85800000      10.57200000       8.81000000       0.60000000
Ni      15.85800000      12.33400000       7.04800000       0.60000000
Ni      14.09600000      10.57200000      10.57200000       0.60000000
Cr      14.09600000      12.33400000      12.33400000       0.60000000
Ni      15.85800000      10.57200000      12.33400000       0.60000000
Ni      15.85800000      12.33400000      10.57200000       0.60000000
Cr      14.09600000      10.57200000      14.09600000       0.60000000
Cr      14.09600000      12.33400000      15.85800000       0.60000000
Cr      15.85800000      10.57200000      15.85800000       0.60000000
Cr      15.85800000      12.33400000      14.09600000       0.60000000
Ni      14.09600000      10.57200000      17.62000000       0.60000000
Ni      14.09600000      12.33400000      19.38200000       0.60000000
Ni      15.85800000      10.57200000      19.38200000       0.60000000
Cr      15.85800000      12.33400000      17.62000000       0.60000000
Ni      14.09600000      10.57200000      21.14400000       0.60000000
Ni      14.09600000      12.33400000      22.90600000       0.60000000
Ni      15.85800000      10.57200000      22.90600000       0.60000000
Ni      15.85800000      12.33400000      21.14400000       0.60000000
Ni      14.09600000      10.57200000      24.66800000       0.60000000
Ni      14.09600000      12.33400000      26.43000000       0.60000000
Ni      15.85800000      10.57200000      26.43000000       0.60000000
Ni      15.85800000      12.33400000      24.66800000       0.60000000
Ni      14.09600000      10.57200000      28.19200000       0.60000000
Ni      14.09600000      12.33400000      29.95400000       0.60000000
Ni      15.85800000      10.57200000      29.95400000       0.60000000
Ni      15.85800000      12.33400000      28.19200000       0.60000000
Ni      14.09600000      10.57200000      31.71600000       0.60000000
Ni      14.09600000      12.33400000      33.47800000       0.60000000
Ni      15.85800000      10.57200000      33.47800000       0.60000000
Ni      15.85800000      12.33400000      31.71600000       0.60000000
Ni      14.09600000      14.09600000       0.00000000       0.60000000
Ni      14.09600000      15.85800000       1.76200000       0.60000000
Ni      15.85800000      14.09600000       1.76200000       0.60000000
Ni      15.85800000      15.85800000       0.00000000       0.60000000
Ni      14.09600000      14.09600000       3.52400000       0.60000000
Ni      14.09600000      15.85800000       5.28600000       0.60000000
Ni      15.85800000      14.09600000       5.28600000       0.60000000
Ni      15.85800000      15.85800000       3.52400000       0.60000000
Ni      14.09600000      14.09600000       7.04800000       0.60000000
Ni      14.09600000      15.85800000       8.81000000       0.60000000
Ni      15.85800000      14.09600000       8.81000000       0.60000000
Ni      15.85800000      15.85800000       7.04800000       0.60000000
Cr      14.09600000      14.09600000      10.57200000       0.60000000
Cr      14.09600000      15.85800000      12.33400000       0.60000000
Cr      15.85800000      14.09600000      12.33400000       0.60000000
Cr      15.85800000      15.85800000      10.57200000       0.60000000
Cr      14.09600000      14.09600000      14.09600000       0.60000000
Cr      14.09600000      15.85800000      15.85800000       0.60000000
Cr      15.85800000      14.09600000      15.85800000       0.60000000
Cr      15.85800000      15.85800000      14.09600000       0.60000000
Cr      14.09600000      14.09600000      17.62000000       0.60000000
Cr      14.09600000      15.85800000      19.38200000       0.60000000
Cr      15.85800000      14.09600000      19.38200000       0.60000000
Cr      15.85800000      15.85800000      17.62000000       0.60000000
Ni      14.09600000      14.09600000      21.14400000       0.60000000
Ni      14.09600000      15.85800000      22.90600000       0.60000000
Ni      15.85800000      14.09600000      22.90600000       0.60000000
Cr      15.85800000      15.85800000      21.14400000       0.60000000
Ni      14.09600000      14.09600000      24.66800000       0.60000000
Ni      14.09600000      15.85800000      26.43000000       0.60000000
Ni      15.85800000      14.09600000      26.43000000       0.60000000
Ni      15.85800000      15.85800000      24.66800000       0.60000000
Ni      14.09600000      14.09600000      28.19200000       0.60000000
Ni      14.09600000      15.85800000      29.95400000       0.60000000
Ni      15.85800000      14.09600000      29.95400000       0.60000000
Ni      15.85800000      15.85800000      28.19200000       0.60000000
Ni      14.09600000      14.09600000      31.71600000       0.60000000
Ni      14.09600000      15.85800000      33.47800000       0.60000000
Ni      15.85800000      14.09600000      33.47800000       0.60000000
Ni      15.85800000      15.85800000      31.71600000       0.60000000
Ni      14.09600000      17.62000000       0.00000000       0.60000000
Ni      14.09600000      19.38200000       1.76200000       0.60000000
Ni      15.85800000      17.62000000       1.76200000       0.60000000
Ni      15.85800000      19.38200000       0.00000000       0.60000000
Ni      14.09600000      17.62000000       3.52400000       0.60000000
Ni      14.09600000      19.38200000       5.28600000       0.60000000
Ni      15.85800000      17.62000000       5.28600000       0.60000000
Ni      15.85800000      19.38200000       3.52400000       0.60000000
Ni      14.09600000      17.62000000       7.04800000       0.60000000
Ni      14.09600000      19.38200000       8.81000000       0.60000000
Ni      15.85800000      17.62000000       8.81000000       0.60000000
Ni      15.85800000      19.38200000       7.04800000       0.60000000
Ni      14.09600000      17.62000000      10.57200000       0.60000000
Ni      14.09600000      19.38200000      12.33400000       0.60000000
Cr      15.85800000      17.62000000      12.33400000       0.60000000
Ni      15.85800000      19.38200000      10.57200000       0.60000000
Cr      14.09600000      17.62000000      14.09600000       0.60000000
Cr      14.09600000      19.38200000      15.85800000       0.60000000
Cr      15.85800000      17.62000000      15.85800000       0.60000000
Cr      15.85800000      19.38200000      14.09600000       0.60000000
Cr      14.09600000      17.62000000      17.62000000       0.60000000
Cr      14.09600000      19.38200000      19.38200000       0.60000000
Cr      15.85800000      17.62000000      19.38200000       0.60000000
Cr      15.85800000      19.38200000      17.62000000       0.60000000
Cr      14.09600000      17.62000000      21.14400000       0.60000000
Cr      14.09600000      19.38200000      22.90600000       0.60000000
Cr      15.85800000      17.62000000      22.90600000       0.60000000
Cr      15.85800000      19.38200000      21.14400000       0.60000000
Ni      14.09600000      17.62000000      24.66800000       0.60000000
Ni      14.09600000      19.38200000      26.43000000       0.60000000
Ni      15.85800000      17.62000000      26.43000000       0.60000000
Cr      15.85800000      19.38200000      24.66800000       0.60000000
Ni      14.09600000      17.62000000      28.19200000       0.60000000
Ni      14.09600000      19.38200000      29.95400000       0.60000000
Ni      15.85800000      17.62000000      29.95400000       0.60000000
Ni      15.85800000      19.38200000      28.19200000       0.60000000
Ni      14.09600000      17.62000000      31.71600000       0.60000000
Ni      14.09600000      19.38200000      33.47800000       0.60000000
Ni      15.85800000      17.62000000      33.47800000       0.60000000
Ni      15.85800000      19.38200000      31.71600000       0.60000000
Ni      14.09600000      21.14400000       0.00000000       0.60000000
Ni      14.09600000      22.90600000       1.76200000       0.60000000
Ni      15.85800000      21.14400000       1.76200000       0.60000000
Ni      15.85800000      22.90600000       0.00000000       0.60000000
Ni      14.09600000      21.14400000       3.52400000       0.60000000
Ni      14.09600000      22.90600000       5.28600000       0.60000000
Ni      15.85800000      21.14400000       5.28600000       0.60000000
Ni      15.85800000      22.90600000       3.52400000       0.60000000
Ni      14.09600000      21.14400000       7.04800000       0.60000000
Ni      14.09600000      22.90600000       8.81000000       0.60000000
Ni      15.85800000      21.14400000       8.81000000       0.60000000
Ni      15.85800000      22.90600000       7.04800000       0.60000000
Ni      14.09600000      21.14400000      10.57200000       0.60000000
Ni      14.09600000      22.90600000      12.33400000       0.60000000
Ni      15.85800000      21.14400000      12.33400000       0.60000000
Ni      15.85800000      22.90600000      10.57200000       0.60000000
Ni      14.09600000      21.14400000      14.09600000       0.60000000
Ni      14.09600000      22.90600000      15.85800000       0.60000000
Cr      15.85800000      21.14400000      15.85800000       0.60000000
Ni      15.85800000      22.90600000      14.09600000       0.60000000
Cr      14.09600000      21.14400000      17.62000000       0.60000000
Cr      14.09600000      22.90600000      19.38200000       0.60000000
Cr      15.85800000      21.14400000      19.38200000       0.60000000
Cr      15.85800000      22.90600000      17.62000000       0.60000000
Cr      14.09600000      21.14400000      21.14400000       0.60000000
Cr      14.09600000      22.90600000      22.90600000       0.60000000
Cr      15.85800000      21.14400000      22.90600000       0.60000000
Cr      15.85800000      22.90600000      21.14400000       0.60000000
Cr      14.09600000      21.14400000      24.66800000       0.60000000
Ni      14.09600000      22.90600000      26.43000000       0.60000000
Ni      15.85800000      21.14400000      26.43000000       0.60000000
Ni      15.85800000      22.90600000      24.66800000       0.60000000
Ni      14.09600000      21.14400000      28.19200000       0.60000000
Ni      14.09600000      22.90600000      29.95400000       0.60000000
Ni      15.85800000      21.14400000      29.95400000       0.60000000
Ni      15.85800000      22.90600000      28.19200000       0.60000000
Ni      14.09600000      21.14400000      31.71600000       0.60000000
Ni      14.09600000      22.90600000      33.47800000       0.60000000
Ni      15.85800000      21.14400000      33.47800000       0.60000000
Ni      15.85800000      22.90600000      31.71600000       0.60000000
Ni      14.09600000      24.66800000       0.00000000       0.60000000
Ni      14.09600000      26.43000000       1.76200000       0.60000000
Ni      15.85800000      24.66800000       1.76200000       0.60000000
Ni      15.85800000      26.43000000       0.00000000       0.60000000
Ni      14.09600000      24.66800000       3.52400000       0.60000000
Ni      14.09600000      26.43000000       5.28600000       0.60000000
Ni      15.85800000      24.66800000       5.28600000       0.60000000
Ni      15.85800000      26.43000000       3.52400000       0.60000000
Ni      14.09600000      24.66800000       7.04800000       0.60000000
Ni      14.09600000      26.43000000       8.81000000       0.60000000
Ni      15.85800000      24.66800000       8.81000000       0.60000000
Ni      15.85800000      26.43000000       7.04800000       0.60000000
Ni      14.09600000      24.66800000      10.57200000       0.60000000
Ni      14.09600000      26.43000000      12.33400000       0.60000000
Ni      15.85800000      24.66800000      12.33400000       0.60000000
Ni      15.85800000      26.43000000      10.57200000       0.60000000
Ni      14.09600000      24.66800000      14.09600000       0.60000000
Ni      14.09600000      26.43000000      15.85800000       0.60000000
Ni      15.85800000      24.66800000      15.85800000       0.60000000
Ni      15.85800000      26.43000000      14.09600000       0.60000000
Ni      14.09600000      24.66800000      17.62000000       0.60000000
Ni      14.09600000      26.43000000      19.38200000       0.60000000
Cr      15.85800000      24.66800000      19.38200000       0.60000000
Ni      15.85800000      26.43000000      17.62000000       0.60000000
Cr      14.09600000      24.66800000      21.14400000       0.60000000
Ni      14.09600000      26.43000000      22.90600000       0.60000000
Ni      15.85800000      24.66800000      22.90600000       0.60000000
Ni      15.85800000      26.43000000      21.14400000       0.60000000
Ni      14.09600000      24.66800000      24.66800000       0.60000000
Ni      14.09600000      26.43000000      26.43000000       0.60000000
Ni      15.85800000      24.66800000      26.43000000       0.60000000
Ni      15.85800000      26.43000000      24.66800000       0.60000000
Ni      14.09600000      24.66800000      28.19200000       0.60000000
Ni      14.09600000      26.43000000      29.95400000       0.60000000
Ni      15.85800000      24.66800000      29.95400000       0.60000000
Ni      15.85800000      26.43000000      28.19200000       0.60000000
Ni      14.09600000      24.66800000      31.71600000       0.60000000
Ni      14.09600000      26.43000000      33.47800000       0.60000000
Ni      15.85800000      24.66800000      33.47800000       0.60000000
Ni      15.85800000      26.43000000      31.71600000       0.60000000
Ni      14.09600000      28.19200000       0.00000000       0.60000000
Ni      14.09600000      29.95400000       1.76200000       0.60000000
Ni      15.85800000      28.19200000       1.76200000       0.60000000
Ni      15.85800000      29.95400000       0.00000000       0.60000000
Ni      14.09600000      28.19200000       3.52400000       0.60000000
Ni      14.09600000      29.95400000       5.28600000       0.60000000
Ni      15.85800000      28.19200000       5.28600000       0.60000000
Ni      15.85800000      29.95400000       3.52400000       0.60000000
Ni      14.09600000      28.19200000       7.04800000       0.60000000
Ni      14.09600000      29.95400000       8.81000000       0.60000000
Ni      15.85800000      28.19200000       8.81000000       0.60000000
Ni      15.85800000      29.95400000       7.04800000       0.60000000
Ni      14.09600000      28.19200000      10.57200000       0.60000000
Ni      14.09600000      29.95400000      12.33400000       0.60000000
Ni      15.85800000      28.19200000      12.33400000       0.60000000
Ni      15.85800000      29.95400000      10.57200000       0.60000000
Ni      14.09600000      28.19200000      14.09600000       0.60000000
Ni      14.09600000      29.95400000      15.85800000       0.60000000
Ni      15.85800000      28.19200000      15.85800000       0.60000000
Ni      15.85800000      29.95400000      14.09600000       0.60000000
Ni      14.09600000      28.19200000      17.62000000       0.60000000
Ni      14.09600000      29.95400000      19.38200000       0.60000000
Ni      15.85800000      28.19200000      19.38200000       0.60000000
Ni      15.85800000      29.95400000      17.62000000       0.60000000
Ni      14.09600000      28.19200000      21.14400000       0.60000000
Ni      14.09600000      29.95400000      22.90600000       0.60000000
Ni      15.85800000      28.19200000      22.90600000       0.60000000
Ni      15.85800000      29.95400000      21.14400000       0.60000000
Ni      14.09600000      28.19200000      24.66800000       0.60000000
Ni      14.09600000      29.95400000      26.43000000       0.60000000
Ni      15.85800000      28.19200000      26.43000000       0.60000000
Ni      15.85800000      29.95400000      24.66800000       0.60000000
Ni      14.09600000      28.19200000      28.19200000       0.60000000
Ni      14.09600000      29.95400000      29.95400000       0.60000000
Ni      15.85800000      28.19200000      29.95400000       0.60000000
Ni      15.85800000      29.95400000      28.19200000       0.60000000
Ni      14.09600000      28.19200000      31.71600000       0.60000000
Ni      14.09600000      29.95400000      33.47800000       0.60000000
Ni      15.85800000      28.19200000      33.47800000       0.60000000
Ni      15.85800000      29.95400000      31.71600000       0.60000000
Ni      14.09600000      31.71600000       0.00000000       0.60000000
Ni      14.09600000      33.47800000       1.76200000       0.60000000
Ni      15.85800000      31.71600000       1.76200000       0.60000000
Ni      15.85800000      33.47800000       0.00000000       0.60000000
Ni      14.09600000      31.71600000       3.52400000       0.60000000
Ni      14.09600000      33.47800000       5.28600000       0.60000000
Ni      15.85800000      31.71600000       5.28600000       0.60000000
Ni      15.85800000      33.47800000       3.52400000       0.60000000
Ni      14.09600000      31.71600000       7.04800000       0.60000000
Ni      14.09600000      33.47800000       8.81000000       0.60000000
Ni      15.85800000      31.71600000       8.81000000       0.60000000
Ni      15.85800000      33.47800000       7.04800000       0.60000000
Ni      14.09600000      31.71600000      10.57200000       0.60000000
Ni      14.09600000      33.47800000      12.33400000       0.60000000
Ni      15.85800000      31.71600000      12.33400000       0.60000000
Ni      15.85800000      33.47800000      10.57200000       0.60000000
Ni      14.09600000      31.71600000      14.09600000       0.60000000
Ni      14.09600000      33.47800000      15.85800000       0.60000000
Ni      15.85800000      31.71600000      15.85800000       0.60000000
Ni      15.85800000      33.47800000      14.09600000       0.60000000
Ni      14.09600000      31.71600000      17.62000000       0.60000000
Ni      14.09600000      33.47800000      19.38200000       0.60000000
Ni      15.85800000      31.71600000      19.38200000       0.60000000
Ni      15.85800000      33.47800000      17.62000000       0.60000000
Ni      14.09600000      31.71600000      21.14400000       0.60000000
Ni      14.09600000      33.47800000      22.90600000       0.60000000
Ni      15.85800000      31.71600000      22.90600000       0.60000000
Ni      15.85800000      33.47800000      21.14400000       0.60000000
Ni      14.09600000      31.71600000      24.66800000       0.60000000
Ni      14.09600000      33.47800000      26.43000000       0.60000000
Ni      15.85800000      31.71600000      26.43000000       0.60000000
Ni      15.85800000      33.47800000      24.66800000       0.60000000
Ni      14.09600000      31.71600000      28.19200000       0.60000000
Ni      14.09600000      33.47800000      29.95400000       0.60000000
Ni      15.85800000      31.71600000      29.95400000       0.60000000
Ni      15.85800000      33.47800000      28.19200000       0.60000000
Ni      14.09600000      31.71600000      31.71600000       0.60000000
Ni      14.09600000      33.47800000      33.47800000       0.60000000
Ni      15.85800000      31.71600000      33.47800000       0.60000000
Ni      15.85800000      33.47800000      31.71600000       0.60000000
Ni      17.62000000       0.00000000       0.00000000       0.60000000
Ni      17.62000000       1.76200000       1.76200000       0.60000000
Ni      19.38200000       0.00000000       1.76200000       0.60000000
Ni      19.38200000       1.76200000       0.00000000       0.60000000
Ni      17.62000000       0.00000000       3.52400000       0.60000000
Ni      17.62000000       1.76200000       5.28600000       0.60000000
Ni      19.38200000       0.00000000       5.28600000       0.60000000
Ni      19.38200000       1.76200000       3.52400000       0.60000000
Ni      17.62000000       0.00000000       7.04800000       0.60000000
Ni      17.62000000       1.76200000       8.81000000       0.60000000
Ni      19.38200000       0.00000000       8.81000000       0.60000000
Ni      19.38200000       1.76200000       7.04800000       0.60000000
Ni      17.62000000       0.00000000      10.57200000       0.60000000
Ni      17.62000000       1.76200000      12.33400000       0.60000000
Ni      19.38200000       0.00000000      12.33400000       0.60000000
Ni      19.38200000       1.76200000      10.57200000       0.60000000
Ni      17.62000000       0.00000000      14.09600000       0.60000000
Ni      17.62000000       1.76200000      15.85800000       0.60000000
Ni      19.38200000       0.00000000      15.85800000       0.60000000
Ni      19.38200000       1.76200000      14.09600000       0.60000000
Ni      17.62000000       0.00000000      17.62000000       0.60000000
Ni      17.62000000       1.76200000      19.38200000       0.60000000
Ni      19.38200000       0.00000000      19.38200000       0.60000000
Ni      19.38200000       1.76200000      17.62000000       0.60000000
Ni      17.62000000       0.00000000      21.14400000       0.60000000
Ni      17.62000000       1.76200000      22.90600000       0.60000000
Ni      19.38200000       0.00000000      22.90600000       0.60000000
Ni      19.38200000       1.76200000      21.14400000       0.60000000
Ni      17.62000000       0.00000000      24.66800000       0.60000000
Ni      17.62000000       1.76200000      26.43000000       0.60000000
Ni      19.38200000       0.00000000      26.43000000       0.60000000
Ni      19.38200000       1.76200000      24.66800000       0.60000000
Ni      17.62000000       0.00000000      28.19200000       0.60000000
Ni      17.62000000       1.76200000      29.95400000       0.60000000
Ni      19.38200000       0.00000000      29.95400000       0.60000000
Ni      19.38200000       1.76200000      28.19200000       0.60000000
Ni      17.62000000       0.00000000      31.71600000       0.60000000
Ni      17.62000000       1.76200000      33.47800000       0.60000000
Ni      19.38200000       0.00000000      33.47800000       0.60000000
Ni      19.38200000       1.76200000      31.71600000       0.60000000
Ni      17.62000000       3.52400000       0.00000000       0.60000000
Ni      17.62000000       5.28600000       1.76200000       0.60000000
Ni      19.38200000       3.52400000       1.76200000       0.60000000
Ni      19.38200000       5.28600000       0.00000000       0.60000000
Ni      17.62000000       3.52400000       3.52400000       0.60000000
Ni      17.62000000       5.28600000       5.28600000       0.60000000
Ni      19.38200000       3.52400000       5.28600000       0.60000000
Ni      19.38200000       5.28600000       3.52400000       0.60000000
Ni      17.62000000       3.52400000       7.04800000       0.60000000
Ni      17.62000000       5.28600000       8.81000000       0.60000000
Ni      19.38200000       3.52400000       8.81000000       0.60000000
Ni      19.38200000       5.28600000       7.04800000       0.60000000
Ni      17.62000000       3.52400000      10.57200000       0.60000000
Ni      17.62000000       5.28600000      12.33400000       0.60000000
Ni      19.38200000       3.52400000      12.33400000       0.60000000
Ni      19.38200000       5.28600000      10.57200000       0.60000000
Ni      17.62000000       3.52400000      14.09600000       0.60000000
Ni      17.62000000       5.28600000      15.85800000       0.60000000
Ni      19.38200000       3.52400000      15.85800000       0.60000000
Ni      19.38200000       5.28600000      14.09600000       0.60000000
Ni      17.62000000       3.52400000      17.62000000       0.60000000
Ni      17.62000000       5.28600000      19.38200000       0.60000000
Ni      19.38200000       3.52400000      19.38200000       0.60000000
Ni      19.38200000       5.28600000      17.62000000       0.60000000
Ni      17.62000000       3.52400000      21.14400000       0.60000000
Ni      17.62000000       5.28600000      22.90600000       0.60000000
Ni      19.38200000       3.52400000      22.90600000       0.60000000
Ni      19.38200000       5.28600000      21.14400000       0.60000000
Ni      17.62000000       3.52400000      24.66800000       0.60000000
Ni      17.62000000       5.28600000      26.43000000       0.60000000
Ni      19.38200000       3.52400000      26.43000000       0.60000000
Ni      19.38200000       5.28600000      24.66800000       0.60000000
Ni      17.62000000       3.52400000      28.19200000       0.60000000
Ni      17.62000000       5.28600000      29.95400000       0.60000000
Ni      19.38200000       3.52400000      29.95400000       0.60000000
Ni      19.38200000       5.28600000      28.19200000       0.60000000
Ni      17.62000000       3.52400000      31.71600000       0.60000000
Ni      17.62000000       5.28600000      33.47800000       0.60000000
Ni      19.38200000       3.52400000      33.47800000       0.60000000
Ni      19.38200000       5.28600000      31.71600000       0.60000000
Ni      17.62000000       7.04800000       0.00000000       0.60000000
Ni      17.62000000       8.81000000       1.76200000       0.60000000
Ni      19.38200000       7.04800000       1.76200000       0.60000000
Ni      19.38200000       8.81000000       0.00000000       0.60000000
Ni      17.62000000       7.04800000       3.52400000       0.60000000
Ni      17.62000000       8.81000000       5.28600000       0.60000000
Ni      19.38200000       7.04800000       5.28600000       0.60000000
Ni      19.38200000       8.81000000       3.52400000       0.60000000
Ni      17.62000000       7.04800000       7.04800000       0.60000000
Ni      17.62000000       8.81000000       8.81000000       0.60000000
Ni      19.38200000       7.04800000       8.81000000       0.60000000
Ni      19.38200000       8.81000000       7.04800000       0.60000000
Ni      17.62000000       7.04800000      10.57200000       0.60000000
Ni      17.62000000       8.81000000      12.33400000       0.60000000
Ni      19.38200000       7.04800000      12.33400000       0.60000000
Ni      19.38200000       8.81000000      10.57200000       0.60000000
Ni      17.62000000       7.04800000      14.09600000       0.60000000
Ni      17.62000000       8.81000000      15.85800000       0.60000000
Ni      19.38200000       7.04800000      15.85800000       0.60000000
Ni      19.38200000       8.81000000      14.09600000       0.60000000
Ni      17.62000000       7.04800000      17.62000000       0.60000000
Ni      17.62000000       8.81000000      19.38200000       0.60000000
Ni      19.38200000       7.04800000      19.38200000       0.60000000
Ni      19.38200000       8.81000000      17.62000000       0.60000000
Ni      17.62000000       7.04800000      21.14400000       0.60000000
Ni      17.62000000       8.81000000      22.90600000       0.60000000
Ni      19.38200000       7.04800000      22.90600000       0.60000000
Ni      19.38200000       8.81000000      21.14400000       0.60000000
Ni      17.62000000       7.04800000      24.66800000       0.60000000
Ni      17.62000000       8.81000000      26.43000000       0.60000000
Ni      19.38200000       7.04800000      26.43000000       0.60000000
Ni      19.38200000       8.81000000      24.66800000       0.60000000
Ni      17.62000000       7.04800000      28.19200000       0.60000000
Ni      17.62000000       8.81000000      29.95400000       0.60000000
Ni      19.38200000       7.04800000      29.95400000       0.60000000
Ni      19.38200000       8.81000000      28.19200000       0.60000000
Ni      17.62000000       7.04800000      31.71600000       0.60000000
Ni      17.62000000       8.81000000      33.47800000       0.60000000
Ni      19.38200000       7.04800000      33.47800000       0.60000000
Ni      19.38200000       8.81000000      31.71600000       0.60000000
Ni      17.62000000      10.57200000       0.00000000       0.60000000
Ni      17.62000000      12.33400000       1.76200000       0.60000000
Ni      19.38200000      10.57200000       1.76200000       0.60000000
Ni      19.38200000      12.33400000       0.00000000       0.60000000
Ni      17.62000000      10.57200000       3.52400000       0.60000000
Ni      17.62000000      12.33400000       5.28600000       0.60000000
Ni      19.38200000      10.57200000       5.28600000       0.60000000
Ni      19.38200000      12.33400000       3.52400000       0.60000000
Ni      17.62000000      10.57200000       7.04800000       0.60000000
Ni      17.62000000      12.33400000       8.81000000       0.60000000
Ni      19.38200000      10.57200000       8.81000000       0.60000000
Ni      19.38200000      12.33400000       7.04800000       0.60000000
Ni      17.62000000      10.57200000      10.57200000       0.60000000
Ni      17.62000000      12.33400000      12.33400000       0.60000000
Ni      19.38200000      10.57200000      12.33400000       0.60000000
Ni      19.38200000      12.33400000      10.57200000       0.60000000
Ni      17.62000000      10.57200000      14.09600000       0.60000000
Cr      17.62000000      12.33400000      15.85800000       0.60000000
Ni      19.38200000      10.57200000      15.85800000       0.60000000
Ni      19.38200000      12.33400000      14.09600000       0.60000000
Cr      17.62000000      10.57200000      17.62000000       0.60000000
Cr      17.62000000      12.33400000      19.38200000       0.60000000
Cr      19.38200000      10.57200000      19.38200000       0.60000000
Cr      19.38200000      12.33400000      17.62000000       0.60000000
Ni      17.62000000      10.57200000      21.14400000       0.60000000
Ni      17.62000000      12.33400000      22.90600000       0.60000000
Ni      19.38200000      10.57200000      22.90600000       0.60000000
Cr      19.38200000      12.33400000      21.14400000       0.60000000
Ni      17.62000000      10.57200000      24.66800000       0.60000000
Ni      17.62000000      12.33400000      26.43000000       0.60000000
Ni      19.38200000      10.57200000      26.43000000       0.60000000
Ni      19.38200000      12.33400000      24.66800000       0.60000000
Ni      17.62000000      10.57200000      28.19200000       0.60000000
Ni      17.62000000      12.33400000      29.95400000       0.60000000
Ni      19.38200000      10.57200000      29.95400000       0.60000000
Ni      19.38200000      12.33400000      28.19200000       0.60000000
Ni      17.62000000      10.57200000      31.71600000       0.60000000
Ni      17.62000000      12.33400000      33.47800000       0.60000000
Ni      19.38200000      10.57200000      33.47800000       0.60000000
Ni      19.38200000      12.33400000      31.71600000       0.60000000
Ni      17.62000000      14.09600000       0.00000000       0.60000000
Ni      17.62000000      15.85800000       1.76200000       0.60000000
Ni      19.38200000      14.09600000       1.76200000       0.60000000
Ni      19.38200000      15.85800000       0.00000000       0.60000000
Ni      17.62000000      14.09600000       3.52400000       0.60000000
Ni      17.62000000      15.85800000       5.28600000       0.60000000
Ni      19.38200000      14.09600000       5.28600000       0.60000000
Ni      19.38200000      15.85800000       3.52400000       0.60000000
Ni      17.62000000      14.09600000       7.04800000       0.60000000
Ni      17.62000000      15.85800000       8.81000000       0.60000000
Ni      19.38200000      14.09600000       8.81000000       0.60000000
Ni      19.38200000      15.85800000       7.04800000       0.60000000
Ni      17.62000000      14.09600000      10.57200000       0.60000000
Cr      17.62000000      15.85800000      12.33400000       0.60000000
Ni      19.38200000      14.09600000      12.33400000       0.60000000
Ni      19.38200000      15.85800000      10.57200000       0.60000000
Cr      17.62000000      14.09600000      14.09600000       0.60000000
Cr      17.62000000      15.85800000      15.85800000       0.60000000
Cr      19.38200000      14.09600000      15.85800000       0.60000000
Cr      19.38200000      15.85800000      14.09600000       0.60000000
Cr      17.62000000      14.09600000      17.62000000       0.60000000
Cr      17.62000000      15.85800000      19.38200000       0.60000000
Cr      19.38200000      14.09600000      19.38200000       0.60000000
Cr      19.38200000      15.85800000      17.62000000       0.60000000
Cr      17.62000000      14.09600000      21.14400000       0.60000000
Cr      17.62000000      15.85800000      22.90600000       0.60000000
Cr      19.38200000      14.09600000      22.90600000       0.60000000
Cr      19.38200000      15.85800000      21.14400000       0.60000000
Ni      17.62000000      14.09600000      24.66800000       0.60000000
Ni      17.62000000      15.85800000      26.43000000       0.60000000
Ni      19.38200000      14.09600000      26.43000000       0.60000000
Cr      19.38200000      15.85800000      24.66800000       0.60000000
Ni      17.62000000      14.09600000      28.19200000       0.60000000
Ni      17.62000000      15.85800000      29.95400000       0.60000000
Ni      19.38200000      14.09600000      29.95400000       0.60000000
Ni      19.38200000      15.85800000      28.19200000       0.60000000
Ni      17.62000000      14.09600000      31.71600000       0.60000000
Ni      17.62000000      15.85800000      33.47800000       0.60000000
Ni      19.38200000      14.09600000      33.47800000       0.60000000
Ni      19.38200000      15.85800000      31.71600000       0.60000000
Ni      17.62000000      17.62000000       0.00000000       0.60000000
Ni      17.62000000      19.38200000       1.76200000       0.60000000
Ni      19.38200000      17.62000000       1.76200000       0.60000000
Ni      19.38200000      19.38200000       0.00000000       0.60000000
Ni      17.62000000      17.62000000       3.52400000       0.60000000
Ni      17.62000000      19.38200000       5.28600000       0.60000000
Ni      19.38200000      17.62000000       5.28600000       0.60000000
Ni      19.38200000      19.38200000       3.52400000       0.60000000
Ni      17.62000000      17.62000000       7.04800000       0.60000000
Ni      17.62000000      19.38200000       8.81000000       0.60000000
Ni      19.38200000      17.62000000       8.81000000       0.60000000
Ni      19.38200000      19.38200000       7.04800000       0.60000000
Cr      17.62000000      17.62000000      10.57200000       0.60000000
Cr      17.62000000      19.38200000      12.33400000       0.60000000
Cr      19.38200000      17.62000000      12.33400000       0.60000000
Cr      19.38200000      19.38200000      10.57200000       0.60000000
Cr      17.62000000      17.62000000      14.09600000       0.60000000
Cr      17.62000000      19.38200000      15.85800000       0.60000000
Cr      19.38200000      17.62000000      15.85800000       0.60000000
Cr      19.38200000      19.38200000      14.09600000       0.60000000
Cr      17.62000000      17.62000000      17.62000000       0.60000000
Cr      17.62000000      19.38200000      19.38200000       0.60000000
Cr      19.38200000      17.62000000      19.38200000       0.60000000
Cr      19.38200000      19.38200000      17.62000000       0.60000000
Cr      17.62000000      17.62000000      21.14400000       0.60000000
Cr      17.62000000      19.38200000      22.90600000       0.60000000
Cr      19.38200000      17.62000000      22.90600000       0.60000000
Cr      19.38200000      19.38200000      21.14400000       0.60000000
Cr      17.62000000      17.62000000      24.66800000       0.60000000
Ni      17.62000000      19.38200000      26.43000000       0.60000000
Ni      19.38200000      17.62000000      26.43000000       0.60000000
Ni      19.38200000      19.38200000      24.66800000       0.60000000
Ni      17.62000000      17.62000000      28.19200000       0.60000000
Ni      17.62000000      19.38200000      29.95400000       0.60000000
Ni      19.38200000      17.62000000      29.95400000       0.60000000
Ni      19.38200000      19.38200000      28.19200000       0.60000000
Ni      17.62000000      17.62000000      31.71600000       0.60000000
Ni      17.62000000      19.38200000      33.47800000       0.60000000
Ni      19.38200000      17.62000000      33.47800000       0.60000000
Ni      19.38200000      19.38200000      31.71600000       0.60000000
Ni      17.62000000      21.14400000       0.00000000       0.60000000
Ni      17.62000000      22.90600000       1.76200000       0.60000000
Ni      19.38200000      21.14400000       1.76200000       0.60000000
Ni      19.38200000      22.90600000       0.00000000       0.60000000
Ni      17.62000000      21.14400000       3.52400000       0.60000000
Ni      17.62000000      22.90600000       5.28600000       0.60000000
Ni      19.38200000      21.14400000       5.28600000       0.60000000
Ni      19.38200000      22.90600000       3.52400000       0.60000000
Ni      17.62000000      21.14400000       7.04800000       0.60000000
Ni      17.62000000      22.90600000       8.81000000       0.60000000
Ni      19.38200000      21.14400000       8.81000000       0.60000000
Ni      19.38200000      22.90600000       7.04800000       0.60000000
Ni      17.62000000      21.14400000      10.57200000       0.60000000
Ni      17.62000000      22.90600000      12.33400000       0.60000000
Cr      19.38200000      21.14400000      12.33400000       0.60000000
Ni      19.38200000      22.90600000      10.57200000       0.60000000
Cr      17.62000000      21.14400000      14.09600000       0.60000000
Cr      17.62000000      22.90600000      15.85800000       0.60000000
Cr      19.38200000      21.14400000      15.85800000       0.60000000
Cr      19.38200000      22.90600000      14.09600000       0.60000000
Cr      17.62000000      21.14400000      17.62000000       0.60000000
Cr      17.62000000      22.90600000      19.38200000       0.60000000
Cr      19.38200000      21.14400000      19.38200000       0.60000000
Cr      19.38200000      22.90600000      17.62000000       0.60000000
Cr      17.62000000      21.14400000      21.14400000       0.60000000
Ni      17.62000000      22.90600000      22.90600000       0.60000000
Ni      19.38200000      21.14400000      22.90600000       0.60000000
Ni      19.38200000      22.90600000      21.14400000       0.60000000
Ni      17.62000000      21.14400000      24.66800000       0.60000000
Ni      17.62000000      22.90600000      26.43000000       0.60000000
Ni      19.38200000      21.14400000      26.43000000       0.60000000
Ni      19.38200000      22.90600000      24.66800000       0.60000000
Ni      17.62000000      21.14400000      28.19200000       0.60000000
Ni      17.62000000      22.90600000      29.95400000       0.60000000
Ni      19.38200000      21.14400000      29.95400000       0.60000000
Ni      19.38200000      22.90600000      28.19200000       0.60000000
Ni      17.62000000      21.14400000      31.71600000       0.60000000
Ni      17.62000000      22.90600000      33.47800000       0.60000000
Ni      19.38200000      21.14400000      33.47800000       0.60000000
Ni      19.38200000      22.90600000      31.71600000       0.60000000
Ni      17.62000000      24.66800000       0.00000000       0.60000000
Ni      17.62000000      26.43000000       1.76200000       0.60000000
Ni      19.38200000      24.66800000       1.76200000       0.60000000
Ni      19.38200000      26.43000000       0.00000000       0.60000000
Ni      17.62000000      24.66800000       3.52400000       0.60000000
Ni      17.62000000      26.43000000       5.28600000       0.60000000
Ni      19.38200000      24.66800000       5.28600000       0.60000000
Ni      19.38200000      26.43000000       3.52400000       0.60000000
Ni      17.62000000      24.66800000       7.04800000       0.60000000
Ni      17.62000000      26.43000000       8.81000000       0.60000000
Ni      19.38200000      24.66800000       8.81000000       0.60000000
Ni      19.38200000      26.43000000       7.04800000       0.60000000
Ni      17.62000000      24.66800000      10.57200000       0.60000000
Ni      17.62000000      26.43000000      12.33400000       0.60000000
Ni      19.38200000      24.66800000      12.33400000       0.60000000
Ni      19.38200000      26.43000000      10.57200000       0.60000000
Ni      17.62000000      24.66800000      14.09600000       0.60000000
Ni      17.62000000      26.43000000      15.85800000       0.60000000
Cr      19.38200000      24.66800000      15.85800000       0.60000000
Ni      19.38200000      26.43000000      14.09600000       0.60000000
Cr      17.62000000      24.66800000      17.62000000       0.60000000
Ni      17.62000000      26.43000000      19.38200000       0.60000000
Ni      19.38200000      24.66800000      19.38200000       0.60000000
Ni      19.38200000      26.43000000      17.62000000       0.60000000
Ni      17.62000000      24.66800000      21.14400000       0.60000000
Ni      17.62000000      26.43000000      22.90600000       0.60000000
Ni      19.38200000      24.66800000      22.90600000       0.60000000
Ni      19.38200000      26.43000000      21.14400000       0.60000000
Ni      17.62000000      24.66800000      24.66800000       0.60000000
Ni      17.62000000      26.43000000      26.43000000       0.60000000
Ni      19.38200000      24.66800000      26.43000000       0.60000000
Ni      19.38200000      26.43000000      24.66800000       0.60000000
Ni      17.62000000      24.66800000      28.19200000       0.60000000
Ni      17.62000000      26.43000000      29.95400000       0.60000000
Ni      19.38200000      24.66800000      29.95400000       0.60000000
Ni      19.38200000      26.43000000      28.19200000       0.60000000
Ni      17.62000000      24.66800000      31.71600000       0.60000000
Ni      17.62000000      26.43000000      33.47800000       0.60000000
Ni      19.38200000      24.66800000      33.47800000       0.60000000
Ni      19.38200000      26.43000000      31.71600000       0.60000000
Ni      17.62000000      28.19200000       0.00000000       0.60000000
Ni      17.62000000      29.95400000       1.76200000       0.60000000
Ni      19.38200000      28.19200000       1.76200000       0.60000000
Ni      19.38200000      29.95400000       0.00000000       0.60000000
Ni      17.62000000      28.19200000       3.52400000       0.60000000
Ni      17.62000000      29.95400000       5.28600000       0.60000000
Ni      19.38200000      28.19200000       5.28600000       0.60000000
Ni      19.38200000      29.95400000       3.52400000       0.60000000
Ni      17.62000000      28.19200000       7.04800000       0.60000000
Ni      17.62000000      29.95400000       8.81000000       0.60000000
Ni      19.38200000      28.19200000       8.81000000       0.60000000
Ni      19.38200000      29.95400000       7.04800000       0.60000000
Ni      17.62000000      28.19200000      10.57200000       0.60000000
Ni      17.62000000      29.95400000      12.33400000       0.60000000
Ni      19.38200000      28.19200000      12.33400000       0.60000000
Ni      19.38200000      29.95400000      10.57200000       0.60000000
Ni      17.62000000      28.19200000      14.09600000       0.60000000
Ni      17.62000000      29.95400000      15.85800000       0.60000000
Ni      19.38200000      28.19200000      15.85800000       0.60000000
Ni      19.38200000      29.95400000      14.09600000       0.60000000
Ni      17.62000000      28.19200000      17.62000000       0.60000000
Ni      17.62000000      29.95400000      19.38200000       0.60000000
Ni      19.38200000      28.19200000      19.38200000       0.60000000
Ni      19.38200000      29.95400000      17.62000000       0.60000000
Ni      17.62000000      28.19200000      21.14400000       0.60000000
Ni      17.62000000      29.95400000      22.90600000       0.60000000
Ni      19.38200000      28.19200000      22.90600000       0.60000000
Ni      19.38200000      29.95400000      21.14400000       0.60000000
Ni      17.62000000      28.19200000      24.66800000       0.60000000
Ni      17.62000000      29.95400000      26.43000000       0.60000000
Ni      19.38200000      28.19200000      26.43000000       0.60000000
Ni      19.38200000      29.95400000      24.66800000       0.60000000
Ni      17.62000000      28.19200000      28.19200000       0.60000000
Ni      17.62000000      29.95400000      29.95400000       0.60000000
Ni      19.38200000      28.19200000      29.95400000       0.60000000
Ni      19.38200000      29.95400000      28.19200000       0.60000000
Ni      17.62000000      28.19200000      31.71600000       0.60000000
Ni      17.62000000      29.95400000      33.47800000       0.60000000
Ni      19.38200000      28.19200000      33.47800000       0.60000000
Ni      19.38200000      29.95400000      31.71600000       0.60000000
Ni      17.62000000      31.71600000       0.00000000       0.60000000
Ni      17.62000000      33.47800000       1.76200000       0.60000000
Ni      19.38200000      31.71600000       1.76200000       0.60000000
Ni      19.38200000      33.47800000       0.00000000       0.60000000
Ni      17.62000000      31.71600000       3.52400000       0.60000000
Ni      17.62000000      33.47800000       5.28600000       0.60000000
Ni      19.38200000      31.71600000       5.28600000       0.60000000
Ni      19.38200000      33.47800000       3.52400000       0.60000000
Ni      17.62000000      31.71600000       7.04800000       0.60000000
Ni      17.62000000      33.47800000       8.81000000       0.60000000
Ni      19.38200000      31.71600000       8.81000000       0.60000000
Ni      19.38200000      33.47800000       7.04800000       0.60000000
Ni      17.62000000      31.71600000      10.57200000       0.60000000
Ni      17.62000000      33.47800000      12.33400000       0.60000000
Ni      19.38200000      31.71600000      12.33400000       0.60000000
Ni      19.38200000      33.47800000      10.57200000       0.60000000
Ni      17.62000000      31.71600000      14.09600000       0.60000000
Ni      17.62000000      33.47800000      15.85800000       0.60000000
Ni      19.38200000      31.71600000      15.85800000       0.60000000
Ni      19.38200000      33.47800000      14.09600000       0.60000000
Ni      17.62000000      31.71600000      17.62000000       0.60000000
Ni      17.62000000      33.47800000      19.38200000       0.60000000
Ni      19.38200000      31.71600000      19.38200000       0.60000000
Ni      19.38200000      33.47800000      17.62000000       0.60000000
Ni      17.62000000      31.71600000      21.14400000       0.60000000
Ni      17.62000000      33.47800000      22.90600000       0.60000000
Ni      19.38200000      31.71600000      22.90600000       0.60000000
Ni      19.38200000      33.47800000      21.14400000       0.60000000
Ni      17.62000000      31.71600000      24.66800000       0.60000000
Ni      17.62000000      33.47800000      26.43000000       0.60000000
Ni      19.38200000      31.71600000      26.43000000       0.60000000
Ni      19.38200000      33.47800000      24.66800000       0.60000000
Ni      17.62000000      31.71600000      28.19200000       0.60000000
Ni      17.62000000      33.47800000      29.95400000       0.60000000
Ni      19.38200000      31.71600000      29.95400000       0.60000000
Ni      19.38200000      33.47800000      28.19200000       0.60000000
Ni      17.62000000      31.71600000      31.71600000       0.60000000
Ni      17.62000000      33.47800000      33.47800000       0.60000000
Ni      19.38200000      31.71600000      33.47800000       0.60000000
Ni      19.38200000      33.47800000      31.71600000       0.60000000
Ni      21.14400000       0.00000000       0.00000000       0.60000000
Ni      21.14400000       1.76200000       1.76200000       0.60000000
Ni      22.90600000       0.00000000       1.76200000       0.60000000
Ni      22.90600000       1.76200000       0.00000000       0.60000000
Ni      21.14400000       0.00000000       3.52400000       0.60000000
Ni      21.14400000       1.76200000       5.28600000       0.60000000
Ni      22.90600000       0.00000000       5.28600000       0.60000000
Ni      22.90600000       1.76200000       3.52400000       0.60000000
Ni      21.14400000       0.00000000       7.04800000       0.60000000
Ni      21.14400000       1.76200000       8.81000000       0.60000000
Ni      22.90600000       0.00000000       8.81000000       0.60000000
Ni      22.90600000       1.76200000       7.04800000       0.60000000
Ni      21.14400000       0.00000000      10.57200000       0.60000000
Ni      21.14400000       1.76200000      12.33400000       0.60000000
Ni      22.90600000       0.00000000      12.33400000       0.60000000
Ni      22.90600000       1.76200000      10.57200000       0.60000000
Ni      21.14400000       0.00000000      14.09600000       0.60000000
Ni      21.14400000       1.76200000      15.85800000       0.60000000
Ni      22.90600000       0.00000000      15.85800000       0.60000000
Ni      22.90600000       1.76200000      14.09600000       0.60000000
Ni      21.14400000       0.00000000      17.62000000       0.60000000
Ni      21.14400000       1.76200000      19.38200000       0.60000000
Ni      22.90600000       0.00000000      19.38200000       0.60000000
Ni      22.90600000       1.76200000      17.62000000       0.60000000
Ni      21.14400000       0.00000000      21.14400000       0.60000000
Ni      21.14400000       1.76200000      22.90600000       0.60000000
Ni      22.90600000       0.00000000      22.90600000       0.60000000
Ni      22.90600000       1.76200000      21.14400000       0.60000000
Ni      21.14400000       0.00000000      24.66800000       0.60000000
Ni      21.14400000       1.76200000      26.43000000       0.60000000
Ni      22.90600000       0.00000000      26.43000000       0.60000000
Ni      22.90600000       1.76200000      24.66800000       0.60000000
Ni      21.14400000       0.00000000      28.19200000       0.60000000
Ni      21.14400000       1.76200000      29.95400000       0.60000000
Ni      22.90600000       0.00000000      29.95400000       0.60000000
Ni      22.90600000       1.76200000      28.19200000       0.60000000
Ni      21.14400000       0.00000000      31.71600000       0.60000000
Ni      21.14400000       1.76200000      33.47800000       0.60000000
Ni      22.90600000       0.00000000      33.47800000       0.60000000
Ni      22.90600000       1.76200000      31.71600000       0.60000000
Ni      21.14400000       3.52400000       0.00000000       0.60000000
Ni      21.14400000       5.28600000       1.76200000       0.60000000
Ni      22.90600000       3.52400000       1.76200000       0.60000000
Ni      22.90600000       5.28600000       0.00000000       0.60000000
Ni      21.14400000       3.52400000       3.52400000       0.60000000
Ni      21.14400000       5.28600000       5.28600000       0.60000000
Ni      22.90600000       3.52400000       5.28600000       0.60000000
Ni      22.90600000       5.28600000       3.52400000       0.60000000
Ni      21.14400000       3.52400000       7.04800000       0.60000000
Ni      21.14400000       5.28600000       8.81000000       0.60000000
Ni      22.90600000       3.52400000       8.81000000       0.60000000
Ni      22.90600000       5.28600000       7.04800000       0.60000000
Ni      21.14400000       3.52400000      10.57200000       0.60000000
Ni      21.14400000       5.28600000      12.33400000       0.60000000
Ni      22.90600000       3.52400000      12.33400000       0.60000000
Ni      22.90600000       5.28600000      10.57200000       0.60000000
Ni      21.14400000       3.52400000      14.09600000       0.60000000
Ni      21.14400000       5.28600000      15.85800000       0.60000000
Ni      22.90600000       3.52400000      15.85800000       0.60000000
Ni      22.90600000       5.28600000      14.09600000       0.60000000
Ni      21.14400000       3.52400000      17.62000000       0.60000000
Ni      21.14400000       5.28600000      19.38200000       0.60000000
Ni      22.90600000       3.52400000      19.38200000       0.60000000
Ni      22.90600000       5.28600000      17.62000000       0.60000000
Ni      21.14400000       3.52400000      21.14400000       0.60000000
Ni      21.14400000       5.28600000      22.90600000       0.60000000
Ni      22.90600000       3.52400000      22.90600000       0.60000000
Ni      22.90600000       5.28600000      21.14400000       0.60000000
Ni      21.14400000       3.52400000      24.66800000       0.60000000
Ni      21.14400000       5.28600000      26.43000000       0.60000000
Ni      22.90600000       3.52400000      26.43000000       0.60000000
Ni      22.90600000       5.28600000      24.66800000       0.60000000
Ni      21.14400000       3.52400000      28.19200000       0.60000000
Ni      21.14400000       5.28600000      29.95400000       0.60000000
Ni      22.90600000       3.52400000      29.95400000       0.60000000
Ni      22.90600000       5.28600000      28.19200000       0.60000000
Ni      21.14400000       3.52400000      31.71600000       0.60000000
Ni      21.14400000       5.28600000      33.47800000       0.60000000
Ni      22.90600000       3.52400000      33.47800000       0.60000000
Ni      22.90600000       5.28600000      31.71600000       0.60000000
Ni      21.14400000       7.04800000       0.00000000       0.60000000
Ni      21.14400000       8.81000000       1.76200000       0.60000000
Ni      22.90600000       7.04800000       1.76200000       0.60000000
Ni      22.90600000       8.81000000       0.00000000       0.60000000
Ni      21.14400000       7.04800000       3.52400000       0.60000000
Ni      21.14400000       8.81000000       5.28600000       0.60000000
Ni      22.90600000       7.04800000       5.28600000       0.60000000
Ni      22.90600000       8.81000000       3.52400000       0.60000000
Ni      21.14400000       7.04800000       7.04800000       0.60000000
Ni      21.14400000       8.81000000       8.81000000       0.60000000
Ni      22.90600000       7.04800000       8.81000000       0.60000000
Ni      22.90600000       8.81000000       7.04800000       0.60000000
Ni      21.14400000       7.04800000      10.57200000       0.60000000
Ni      21.14400000       8.81000000      12.33400000       0.60000000
Ni      22.90600000       7.04800000      12.33400000       0.60000000
Ni      22.90600000       8.81000000      10.57200000       0.60000000
Ni      21.14400000       7.04800000      14.09600000       0.60000000
Ni      21.14400000       8.81000000      15.85800000       0.60000000
Ni      22.90600000       7.04800000      15.85800000       0.60000000
Ni      22.90600000       8.81000000      14.09600000       0.60000000
Ni      21.14400000       7.04800000      17.62000000       0.60000000
Ni      21.14400000       8.81000000      19.38200000       0.60000000
Ni      22.90600000       7.04800000      19.38200000       0.60000000
Ni      22.90600000       8.81000000      17.62000000       0.60000000
Ni      21.14400000       7.04800000      21.14400000       0.60000000
Ni      21.14400000       8.81000000      22.90600000       0.60000000
Ni      22.90600000       7.04800000      22.90600000       0.60000000
Ni      22.90600000       8.81000000      21.14400000       0.60000000
Ni      21.14400000       7.04800000      24.66800000       0.60000000
Ni      21.14400000       8.81000000      26.43000000       0.60000000
Ni      22.90600000       7.04800000      26.43000000       0.60000000
Ni      22.90600000       8.81000000      24.66800000       0.60000000
Ni      21.14400000       7.04800000      28.19200000       0.60000000
Ni      21.14400000       8.81000000      29.95400000       0.60000000
Ni      22.90600000       7.04800000      29.95400000       0.60000000
Ni      22.90600000       8.81000000      28.19200000       0.60000000
Ni      21.14400000       7.04800000      31.71600000       0.60000000
Ni      21.14400000       8.81000000      33.47800000       0.60000000
Ni      22.90600000       7.04800000      33.47800000       0.60000000
Ni      22.90600000       8.81000000      31.71600000       0.60000000
Ni      21.14400000      10.57200000       0.00000000       0.60000000
Ni      21.14400000      12.33400000       1.76200000       0.60000000
Ni      22.90600000      10.57200000       1.76200000       0.60000000
Ni      22.90600000      12.33400000       0.00000000       0.60000000
Ni      21.14400000      10.57200000       3.52400000       0.60000000
Ni      21.14400000      12.33400000       5.28600000       0.60000000
Ni      22.90600000      10.57200000       5.28600000       0.60000000
Ni      22.90600000      12.33400000       3.52400000       0.60000000
Ni      21.14400000      10.57200000       7.04800000       0.60000000
Ni      21.14400000      12.33400000       8.81000000       0.60000000
Ni      22.90600000      10.57200000       8.81000000       0.60000000
Ni      22.90600000      12.33400000       7.04800000       0.60000000
Ni      21.14400000      10.57200000      10.57200000       0.60000000
Ni      21.14400000      12.33400000      12.33400000       0.60000000
Ni      22.90600000      10.57200000      12.33400000       0.60000000
Ni      22.90600000      12.33400000      10.57200000       0.60000000
Ni      21.14400000      10.57200000      14.09600000       0.60000000
Ni      21.14400000      12.33400000      15.85800000       0.60000000
Ni      22.90600000      10.57200000      15.85800000       0.60000000
Ni      22.90600000      12.33400000      14.09600000       0.60000000
Ni      21.14400000      10.57200000      17.62000000       0.60000000
Cr      21.14400000      12.33400000      19.38200000       0.60000000
Ni      22.90600000      10.57200000      19.38200000       0.60000000
Ni      22.90600000      12.33400000      17.62000000       0.60000000
Cr      21.14400000      10.57200000      21.14400000       0.60000000
Cr      21.14400000      12.33400000      22.90600000       0.60000000
Cr      22.90600000      10.57200000      22.90600000       0.60000000
Cr      22.90600000      12.33400000      21.14400000       0.60000000
Ni      21.14400000      10.57200000      24.66800000       0.60000000
Ni      21.14400000      12.33400000      26.43000000       0.60000000
Ni      22.90600000      10.57200000      26.43000000       0.60000000
Cr      22.90600000      12.33400000      24.66800000       0.60000000
Ni      21.14400000      10.57200000      28.19200000       0.60000000
Ni      21.14400000      12.33400000      29.95400000       0.60000000
Ni      22.90600000      10.57200000      29.95400000       0.60000000
Ni      22.90600000      12.33400000      28.19200000       0.60000000
Ni      21.14400000      10.57200000      31.71600000       0.60000000
Ni      21.14400000      12.33400000      33.47800000       0.60000000
Ni      22.90600000      10.57200000      33.47800000       0.60000000
Ni      22.90600000      12.33400000      31.71600000       0.60000000
Ni      21.14400000      14.09600000       0.00000000       0.60000000
Ni      21.14400000      15.85800000       1.76200000       0.60000000
Ni      22.90600000      14.09600000       1.76200000       0.60000000
Ni      22.90600000      15.85800000       0.00000000       0.60000000
Ni      21.14400000      14.09600000       3.52400000       0.60000000
Ni      21.14400000      15.85800000       5.28600000       0.60000000
Ni      22.90600000      14.09600000       5.28600000       0.60000000
Ni      22.90600000      15.85800000       3.52400000       0.60000000
Ni      21.14400000      14.09600000       7.04800000       0.60000000
Ni      21.14400000      15.85800000       8.81000000       0.60000000
Ni      22.90600000      14.09600000       8.81000000       0.60000000
Ni      22.90600000      15.85800000       7.04800000       0.60000000
Ni      21.14400000      14.09600000      10.57200000       0.60000000
Ni      21.14400000      15.85800000      12.33400000       0.60000000
Ni      22.90600000      14.09600000      12.33400000       0.60000000
Ni      22.90600000      15.85800000      10.57200000       0.60000000
Ni      21.14400000      14.09600000      14.09600000       0.60000000
Cr      21.14400000      15.85800000      15.85800000       0.60000000
Ni      22.90600000      14.09600000      15.85800000       0.60000000
Ni      22.90600000      15.85800000      14.09600000       0.60000000
Cr      21.14400000      14.09600000      17.62000000       0.60000000
Cr      21.14400000      15.85800000      19.38200000       0.60000000
Cr      22.90600000      14.09600000      19.38200000       0.60000000
Cr      22.90600000      15.85800000      17.62000000       0.60000000
Cr      21.14400000      14.09600000      21.14400000       0.60000000
Cr      21.14400000      15.85800000      22.90600000       0.60000000
Cr      22.90600000      14.09600000      22.90600000       0.60000000
Cr      22.90600000      15.85800000      21.14400000       0.60000000
Cr      21.14400000      14.09600000      24.66800000       0.60000000
Ni      21.14400000      15.85800000      26.43000000       0.60000000
Ni      22.90600000      14.09600000      26.43000000       0.60000000
Ni      22.90600000      15.85800000      24.66800000       0.60000000
Ni      21.14400000      14.09600000      28.19200000       0.60000000
Ni      21.14400000      15.85800000      29.95400000       0.60000000
Ni      22.90600000      14.09600000      29.95400000       0.60000000
Ni      22.90600000      15.85800000      28.19200000       0.60000000
Ni      21.14400000      14.09600000      31.71600000       0.60000000
Ni      21.14400000      15.85800000      33.47800000       0.60000000
Ni      22.90600000      14.09600000      33.47800000       0.60000000
Ni      22.90600000      15.85800000      31.71600000       0.60000000
Ni      21.14400000      17.62000000       0.00000000       0.60000000
Ni      21.14400000      19.38200000       1.76200000       0.60000000
Ni      22.90600000      17.62000000       1.76200000       0.60000000
Ni      22.90600000      19.38200000       0.00000000       0.60000000
Ni      21.14400000      17.62000000       3.52400000       0.60000000
Ni      21.14400000      19.38200000       5.28600000       0.60000000
Ni      22.90600000      17.62000000       5.28600000       0.60000000
Ni      22.90600000      19.38200000       3.52400000       0.60000000
Ni      21.14400000      17.62000000       7.04800000       0.60000000
Ni      21.14400000      19.38200000       8.81000000       0.60000000
Ni      22.90600000      17.62000000       8.81000000       0.60000000
Ni      22.90600000      19.38200000       7.04800000       0.60000000
Ni      21.14400000      17.62000000      10.57200000       0.60000000
Cr      21.14400000      19.38200000      12.33400000       0.60000000
Ni      22.90600000      17.62000000      12.33400000       0.60000000
Ni      22.90600000      19.38200000      10.57200000       0.60000000
Cr      21.14400000      17.62000000      14.09600000       0.60000000
Cr      21.14400000      19.38200000      15.85800000       0.60000000
Cr      22.90600000      17.62000000      15.85800000       0.60000000
Cr      22.90600000      19.38200000      14.09600000       0.60000000
Cr      21.14400000      17.62000000      17.62000000       0.60000000
Cr      21.14400000      19.38200000      19.38200000       0.60000000
Cr      22.90600000      17.62000000      19.38200000       0.60000000
Cr      22.90600000      19.38200000      17.62000000       0.60000000
Cr      21.14400000      17.62000000      21.14400000       0.60000000
Ni      21.14400000      19.38200000      22.90600000       0.60000000
Ni      22.90600000      17.62000000      22.90600000       0.60000000
Ni      22.90600000      19.38200000      21.14400000       0.60000000
Ni      21.14400000      17.62000000      24.66800000       0.60000000
Ni      21.14400000      19.38200000      26.43000000       0.60000000
Ni      22.90600000      17.62000000      26.43000000       0.60000000
Ni      22.90600000      19.38200000      24.66800000       0.60000000
Ni      21.14400000      17.62000000      28.19200000       0.60000000
Ni      21.14400000      19.38200000      29.95400000       0.60000000
Ni      22.90600000      17.62000000      29.95400000       0.60000000
Ni      22.90600000      19.38200000      28.19200000       0.60000000
Ni      21.14400000      17.62000000      31.71600000       0.60000000
Ni      21.14400000      19.38200000      33.47800000       0.60000000
Ni      22.90600000      17.62000000      33.47800000       0.60000000
Ni      22.90600000      19.38200000      31.71600000       0.60000000
Ni      21.14400000      21.14400000       0.00000000       0.60000000
Ni      21.14400000      22.90600000       1.76200000       0.60000000
Ni      22.90600000      21.14400000       1.76200000       0.60000000
Ni      22.90600000      22.90600000       0.00000000       0.60000000
Ni      21.14400000      21.14400000       3.52400000       0.60000000
Ni      21.14400000      22.90600000       5.28600000       0.60000000
Ni      22.90600000      21.14400000       5.28600000       0.60000000
Ni      22.90600000      22.90600000       3.52400000       0.60000000
Ni      21.14400000      21.14400000       7.04800000       0.60000000
Ni      21.14400000      22.90600000       8.81000000       0.60000000
Ni      22.90600000      21.14400000       8.81000000       0.60000000
Ni      22.90600000      22.90600000       7.04800000       0.60000000
Cr      21.14400000      21.14400000      10.57200000       0.60000000
Cr      21.14400000      22.90600000      12.33400000       0.60000000
Cr      22.90600000      21.14400000      12.33400000       0.60000000
Cr      22.90600000      22.90600000      10.57200000       0.60000000
Cr      21.14400000      21.14400000      14.09600000       0.60000000
Cr      21.14400000      22.90600000      15.85800000       0.60000000
Cr      22.90600000      21.14400000      15.85800000       0.60000000
Cr      22.90600000      22.90600000      14.09600000       0.60000000
Cr      21.14400000      21.14400000      17.62000000       0.60000000
Ni      21.14400000      22.90600000      19.38200000       0.60000000
Ni      22.90600000      21.14400000      19.38200000       0.60000000
Ni      22.90600000      22.90600000      17.62000000       0.60000000
Ni      21.14400000      21.14400000      21.14400000       0.60000000
Ni      21.14400000      22.90600000      22.90600000       0.60000000
Ni      22.90600000      21.14400000      22.90600000       0.60000000
Ni      22.90600000      22.90600000      21.14400000       0.60000000
Ni      21.14400000      21.14400000      24.66800000       0.60000000
Ni      21.14400000      22.90600000      26.43000000       0.60000000
Ni      22.90600000      21.14400000      26.43000000       0.60000000
Ni      22.90600000      22.90600000      24.66800000       0.60000000
Ni      21.14400000      21.14400000      28.19200000       0.60000000
Ni      21.14400000      22.90600000      29.95400000       0.60000000
Ni      22.90600000      21.14400000      29.95400000       0.60000000
Ni      22.90600000      22.90600000      28.19200000       0.60000000
Ni      21.14400000      21.14400000      31.71600000       0.60000000
Ni      21.14400000      22.90600000      33.47800000       0.60000000
Ni      22.90600000      21.14400000      33.47800000       0.60000000
Ni      22.90600000      22.90600000      31.71600000       0.60000000
Ni      21.14400000      24.66800000       0.00000000       0.60000000
Ni      21.14400000      26.43000000       1.76200000       0.60000000
Ni      22.90600000      24.66800000       1.76200000       0.60000000
Ni      22.90600000      26.43000000       0.00000000       0.60000000
Ni      21.14400000      24.66800000       3.52400000       0.60000000
Ni      21.14400000      26.43000000       5.28600000       0.60000000
Ni      22.90600000      24.66800000       5.28600000       0.60000000
Ni      22.90600000      26.43000000       3.52400000       0.60000000
Ni      21.14400000      24.66800000       7.04800000       0.60000000
Ni      21.14400000      26.43000000       8.81000000       0.60000000
Ni      22.90600000      24.66800000       8.81000000       0.60000000
Ni      22.90600000      26.43000000       7.04800000       0.60000000
Ni      21.14400000      24.66800000      10.57200000       0.60000000
Ni      21.14400000      26.43000000      12.33400000       0.60000000
Cr      22.90600000      24.66800000      12.33400000       0.60000000
Ni      22.90600000      26.43000000      10.57200000       0.60000000
Cr      21.14400000      24.66800000      14.09600000       0.60000000
Ni      21.14400000      26.43000000      15.85800000       0.60000000
Ni      22.90600000      24.66800000      15.85800000       0.60000000
Ni      22.90600000      26.43000000      14.09600000       0.60000000
Ni      21.14400000      24.66800000      17.62000000       0.60000000
Ni      21.14400000      26.43000000      19.38200000       0.60000000
Ni      22.90600000      24.66800000      19.38200000       0.60000000
Ni      22.90600000      26.43000000      17.62000000       0.60000000
Ni      21.14400000      24.66800000      21.14400000       0.60000000
Ni      21.14400000      26.43000000      22.90600000       0.60000000
Ni      22.90600000      24.66800000      22.90600000       0.60000000
Ni      22.90600000      26.43000000      21.14400000       0.60000000
Ni      21.14400000      24.66800000      24.66800000       0.60000000
Ni      21.14400000      26.43000000      26.43000000       0.60000000
Ni      22.90600000      24.66800000      26.43000000       0.60000000
Ni      22.90600000      26.43000000      24.66800000       0.60000000
Ni      21.14400000      24.66800000      28.19200000       0.60000000
Ni      21.14400000      26.43000000      29.95400000       0.60000000
Ni      22.90600000      24.66800000      29.95400000       0.60000000
Ni      22.90600000      26.43000000      28.19200000       0.60000000
Ni      21.14400000      24.66800000      31.71600000       0.60000000
Ni      21.14400000      26.43000000      33.47800000       0.60000000
Ni      22.90600000      24.66800000      33.47800000       0.60000000
Ni      22.90600000      26.43000000      31.71600000       0.60000000
Ni      21.14400000      28.19200000       0.00000000       0.60000000
Ni      21.14400000      29.95400000       1.76200000       0.60000000
Ni      22.90600000      28.19200000       1.76200000       0.60000000
Ni      22.90600000      29.95400000       0.00000000       0.60000000
Ni      21.14400000      28.19200000       3.52400000       0.60000000
Ni      21.14400000      29.95400000       5.28600000       0.60000000
Ni      22.90600000      28.19200000       5.28600000       0.60000000
Ni      22.90600000      29.95400000       3.52400000       0.60000000
Ni      21.14400000      28.19200000       7.04800000       0.60000000
Ni      21.14400000      29.95400000       8.81000000       0.60000000
Ni      22.90600000      28.19200000       8.81000000       0.60000000
Ni      22.90600000      29.95400000       7.04800000       0.60000000
Ni      21.14400000      28.19200000      10.57200000       0.60000000
Ni      21.14400000      29.95400000      12.33400000       0.60000000
Ni      22.90600000      28.19200000      12.33400000       0.60000000
Ni      22.90600000      29.95400000      10.57200000       0.60000000
Ni      21.14400000      28.19200000      14.09600000       0.60000000
Ni      21.14400000      29.95400000      15.85800000       0.60000000
Ni      22.90600000      28.19200000      15.85800000       0.60000000
Ni      22.90600000      29.95400000      14.09600000       0.60000000
Ni      21.14400000      28.19200000      17.62000000       0.60000000
Ni      21.14400000      29.95400000      19.38200000       0.60000000
Ni      22.90600000      28.19200000      19.38200000       0.60000000
Ni      22.90600000      29.95400000      17.62000000       0.60000000
Ni      21.14400000      28.19200000      21.14400000       0.60000000
Ni      21.14400000      29.95400000      22.90600000       0.60000000
Ni      22.90600000      28.19200000      22.90600000       0.60000000
Ni      22.90600000      29.95400000      21.14400000       0.60000000
Ni      21.14400000      28.19200000      24.66800000       0.60000000
Ni      21.14400000      29.95400000      26.43000000       0.60000000
Ni      22.90600000      28.19200000      26.43000000       0.60000000
Ni      22.90600000      29.95400000      24.66800000       0.60000000
Ni      21.14400000      28.19200000      28.19200000       0.60000000
Ni      21.14400000      29.95400000      29.95400000       0.60000000
Ni      22.90600000      28.19200000      29.95400000       0.60000000
Ni      22.90600000      29.95400000      28.19200000       0.60000000
Ni      21.14400000      28.19200000      31.71600000       0.60000000
Ni      21.14400000      29.95400000      33.47800000       0.60000000
Ni      22.90600000      28.19200000      33.47800000       0.60000000
Ni      22.90600000      29.95400000      31.71600000       0.60000000
Ni      21.14400000      31.71600000       0.00000000       0.60000000
Ni      21.14400000      33.47800000       1.76200000       0.60000000
Ni      22.90600000      31.71600000       1.76200000       0.60000000
Ni      22.90600000      33.47800000       0.00000000       0.60000000
Ni      21.14400000      31.71600000       3.52400000       0.60000000
Ni      21.14400000      33.47800000       5.28600000       0.60000000
Ni      22.90600000      31.71600000       5.28600000       0.60000000
Ni      22.90600000      33.47800000       3.52400000       0.60000000
Ni      21.14400000      31.71600000       7.04800000       0.60000000
Ni      21.14400000      33.47800000       8.81000000       0.60000000
Ni      22.90600000      31.71600000       8.81000000       0.60000000
Ni      22.90600000      33.47800000       7.04800000       0.60000000
Ni      21.14400000      31.71600000      10.57200000       0.60000000
Ni      21.14400000      33.47800000      12.33400000       0.60000000
Ni      22.90600000      31.71600000      12.33400000       0.60000000
Ni      22.90600000      33.47800000      10.57200000       0.60000000
Ni      21.14400000      31.71600000      14.09600000       0.60000000
Ni      21.14400000      33.47800000      15.85800000       0.60000000
Ni      22.90600000      31.71600000      15.85800000       0.60000000
Ni      22.90600000      33.47800000      14.09600000       0.60000000
Ni      21.14400000      31.71600000      17.62000000       0.60000000
Ni      21.14400000      33.47800000      19.38200000       0.60000000
Ni      22.90600000      31.71600000      19.38200000       0.60000000
Ni      22.90600000      33.47800000      17.62000000       0.60000000
Ni      21.14400000      31.71600000      21.14400000       0.60000000
Ni      21.14400000      33.47800000      22.90600000       0.60000000
Ni      22.90600000      31.71600000      22.90600000       0.60000000
Ni      22.90600000      33.47800000      21.14400000       0.60000000
Ni      21.14400000      31.71600000      24.66800000       0.60000000
Ni      21.14400000      33.47800000      26.43000000       0.60000000
Ni      22.90600000      31.71600000      26.43000000       0.60000000
Ni      22.90600000      33.47800000      24.66800000       0.60000000
Ni      21.14400000      31.71600000      28.19200000       0.60000000
Ni      21.14400000      33.47800000      29.95400000       0.60000000
Ni      22.90600000      31.71600000      29.95400000       0.60000000
Ni      22.90600000      33.47800000      28.19200000       0.60000000
Ni      21.14400000      31.71600000      31.71600000       0.60000000
Ni      21.14400000      33.47800000      33.47800000       0.60000000
Ni      22.90600000      31.71600000      33.47800000       0.60000000
Ni      22.90600000      33.47800000      31.71600000       0.60000000
Ni      24.66800000       0.00000000       0.00000000       0.60000000
Ni      24.66800000       1.76200000       1.76200000       0.60000000
Ni      26.43000000       0.00000000       1.76200000       0.60000000
Ni      26.43000000       1.76200000       0.00000000       0.60000000
Ni      24.66800000       0.00000000       3.52400000       0.60000000
Ni      24.66800000       1.76200000       5.28600000       0.60000000
Ni      26.43000000       0.00000000       5.28600000       0.60000000
Ni      26.43000000       1.76200000       3.52400000       0.60000000
Ni      24.66800000       0.00000000       7.04800000       0.60000000
Ni      24.66800000       1.76200000       8.81000000       0.60000000
Ni      26.43000000       0.00000000       8.81000000       0.60000000
Ni      26.43000000       1.76200000       7.04800000       0.60000000
Ni      24.66800000       0.00000000      10.57200000       0.60000000
Ni      24.66800000       1.76200000      12.33400000       0.60000000
Ni      26.43000000       0.00000000      12.33400000       0.60000000
Ni      26.43000000       1.76200000      10.57200000       0.60000000
Ni      24.66800000       0.00000000      14.09600000       0.60000000
Ni      24.66800000       1.76200000      15.85800000       0.60000000
Ni      26.43000000       0.00000000      15.85800000       0.60000000
Ni      26.43000000       1.76200000      14.09600000       0.60000000
Ni      24.66800000       0.00000000      17.62000000       0.60000000
Ni      24.66800000       1.76200000      19.38200000       0.60000000
Ni      26.43000000       0.00000000      19.38200000       0.60000000
Ni      26.43000000       1.76200000      17.62000000       0.60000000
Ni      24.66800000       0.00000000      21.14400000       0.60000000
Ni      24.66800000       1.76200000      22.90600000       0.60000000
Ni      26.43000000       0.00000000      22.90600000       0.60000000
Ni      26.43000000       1.76200000      21.14400000       0.60000000
Ni      24.66800000       0.00000000      24.66800000       0.60000000
Ni      24.66800000       1.76200000      26.43000000       0.60000000
Ni      26.43000000       0.00000000      26.43000000       0.60000000
Ni      26.43000000       1.76200000      24.66800000       0.60000000
Ni      24.66800000       0.00000000      28.19200000       0.60000000
Ni      24.66800000       1.76200000      29.95400000       0.60000000
Ni      26.43000000       0.00000000      29.95400000       0.60000000
Ni      26.43000000       1.76200000      28.19200000       0.60000000
Ni      24.66800000       0.00000000      31.71600000       0.60000000
Ni      24.66800000       1.76200000      33.47800000       0.60000000
Ni      26.43000000       0.00000000      33.47800000       0.60000000
Ni      26.43000000       1.76200000      31.71600000       0.60000000
Ni      24.66800000       3.52400000       0.00000000       0.60000000
Ni      24.66800000       5.28600000       1.76200000       0.60000000
Ni      26.43000000       3.52400000       1.76200000       0.60000000
Ni      26.43000000       5.28600000       0.00000000       0.60000000
Ni      24.66800000       3.52400000       3.52400000       0.60000000
Ni      24.66800000       5.28600000       5.28600000       0.60000000
Ni      26.43000000       3.52400000       5.28600000       0.60000000
Ni      26.43000000       5.28600000       3.52400000       0.60000000
Ni      24.66800000       3.52400000       7.04800000       0.60000000
Ni      24.66800000       5.28600000       8.81000000       0.60000000
Ni      26.43000000       3.52400000       8.81000000       0.60000000
Ni      26.43000000       5.28600000       7.04800000       0.60000000
Ni      24.66800000       3.52400000      10.57200000       0.60000000
Ni      24.66800000       5.28600000      12.33400000       0.60000000
Ni      26.43000000       3.52400000      12.33400000       0.60000000
Ni      26.43000000       5.28600000      10.57200000       0.60000000
Ni      24.66800000       3.52400000      14.09600000       0.60000000
Ni      24.66800000       5.28600000      15.85800000       0.60000000
Ni      26.43000000       3.52400000      15.85800000       0.60000000
Ni      26.43000000       5.28600000      14.09600000       0.60000000
Ni      24.66800000       3.52400000      17.62000000       0.60000000
Ni      24.66800000       5.28600000      19.38200000       0.60000000
Ni      26.43000000       3.52400000      19.38200000       0.60000000
Ni      26.43000000       5.28600000      17.62000000       0.60000000
Ni      24.66800000       3.52400000      21.14400000       0.60000000
Ni      24.66800000       5.28600000      22.90600000       0.60000000
Ni      26.43000000       3.52400000      22.90600000       0.60000000
Ni      26.43000000       5.28600000      21.14400000       0.60000000
Ni      24.66800000       3.52400000      24.66800000       0.60000000
Ni      24.66800000       5.28600000      26.43000000       0.60000000
Ni      26.43000000       3.52400000      26.43000000       0.60000000
Ni      26.43000000       5.28600000      24.66800000       0.60000000
Ni      24.66800000       3.52400000      28.19200000       0.60000000
Ni      24.66800000       5.28600000      29.95400000       0.60000000
Ni      26.43000000       3.52400000      29.95400000       0.60000000
Ni      26.43000000       5.28600000      28.19200000       0.60000000
Ni      24.66800000       3.52400000      31.71600000       0.60000000
Ni      24.66800000       5.28600000      33.47800000       0.60000000
Ni      26.43000000       3.52400000      33.47800000       0.60000000
Ni      26.43000000       5.28600000      31.71600000       0.60000000
Ni      24.66800000       7.04800000       0.00000000       0.60000000
Ni      24.66800000       8.81000000       1.76200000       0.60000000
Ni      26.43000000       7.04800000       1.76200000       0.60000000
Ni      26.43000000       8.81000000       0.00000000       0.60000000
Ni      24.66800000       7.04800000       3.52400000       0.60000000
Ni      24.66800000       8.81000000       5.28600000       0.60000000
Ni      26.43000000       7.04800000       5.28600000       0.60000000
Ni      26.43000000       8.81000000       3.52400000       0.60000000
Ni      24.66800000       7.04800000       7.04800000       0.60000000
Ni      24.66800000       8.81000000       8.81000000       0.60000000
Ni      26.43000000       7.04800000       8.81000000       0.60000000
Ni      26.43000000       8.81000000       7.04800000       0.60000000
Ni      24.66800000       7.04800000      10.57200000       0.60000000
Ni      24.66800000       8.81000000      12.33400000       0.60000000
Ni      26.43000000       7.04800000      12.33400000       0.60000000
Ni      26.43000000       8.81000000      10.57200000       0.60000000
Ni      24.66800000       7.04800000      14.09600000       0.60000000
Ni      24.66800000       8.81000000      15.85800000       0.60000000
Ni      26.43000000       7.04800000      15.85800000       0.60000000
Ni      26.43000000       8.81000000      14.09600000       0.60000000
Ni      24.66800000       7.04800000      17.62000000       0.60000000
Ni      24.66800000       8.81000000      19.38200000       0.60000000
Ni      26.43000000       7.04800000      19.38200000       0.60000000
Ni      26.43000000       8.81000000      17.62000000       0.60000000
Ni      24.66800000       7.04800000      21.14400000       0.60000000
Ni      24.66800000       8.81000000      22.90600000       0.60000000
Ni      26.43000000       7.04800000      22.90600000       0.60000000
Ni      26.43000000       8.81000000      21.14400000       0.60000000
Ni      24.66800000       7.04800000      24.66800000       0.60000000
Ni      24.66800000       8.81000000      26.43000000       0.60000000
Ni      26.43000000       7.04800000      26.43000000       0.60000000
Ni      26.43000000       8.81000000      24.66800000       0.60000000
Ni      24.66800000       7.04800000      28.19200000       0.60000000
Ni      24.66800000       8.81000000      29.95400000       0.60000000
Ni      26.43000000       7.04800000      29.95400000       0.60000000
Ni      26.43000000       8.81000000      28.19200000       0.60000000
Ni      24.66800000       7.04800000      31.71600000       0.60000000
Ni      24.66800000       8.81000000      33.47800000       0.60000000
Ni      26.43000000       7.04800000      33.47800000       0.60000000
Ni      26.43000000       8.81000000      31.71600000       0.60000000
Ni      24.66800000      10.57200000       0.00000000       0.60000000
Ni      24.66800000      12.33400000       1.76200000       0.60000000
Ni      26.43000000      10.57200000       1.76200000       0.60000000
Ni      26.43000000      12.33400000       0.00000000       0.60000000
Ni      24.66800000      10.57200000       3.52400000       0.60000000
Ni      24.66800000      12.33400000       5.28600000       0.60000000
Ni      26.43000000      10.57200000       5.28600000       0.60000000
Ni      26.43000000      12.33400000       3.52400000       0.60000000
Ni      24.66800000      10.57200000       7.04800000       0.60000000
Ni      24.66800000      12.33400000       8.81000000       0.60000000
Ni      26.43000000      10.57200000       8.81000000       0.60000000
Ni      26.43000000      12.33400000       7.04800000       0.60000000
Ni      24.66800000      10.57200000      10.57200000       0.60000000
Ni      24.66800000      12.33400000      12.33400000       0.60000000
Ni      26.43000000      10.57200000      12.33400000       0.60000000
Ni      26.43000000      12.33400000      10.57200000       0.60000000
Ni      24.66800000      10.57200000      14.09600000       0.60000000
Ni      24.66800000      12.33400000      15.85800000       0.60000000
Ni      26.43000000      10.57200000      15.85800000       0.60000000
Ni      26.43000000      12.33400000      14.09600000       0.60000000
Ni      24.66800000      10.57200000      17.62000000       0.60000000
Ni      24.66800000      12.33400000      19.38200000       0.60000000
Ni      26.43000000      10.57200000      19.38200000       0.60000000
Ni      26.43000000      12.33400000      17.62000000       0.60000000
Ni      24.66800000      10.57200000      21.14400000       0.60000000
Cr      24.66800000      12.33400000      22.90600000       0.60000000
Ni      26.43000000      10.57200000      22.90600000       0.60000000
Ni      26.43000000      12.33400000      21.14400000       0.60000000
Cr      24.66800000      10.57200000      24.66800000       0.60000000
Ni      24.66800000      12.33400000      26.43000000       0.60000000
Ni      26.43000000      10.57200000      26.43000000       0.60000000
Ni      26.43000000      12.33400000      24.66800000       0.60000000
Ni      24.66800000      10.57200000      28.19200000       0.60000000
Ni      24.66800000      12.33400000      29.95400000       0.60000000
Ni      26.43000000      10.57200000      29.95400000       0.60000000
Ni      26.43000000      12.33400000      28.19200000       0.60000000
Ni      24.66800000      10.57200000      31.71600000       0.60000000
Ni      24.66800000      12.33400000      33.47800000       0.60000000
Ni      26.43000000      10.57200000      33.47800000       0.60000000
Ni      26.43000000      12.33400000      31.71600000       0.60000000
Ni      24.66800000      14.09600000       0.00000000       0.60000000
Ni      24.66800000      15.85800000       1.76200000       0.60000000
Ni      26.43000000      14.09600000       1.76200000       0.60000000
Ni      26.43000000      15.85800000       0.00000000       0.60000000
Ni      24.66800000      14.09600000       3.52400000       0.60000000
Ni      24.66800000      15.85800000       5.28600000       0.60000000
Ni      26.43000000      14.09600000       5.28600000       0.60000000
Ni      26.43000000      15.85800000       3.52400000       0.60000000
Ni      24.66800000      14.09600000       7.04800000       0.60000000
Ni      24.66800000      15.85800000       8.81000000       0.60000000
Ni      26.43000000      14.09600000       8.81000000       0.60000000
Ni      26.43000000      15.85800000       7.04800000       0.60000000
Ni      24.66800000      14.09600000      10.57200000       0.60000000
Ni      24.66800000      15.85800000      12.33400000       0.60000000
Ni      26.43000000      14.09600000      12.33400000       0.60000000
Ni      26.43000000      15.85800000      10.57200000       0.60000000
Ni      24.66800000      14.09600000      14.09600000       0.60000000
Ni      24.66800000      15.85800000      15.85800000       0.60000000
Ni      26.43000000      14.09600000      15.85800000       0.60000000
Ni      26.43000000      15.85800000      14.09600000       0.60000000
Ni      24.66800000      14.09600000      17.62000000       0.60000000
Cr      24.66800000      15.85800000      19.38200000       0.60000000
Ni      26.43000000      14.09600000      19.38200000       0.60000000
Ni      26.43000000      15.85800000      17.62000000       0.60000000
Cr      24.66800000      14.09600000      21.14400000       0.60000000
Ni      24.66800000      15.85800000      22.90600000       0.60000000
Ni      26.43000000      14.09600000      22.90600000       0.60000000
Ni      26.43000000      15.85800000      21.14400000       0.60000000
Ni      24.66800000      14.09600000      24.66800000       0.60000000
Ni      24.66800000      15.85800000      26.43000000       0.60000000
Ni      26.43000000      14.09600000      26.43000000       0.60000000
Ni      26.43000000      15.85800000      24.66800000       0.60000000
Ni      24.66800000      14.09600000      28.19200000       0.60000000
Ni      24.66800000      15.85800000      29.95400000       0.60000000
Ni      26.43000000      14.09600000      29.95400000       0.60000000
Ni      26.43000000      15.85800000      28.19200000       0.60000000
Ni      24.66800000      14.09600000      31.71600000       0.60000000
Ni      24.66800000      15.85800000      33.47800000       0.60000000
Ni      26.43000000      14.09600000      33.47800000       0.60000000
Ni      26.43000000      15.85800000      31.71600000       0.60000000
Ni      24.66800000      17.62000000       0.00000000       0.60000000
Ni      24.66800000      19.38200000       1.76200000       0.60000000
Ni      26.43000000      17.62000000       1.76200000       0.60000000
Ni      26.43000000      19.38200000       0.00000000       0.60000000
Ni      24.66800000      17.62000000       3.52400000       0.60000000
Ni      24.66800000      19.38200000       5.28600000       0.60000000
Ni      26.43000000      17.62000000       5.28600000       0.60000000
Ni      26.43000000      19.38200000       3.52400000       0.60000000
Ni      24.66800000      17.62000000       7.04800000       0.60000000
Ni      24.66800000      19.38200000       8.81000000       0.60000000
Ni      26.43000000      17.62000000       8.81000000       0.60000000
Ni      26.43000000      19.38200000       7.04800000       0.60000000
Ni      24.66800000      17.62000000      10.57200000       0.60000000
Ni      24.66800000      19.38200000      12.33400000       0.60000000
Ni      26.43000000      17.62000000      12.33400000       0.60000000
Ni      26.43000000      19.38200000      10.57200000       0.60000000
Ni      24.66800000      17.62000000      14.09600000       0.60000000
Cr      24.66800000      19.38200000      15.85800000       0.60000000
Ni      26.43000000      17.62000000      15.85800000       0.60000000
Ni      26.43000000      19.38200000      14.09600000       0.60000000
Cr      24.66800000      17.62000000      17.62000000       0.60000000
Ni      24.66800000      19.38200000      19.38200000       0.60000000
Ni      26.43000000      17.62000000      19.38200000       0.60000000
Ni      26.43000000      19.38200000      17.62000000       0.60000000
Ni      24.66800000      17.62000000      21.14400000       0.60000000
Ni      24.66800000      19.38200000      22.90600000       0.60000000
Ni      26.43000000      17.62000000      22.90600000       0.60000000
Ni      26.43000000      19.38200000      21.14400000       0.60000000
Ni      24.66800000      17.62000000      24.66800000       0.60000000
Ni      24.66800000      19.38200000      26.43000000       0.60000000
Ni      26.43000000      17.62000000      26.43000000       0.60000000
Ni      26.43000000      19.38200000      24.66800000       0.60000000
Ni      24.66800000      17.62000000      28.19200000       0.60000000
Ni      24.66800000      19.38200000      29.95400000       0.60000000
Ni      26.43000000      17.62000000      29.95400000       0.60000000
Ni      26.43000000      19.38200000      28.19200000       0.60000000
Ni      24.66800000      17.62000000      31.71600000       0.60000000
Ni      24.66800000      19.38200000      33.47800000       0.60000000
Ni      26.43000000      17.62000000      33.47800000       0.60000000
Ni      26.43000000      19.38200000      31.71600000       0.60000000
Ni      24.66800000      21.14400000       0.00000000       0.60000000
Ni      24.66800000      22.90600000       1.76200000       0.60000000
Ni      26.43000000      21.14400000       1.76200000       0.60000000
Ni      26.43000000      22.90600000       0.00000000       0.60000000
Ni      24.66800000      21.14400000       3.52400000       0.60000000
Ni      24.66800000      22.90600000       5.28600000       0.60000000
Ni      26.43000000      21.14400000       5.28600000       0.60000000
Ni      26.43000000      22.90600000       3.52400000       0.60000000
Ni      24.66800000      21.14400000       7.04800000       0.60000000
Ni      24.66800000      22.90600000       8.81000000       0.60000000
Ni      26.43000000      21.14400000       8.81000000       0.60000000
Ni      26.43000000      22.90600000       7.04800000       0.60000000
Ni      24.66800000      21.14400000      10.57200000       0.60000000
Cr      24.66800000      22.90600000      12.33400000       0.60000000
Ni      26.43000000      21.14400000      12.33400000       0.60000000
Ni      26.43000000      22.90600000      10.57200000       0.60000000
Cr      24.66800000      21.14400000      14.09600000       0.60000000
Ni      24.66800000      22.90600000      15.85800000       0.60000000
Ni      26.43000000      21.14400000      15.85800000       0.60000000
Ni      26.43000000      22.90600000      14.09600000       0.60000000
Ni      24.66800000      21.14400000      17.62000000       0.60000000
Ni      24.66800000      22.90600000      19.38200000       0.60000000
Ni      26.43000000      21.14400000      19.38200000       0.60000000
Ni      26.43000000      22.90600000      17.62000000       0.60000000
Ni      24.66800000      21.14400000      21.14400000       0.60000000
Ni      24.66800000      22.90600000      22.90600000       0.60000000
Ni      26.43000000      21.14400000      22.90600000       0.60000000
Ni      26.43000000      22.90600000      21.14400000       0.60000000
Ni      24.66800000      21.14400000      24.66800000       0.60000000
Ni      24.66800000      22.90600000      26.43000000       0.60000000
Ni      26.43000000      21.14400000      26.43000000       0.60000000
Ni      26.43000000      22.90600000      24.66800000       0.60000000
Ni      24.66800000      21.14400000      28.19200000       0.60000000
Ni      24.66800000      22.90600000      29.95400000       0.60000000
Ni      26.43000000      21.14400000      29.95400000       0.60000000
Ni      26.43000000      22.90600000      28.19200000       0.60000000
Ni      24.66800000      21.14400000      31.71600000       0.60000000
Ni      24.66800000      22.90600000      33.47800000       0.60000000
Ni      26.43000000      21.14400000      33.47800000       0.60000000
Ni      26.43000000      22.90600000      31.71600000       0.60000000
Ni      24.66800000      24.66800000       0.00000000       0.60000000
Ni      24.66800000      26.43000000       1.76200000       0.60000000
Ni      26.43000000      24.66800000       1.76200000       0.60000000
Ni      26.43000000      26.43000000       0.00000000       0.60000000
Ni      24.66800000      24.66800000       3.52400000       0.60000000
Ni      24.66800000      26.43000000       5.28600000       0.60000000
Ni      26.43000000      24.66800000       5.28600000       0.60000000
Ni      26.43000000      26.43000000       3.52400000       0.60000000
Ni      24.66800000      24.66800000       7.04800000       0.60000000
Ni      24.66800000      26.43000000       8.81000000       0.60000000
Ni      26.43000000      24.66800000       8.81000000       0.60000000
Ni      26.43000000      26.43000000       7.04800000       0.60000000
Cr      24.66800000      24.66800000      10.57200000       0.60000000
Ni      24.66800000      26.43000000      12.33400000       0.60000000
Ni      26.43000000      24.66800000      12.33400000       0.60000000
Ni      26.43000000      26.43000000      10.57200000       0.60000000
Ni      24.66800000      24.66800000      14.09600000       0.60000000
Ni      24.66800000      26.43000000      15.85800000       0.60000000
Ni      26.43000000      24.66800000      15.85800000       0.60000000
Ni      26.43000000      26.43000000      14.09600000       0.60000000
Ni      24.66800000      24.66800000      17.62000000       0.60000000
Ni      24.66800000      26.43000000      19.38200000       0.60000000
Ni      26.43000000      24.66800000      19.38200000       0.60000000
Ni      26.43000000      26.43000000      17.62000000       0.60000000
Ni      24.66800000      24.66800000      21.14400000       0.60000000
Ni      24.66800000      26.43000000      22.90600000       0.60000000
Ni      26.43000000      24.66800000      22.90600000       0.60000000
Ni      26.43000000      26.43000000      21.14400000       0.60000000
Ni      24.66800000      24.66800000      24.66800000       0.60000000
Ni      24.66800000      26.43000000      26.43000000       0.60000000
Ni      26.43000000      24.66800000      26.43000000       0.60000000
Ni      26.43000000      26.43000000      24.66800000       0.60000000
Ni      24.66800000      24.66800000      28.19200000       0.60000000
Ni      24.66800000      26.43000000      29.95400000       0.60000000
Ni      26.43000000      24.66800000      29.95400000       0.60000000
Ni      26.43000000      26.43000000      28.19200000       0.60000000
Ni      24.66800000      24.66800000      31.71600000       0.60000000
Ni      24.66800000      26.43000000      33.47800000       0.60000000
Ni      26.43000000      24.66800000      33.47800000       0.60000000
Ni      26.43000000      26.43000000      31.71600000       0.60000000
Ni      24.66800000      28.19200000       0.00000000       0.60000000
Ni      24.66800000      29.95400000       1.76200000       0.60000000
Ni      26.43000000      28.19200000       1.76200000       0.60000000
Ni      26.43000000      29.95400000       0.00000000       0.60000000
Ni      24.66800000      28.19200000       3.52400000       0.60000000
Ni      24.66800000      29.95400000       5.28600000       0.60000000
Ni      26.43000000      28.19200000       5.28600000       0.60000000
Ni      26.43000000      29.95400000       3.52400000       0.60000000
Ni      24.66800000      28.19200000       7.04800000       0.60000000
Ni      24.66800000      29.95400000       8.81000000       0.60000000
Ni      26.43000000      28.19200000       8.81000000       0.60000000
Ni      26.43000000      29.95400000       7.04800000       0.60000000
Ni      24.66800000      28.19200000      10.57200000       0.60000000
Ni      24.66800000      29.95400000      12.33400000       0.60000000
Ni      26.43000000      28.19200000      12.33400000       0.60000000
Ni      26.43000000      29.95400000      10.57200000       0.60000000
Ni      24.66800000      28.19200000      14.09600000       0.60000000
Ni      24.66800000      29.95400000      15.85800000       0.60000000
Ni      26.43000000      28.19200000      15.85800000       0.60000000
Ni      26.43000000      29.95400000      14.09600000       0.60000000
Ni      24.66800000      28.19200000      17.62000000       0.60000000
Ni      24.66800000      29.95400000      19.38200000       0.60000000
Ni      26.43000000      28.19200000      19.38200000       0.60000000
Ni      26.43000000      29.95400000      17.62000000       0.60000000
Ni      24.66800000      28.19200000      21.14400000       0.60000000
Ni      24.66800000      29.95400000      22.90600000       0.60000000
Ni      26.43000000      28.19200000      22.90600000       0.60000000
Ni      26.43000000      29.95400000      21.14400000       0.60000000
Ni      24.66800000      28.19200000      24.66800000       0.60000000
Ni      24.66800000      29.95400000      26.43000000       0.60000000
Ni      26.43000000      28.19200000      26.43000000       0.60000000
Ni      26.43000000      29.95400000      24.66800000       0.60000000
Ni      24.66800000      28.19200000      28.19200000       0.60000000
Ni      24.66800000      29.95400000      29.95400000       0.60000000
Ni      26.43000000      28.19200000      29.95400000       0.60000000
Ni      26.43000000      29.95400000      28.19200000       0.60000000
Ni      24.66800000      28.19200000      31.71600000       0.60000000
Ni      24.66800000      29.95400000      33.47800000       0.60000000
Ni      26.43000000      28.19200000      33.47800000       0.60000000
Ni      26.43000000      29.95400000      31.71600000       0.60000000
Ni      24.66800000      31.71600000       0.00000000       0.60000000
Ni      24.66800000      33.47800000       1.76200000       0.60000000
Ni      26.43000000      31.71600000       1.76200000       0.60000000
Ni      26.43000000      33.47800000       0.00000000       0.60000000
Ni      24.66800000      31.71600000       3.52400000       0.60000000
Ni      24.66800000      33.47800000       5.28600000       0.60000000
Ni      26.43000000      31.71600000       5.28600000       0.60000000
Ni      26.43000000      33.47800000       3.52400000       0.60000000
Ni      24.66800000      31.71600000       7.04800000       0.60000000
Ni      24.66800000      33.47800000       8.81000000       0.60000000
Ni      26.43000000      31.71600000       8.81000000       0.60000000
Ni      26.43000000      33.47800000       7.04800000       0.60000000
Ni      24.66800000      31.71600000      10.57200000       0.60000000
Ni      24.66800000      33.47800000      12.33400000       0.60000000
Ni      26.43000000      31.71600000      12.33400000       0.60000000
Ni      26.43000000      33.47800000      10.57200000       0.60000000
Ni      24.66800000      31.71600000      14.09600000       0.60000000
Ni      24.66800000      33.47800000      15.85800000       0.60000000
Ni      26.43000000      31.71600000      15.85800000       0.60000000
Ni      26.43000000      33.47800000      14.09600000       0.60000000
Ni      24.66800000      31.71600000      17.62000000       0.60000000
Ni      24.66800000      33.47800000      19.38200000       0.60000000
Ni      26.43000000      31.71600000      19.38200000       0.60000000
Ni      26.43000000      33.47800000      17.62000000       0.60000000
Ni      24.66800000      31.71600000      21.14400000       0.60000000
Ni      24.66800000      33.47800000      22.90600000       0.60000000
Ni      26.43000000      31.71600000      22.90600000       0.60000000
Ni      26.43000000      33.47800000      21.14400000       0.60000000
Ni      24.66800000      31.71600000      24.66800000       0.60000000
Ni      24.66800000      33.47800000      26.43000000       0.60000000
Ni      26.43000000      31.71600000      26.43000000       0.60000000
Ni      26.43000000      33.47800000      24.66800000       0.60000000
Ni      24.66800000      31.71600000      28.19200000       0.60000000
Ni      24.66800000      33.47800000      29.95400000       0.60000000
Ni      26.43000000      31.71600000      29.95400000       0.60000000
Ni      26.43000000      33.47800000      28.19200000       0.60000000
Ni      24.66800000      31.71600000      31.71600000       0.60000000
Ni      24.66800000      33.47800000      33.47800000       0.60000000
Ni      26.43000000      31.71600000      33.47800000       0.60000000
Ni      26.43000000      33.47800000      31.71600000       0.60000000
Ni      28.19200000       0.00000000       0.00000000       0.60000000
Ni      28.19200000       1.76200000       1.76200000       0.60000000
Ni      29.95400000       0.00000000       1.76200000       0.60000000
Ni      29.95400000       1.76200000       0.00000000       0.60000000
Ni      28.19200000       0.00000000       3.52400000       0.60000000
Ni      28.19200000       1.76200000       5.28600000       0.60000000
Ni      29.95400000       0.00000000       5.28600000       0.60000000
Ni      29.95400000       1.76200000       3.52400000       0.60000000
Ni      28.19200000       0.00000000       7.04800000       0.60000000
Ni      28.19200000       1.76200000       8.81000000       0.60000000
Ni      29.95400000       0.00000000       8.81000000       0.60000000
Ni      29.95400000       1.76200000       7.04800000       0.60000000
Ni      28.19200000       0.00000000      10.57200000       0.60000000
Ni      28.19200000       1.76200000      12.33400000       0.60000000
Ni      29.95400000       0.00000000      12.33400000       0.60000000
Ni      29.95400000       1.76200000      10.57200000       0.60000000
Ni      28.19200000       0.00000000      14.09600000       0.60000000
Ni      28.19200000       1.76200000      15.85800000       0.60000000
Ni      29.95400000       0.00000000      15.85800000       0.60000000
Ni      29.95400000       1.76200000      14.09600000       0.60000000
Ni      28.19200000       0.00000000      17.62000000       0.60000000
Ni      28.19200000       1.76200000      19.38200000       0.60000000
Ni      29.95400000       0.00000000      19.38200000       0.60000000
Ni      29.95400000       1.76200000      17.62000000       0.60000000
Ni      28.19200000       0.00000000      21.14400000       0.60000000
Ni      28.19200000       1.76200000      22.90600000       0.60000000
Ni      29.95400000       0.00000000      22.90600000       0.60000000
Ni      29.95400000       1.76200000      21.14400000       0.60000000
Ni      28.19200000       0.00000000      24.66800000       0.60000000
Ni      28.19200000       1.76200000      26.43000000       0.60000000
Ni      29.95400000       0.00000000      26.43000000       0.60000000
Ni      29.95400000       1.76200000      24.66800000       0.60000000
Ni      28.19200000       0.00000000      28.19200000       0.60000000
Ni      28.19200000       1.76200000      29.95400000       0.60000000
Ni      29.95400000       0.00000000      29.95400000       0.60000000
Ni      29.95400000       1.76200000      28.19200000       0.60000000
Ni      28.19200000       0.00000000      31.71600000       0.60000000
Ni      28.19200000       1.76200000      33.47800000       0.60000000
Ni      29.95400000       0.00000000      33.47800000       0.60000000
Ni      29.95400000       1.76200000      31.71600000       0.60000000
Ni      28.19200000       3.52400000       0.00000000       0.60000000
Ni      28.19200000       5.28600000       1.76200000       0.60000000
Ni      29.95400000       3.52400000       1.76200000       0.60000000
Ni      29.95400000       5.28600000       0.00000000       0.60000000
Ni      28.19200000       3.52400000       3.52400000       0.60000000
Ni      28.19200000       5.28600000       5.28600000       0.60000000
Ni      29.95400000       3.52400000       5.28600000       0.60000000
Ni      29.95400000       5.28600000       3.52400000       0.60000000
Ni      28.19200000       3.52400000       7.04800000       0.60000000
Ni      28.19200000       5.28600000       8.81000000       0.60000000
Ni      29.95400000       3.52400000       8.81000000       0.60000000
Ni      29.95400000       5.28600000       7.04800000       0.60000000
Ni      28.19200000       3.52400000      10.57200000       0.60000000
Ni      28.19200000       5.28600000      12.33400000       0.60000000
Ni      29.95400000       3.52400000      12.33400000       0.60000000
Ni      29.95400000       5.28600000      10.57200000       0.60000000
Ni      28.19200000       3.52400000      14.09600000       0.60000000
Ni      28.19200000       5.28600000      15.85800000       0.60000000
Ni      29.95400000       3.52400000      15.85800000       0.60000000
Ni      29.95400000       5.28600000      14.09600000       0.60000000
Ni      28.19200000       3.52400000      17.62000000       0.60000000
Ni      28.19200000       5.28600000      19.38200000       0.60000000
Ni      29.95400000       3.52400000      19.38200000       0.60000000
Ni      29.95400000       5.28600000      17.62000000       0.60000000
Ni      28.19200000       3.52400000      21.14400000       0.60000000
Ni      28.19200000       5.28600000      22.90600000       0.60000000
Ni      29.95400000       3.52400000      22.90600000       0.60000000
Ni      29.95400000       5.28600000      21.14400000       0.60000000
Ni      28.19200000       3.52400000      24.66800000       0.60000000
Ni      28.19200000       5.28600000      26.43000000       0.60000000
Ni      29.95400000       3.52400000      26.43000000       0.60000000
Ni      29.95400000       5.28600000      24.66800000       0.60000000
Ni      28.19200000       3.52400000      28.19200000       0.60000000
Ni      28.19200000       5.28600000      29.95400000       0.60000000
Ni      29.95400000       3.52400000      29.95400000       0.60000000
Ni      29.95400000       5.28600000      28.19200000       0.60000000
Ni      28.19200000       3.52400000      31.71600000       0.60000000
Ni      28.19200000       5.28600000      33.47800000       0.60000000
Ni      29.95400000       3.52400000      33.47800000       0.60000000
Ni      29.95400000       5.28600000      31.71600000       0.60000000
Ni      28.19200000       7.04800000       0.00000000       0.60000000
Ni      28.19200000       8.81000000       1.76200000       0.60000000
Ni      29.95400000       7.04800000       1.76200000       0.60000000
Ni      29.95400000       8.81000000       0.00000000       0.60000000
Ni      28.19200000       7.04800000       3.52400000       0.60000000
Ni      28.19200000       8.81000000       5.28600000       0.60000000
Ni      29.95400000       7.04800000       5.28600000       0.60000000
Ni      29.95400000       8.81000000       3.52400000       0.60000000
Ni      28.19200000       7.04800000       7.04800000       0.60000000
Ni      28.19200000       8.81000000       8.81000000       0.60000000
Ni      29.95400000       7.04800000       8.81000000       0.60000000
Ni      29.95400000       8.81000000       7.04800000       0.60000000
Ni      28.19200000       7.04800000      10.57200000       0.60000000
Ni      28.19200000       8.81000000      12.33400000       0.60000000
Ni      29.95400000       7.04800000      12.33400000       0.60000000
Ni      29.95400000       8.81000000      10.57200000       0.60000000
Ni      28.19200000       7.04800000      14.09600000       0.60000000
Ni      28.19200000       8.81000000      15.85800000       0.60000000
Ni      29.95400000       7.04800000      15.85800000       0.60000000
Ni      29.95400000       8.81000000      14.09600000       0.60000000
Ni      28.19200000       7.04800000      17.62000000       0.60000000
Ni      28.19200000       8.81000000      19.38200000       0.60000000
Ni      29.95400000       7.04800000      19.38200000       0.60000000
Ni      29.95400000       8.81000000      17.62000000       0.60000000
Ni      28.19200000       7.04800000      21.14400000       0.60000000
Ni      28.19200000       8.81000000      22.90600000       0.60000000
Ni      29.95400000       7.04800000      22.90600000       0.60000000
Ni      29.95400000       8.81000000      21.14400000       0.60000000
Ni      28.19200000       7.04800000      24.66800000       0.60000000
Ni      28.19200000       8.81000000      26.43000000       0.60000000
Ni      29.95400000       7.04800000      26.43000000       0.60000000
Ni      29.95400000       8.81000000      24.66800000       0.60000000
Ni      28.19200000       7.04800000      28.19200000       0.60000000
Ni      28.19200000       8.81000000      29.95400000       0.60000000
Ni      29.95400000       7.04800000      29.95400000       0.60000000
Ni      29.95400000       8.81000000      28.19200000       0.60000000
Ni      28.19200000       7.04800000      31.71600000       0.60000000
Ni      28.19200000       8.81000000      33.47800000       0.60000000
Ni      29.95400000       7.04800000      33.47800000       0.60000000
Ni      29.95400000       8.81000000      31.71600000       0.60000000
Ni      28.19200000      10.57200000       0.00000000       0.60000000
Ni      28.19200000      12.33400000       1.76200000       0.60000000
Ni      29.95400000      10.57200000       1.76200000       0.60000000
Ni      29.95400000      12.33400000       0.00000000       0.60000000
Ni      28.19200000      10.57200000       3.52400000       0.60000000
Ni      28.19200000      12.33400000       5.28600000       0.60000000
Ni      29.95400000      10.57200000       5.28600000       0.60000000
Ni      29.95400000      12.33400000       3.52400000       0.60000000
Ni      28.19200000      10.57200000       7.04800000       0.60000000
Ni      28.19200000      12.33400000       8.81000000       0.60000000
Ni      29.95400000      10.57200000       8.81000000       0.60000000
Ni      29.95400000      12.33400000       7.04800000       0.60000000
Ni      28.19200000      10.57200000      10.57200000       0.60000000
Ni      28.19200000      12.33400000      12.33400000       0.60000000
Ni      29.95400000      10.57200000      12.33400000       0.60000000
Ni      29.95400000      12.33400000      10.57200000       0.60000000
Ni      28.19200000      10.57200000      14.09600000       0.60000000
Ni      28.19200000      12.33400000      15.85800000       0.60000000
Ni      29.95400000      10.57200000      15.85800000       0.60000000
Ni      29.95400000      12.33400000      14.09600000       0.60000000
Ni      28.19200000      10.57200000      17.62000000       0.60000000
Ni      28.19200000      12.33400000      19.38200000       0.60000000
Ni      29.95400000      10.57200000      19.38200000       0.60000000
Ni      29.95400000      12.33400000      17.62000000       0.60000000
Ni      28.19200000      10.57200000      21.14400000       0.60000000
Ni      28.19200000      12.33400000      22.90600000       0.60000000
Ni      29.95400000      10.57200000      22.90600000       0.60000000
Ni      29.95400000      12.33400000      21.14400000       0.60000000
Ni      28.19200000      10.57200000      24.66800000       0.60000000
Ni      28.19200000      12.33400000      26.43000000       0.60000000
Ni      29.95400000      10.57200000      26.43000000       0.60000000
Ni      29.95400000      12.33400000      24.66800000       0.60000000
Ni      28.19200000      10.57200000      28.19200000       0.60000000
Ni      28.19200000      12.33400000      29.95400000       0.60000000
Ni      29.95400000      10.57200000      29.95400000       0.60000000
Ni      29.95400000      12.33400000      28.19200000       0.60000000
Ni      28.19200000      10.57200000      31.71600000       0.60000000
Ni      28.19200000      12.33400000      33.47800000       0.60000000
Ni      29.95400000      10.57200000      33.47800000       0.60000000
Ni      29.95400000      12.33400000      31.71600000       0.60000000
Ni      28.19200000      14.09600000       0.00000000       0.60000000
Ni      28.19200000      15.85800000       1.76200000       0.60000000
Ni      29.95400000      14.09600000       1.76200000       0.60000000
Ni      29.95400000      15.85800000       0.00000000       0.60000000
Ni      28.19200000      14.09600000       3.52400000       0.60000000
Ni      28.19200000      15.85800000       5.28600000       0.60000000
Ni      29.95400000      14.09600000       5.28600000       0.60000000
Ni      29.95400000      15.85800000       3.52400000       0.60000000
Ni      28.19200000      14.09600000       7.04800000       0.60000000
Ni      28.19200000      15.85800000       8.81000000       0.60000000
Ni      29.95400000      14.09600000       8.81000000       0.60000000
Ni      29.95400000      15.85800000       7.04800000       0.60000000
Ni      28.19200000      14.09600000      10.57200000       0.60000000
Ni      28.19200000      15.85800000      12.33400000       0.60000000
Ni      29.95400000      14.09600000      12.33400000       0.60000000
Ni      29.95400000      15.85800000      10.57200000       0.60000000
Ni      28.19200000      14.09600000      14.09600000       0.60000000
Ni      28.19200000      15.85800000      15.85800000       0.60000000
Ni      29.95400000      14.09600000      15.85800000       0.60000000
Ni      29.95400000      15.85800000      14.09600000       0.60000000
Ni      28.19200000      14.09600000      17.62000000       0.60000000
Ni      28.19200000      15.85800000      19.38200000       0.60000000
Ni      29.95400000      14.09600000      19.38200000       0.60000000
Ni      29.95400000      15.85800000      17.62000000       0.60000000
Ni      28.19200000      14.09600000      21.14400000       0.60000000
Ni      28.19200000      15.85800000      22.90600000       0.60000000
Ni      29.95400000      14.09600000      22.90600000       0.60000000
Ni      29.95400000      15.85800000      21.14400000       0.60000000
Ni      28.19200000      14.09600000      24.66800000       0.60000000
Ni      28.19200000      15.85800000      26.43000000       0.60000000
Ni      29.95400000      14.09600000      26.43000000       0.60000000
Ni      29.95400000      15.85800000      24.66800000       0.60000000
Ni      28.19200000      14.09600000      28.19200000       0.60000000
Ni      28.19200000      15.85800000      29.95400000       0.60000000
Ni      29.95400000      14.09600000      29.95400000       0.60000000
Ni      29.95400000      15.85800000      28.19200000       0.60000000
Ni      28.19200000      14.09600000      31.71600000       0.60000000
Ni      28.19200000      15.85800000      33.47800000       0.60000000
Ni      29.95400000      14.09600000      33.47800000       0.60000000
Ni      29.95400000      15.85800000      31.71600000       0.60000000
Ni      28.19200000      17.62000000       0.00000000       0.60000000
Ni      28.19200000      19.38200000       1.76200000       0.60000000
Ni      29.95400000      17.62000000       1.76200000       0.60000000
Ni      29.95400000      19.38200000       0.00000000       0.60000000
Ni      28.19200000      17.62000000       3.52400000       0.60000000
Ni      28.19200000      19.38200000       5.28600000       0.60000000
Ni      29.95400000      17.62000000       5.28600000       0.60000000
Ni      29.95400000      19.38200000       3.52400000       0.60000000
Ni      28.19200000      17.62000000       7.04800000       0.60000000
Ni      28.19200000      19.38200000       8.81000000       0.60000000
Ni      29.95400000      17.62000000       8.81000000       0.60000000
Ni      29.95400000      19.38200000       7.04800000       0.60000000
Ni      28.19200000      17.62000000      10.57200000       0.60000000
Ni      28.19200000      19.38200000      12.33400000       0.60000000
Ni      29.95400000      17.62000000      12.33400000       0.60000000
Ni      29.95400000      19.38200000      10.57200000       0.60000000
Ni      28.19200000      17.62000000      14.09600000       0.60000000
Ni      28.19200000      19.38200000      15.85800000       0.60000000
Ni      29.95400000      17.62000000      15.85800000       0.60000000
Ni      29.95400000      19.38200000      14.09600000       0.60000000
Ni      28.19200000      17.62000000      17.62000000       0.60000000
Ni      28.19200000      19.38200000      19.38200000       0.60000000
Ni      29.95400000      17.62000000      19.38200000       0.60000000
Ni      29.95400000      19.38200000      17.62000000       0.60000000
Ni      28.19200000      17.62000000      21.14400000       0.60000000
Ni      28.19200000      19.38200000      22.90600000       0.60000000
Ni      29.95400000      17.62000000      22.90600000       0.60000000
Ni      29.95400000      19.38200000      21.14400000       0.60000000
Ni      28.19200000      17.62000000      24.66800000       0.60000000
Ni      28.19200000      19.38200000      26.43000000       0.60000000
Ni      29.95400000      17.62000000      26.43000000       0.60000000
Ni      29.95400000      19.38200000      24.66800000       0.60000000
Ni      28.19200000      17.62000000      28.19200000       0.60000000
Ni      28.19200000      19.38200000      29.95400000       0.60000000
Ni      29.95400000      17.62000000      29.95400000       0.60000000
Ni      29.95400000      19.38200000      28.19200000       0.60000000
Ni      28.19200000      17.62000000      31.71600000       0.60000000
Ni      28.19200000      19.38200000      33.47800000       0.60000000
Ni      29.95400000      17.62000000      33.47800000       0.60000000
Ni      29.95400000      19.38200000      31.71600000       0.60000000
Ni      28.19200000      21.14400000       0.00000000       0.60000000
Ni      28.19200000      22.90600000       1.76200000       0.60000000
Ni      29.95400000      21.14400000       1.76200000       0.60000000
Ni      29.95400000      22.90600000       0.00000000       0.60000000
Ni      28.19200000      21.14400000       3.52400000       0.60000000
Ni      28.19200000      22.90600000       5.28600000       0.60000000
Ni      29.95400000      21.14400000       5.28600000       0.60000000
Ni      29.95400000      22.90600000       3.52400000       0.60000000
Ni      28.19200000      21.14400000       7.04800000       0.60000000
Ni      28.19200000      22.90600000       8.81000000       0.60000000
Ni      29.95400000      21.14400000       8.81000000       0.60000000
Ni      29.95400000      22.90600000       7.04800000       0.60000000
Ni      28.19200000      21.14400000      10.57200000       0.60000000
Ni      28.19200000      22.90600000      12.33400000       0.60000000
Ni      29.95400000      21.14400000      12.33400000       0.60000000
Ni      29.95400000      22.90600000      10.57200000       0.60000000
Ni      28.19200000      21.14400000      14.09600000       0.60000000
Ni      28.19200000      22.90600000      15.85800000       0.60000000
Ni      29.95400000      21.14400000      15.85800000       0.60000000
Ni      29.95400000      22.90600000      14.09600000       0.60000000
Ni      28.19200000      21.14400000      17.62000000       0.60000000
Ni      28.19200000      22.90600000      19.38200000       0.60000000
Ni      29.95400000      21.14400000      19.38200000       0.60000000
Ni      29.95400000      22.90600000      17.62000000       0.60000000
Ni      28.19200000      21.14400000      21.14400000       0.60000000
Ni      28.19200000      22.90600000      22.90600000       0.60000000
Ni      29.95400000      21.14400000      22.90600000       0.60000000
Ni      29.95400000      22.90600000      21.14400000       0.60000000
Ni      28.19200000      21.14400000      24.66800000       0.60000000
Ni      28.19200000      22.90600000      26.43000000       0.60000000
Ni      29.95400000      21.14400000      26.43000000       0.60000000
Ni      29.95400000      22.90600000      24.66800000       0.60000000
Ni      28.19200000      21.14400000      28.19200000       0.60000000
Ni      28.19200000      22.90600000      29.95400000       0.60000000
Ni      29.95400000      21.14400000      29.95400000       0.60000000
Ni      29.95400000      22.90600000      28.19200000       0.60000000
Ni      28.19200000      21.14400000      31.71600000       0.60000000
Ni      28.19200000      22.90600000      33.47800000       0.60000000
Ni      29.95400000      21.14400000      33.47800000       0.60000000
Ni      29.95400000      22.90600000      31.71600000       0.60000000
Ni      28.19200000      24.66800000       0.00000000       0.60000000
Ni      28.19200000      26.43000000       1.76200000       0.60000000
Ni      29.95400000      24.66800000       1.76200000       0.60000000
Ni      29.95400000      26.43000000       0.00000000       0.60000000
Ni      28.19200000      24.66800000       3.52400000       0.60000000
Ni      28.19200000      26.43000000       5.28600000       0.60000000
Ni      29.95400000      24.66800000       5.28600000       0.60000000
Ni      29.95400000      26.43000000       3.52400000       0.60000000
Ni      28.19200000      24.66800000       7.04800000       0.60000000
Ni      28.19200000      26.43000000       8.81000000       0.60000000
Ni      29.95400000      24.66800000       8.81000000       0.60000000
Ni      29.95400000      26.43000000       7.04800000       0.60000000
Ni      28.19200000      24.66800000      10.57200000       0.60000000
Ni      28.19200000      26.43000000      12.33400000       0.60000000
Ni      29.95400000      24.66800000      12.33400000       0.60000000
Ni      29.95400000      26.43000000      10.57200000       0.60000000
Ni      28.19200000      24.66800000      14.09600000       0.60000000
Ni      28.19200000      26.43000000      15.85800000       0.60000000
Ni      29.95400000      24.66800000      15.85800000       0.60000000
Ni      29.95400000      26.43000000      14.09600000       0.60000000
Ni      28.19200000      24.66800000      17.62000000       0.60000000
Ni      28.19200000      26.43000000      19.38200000       0.60000000
Ni      29.95400000      24.66800000      19.38200000       0.60000000
Ni      29.95400000      26.43000000      17.62000000       0.60000000
Ni      28.19200000      24.66800000      21.14400000       0.60000000
Ni      28.19200000      26.43000000      22.90600000       0.60000000
Ni      29.95400000      24.66800000      22.90600000       0.60000000
Ni      29.95400000      26.43000000      21.14400000       0.60000000
Ni      28.19200000      24.66800000      24.66800000       0.60000000
Ni      28.19200000      26.43000000      26.43000000       0.60000000
Ni      29.95400000      24.66800000      26.43000000       0.60000000
Ni      29.95400000      26.43000000      24.66800000       0.60000000
Ni      28.19200000      24.66800000      28.19200000       0.60000000
Ni      28.19200000      26.43000000      29.95400000       0.60000000
Ni      29.95400000      24.66800000      29.95400000       0.60000000
Ni      29.95400000      26.43000000      28.19200000       0.60000000
Ni      28.19200000      24.66800000      31.71600000       0.60000000
Ni      28.19200000      26.43000000      33.47800000       0.60000000
Ni      29.95400000      24.66800000      33.47800000       0.60000000
Ni      29.95400000      26.43000000      31.71600000       0.60000000
Ni      28.19200000      28.19200000       0.00000000       0.60000000
Ni      28.19200000      29.95400000       1.76200000       0.60000000
Ni      29.95400000      28.19200000       1.76200000       0.60000000
Ni      29.95400000      29.95400000       0.00000000       0.60000000
Ni      28.19200000      28.19200000       3.52400000       0.60000000
Ni      28.19200000      29.95400000       5.28600000       0.60000000
Ni      29.95400000      28.19200000       5.28600000       0.60000000
Ni      29.95400000      29.95400000       3.52400000       0.60000000
Ni      28.19200000      28.19200000       7.04800000       0.60000000
Ni      28.19200000      29.95400000       8.81000000       0.60000000
Ni      29.95400000      28.19200000       8.81000000       0.60000000
Ni      29.95400000      29.95400000       7.04800000       0.60000000
Ni      28.19200000      28.19200000      10.57200000       0.60000000
Ni      28.19200000      29.95400000      12.33400000       0.60000000
Ni      29.95400000      28.19200000      12.33400000       0.60000000
Ni      29.95400000      29.95400000      10.57200000       0.60000000
Ni      28.19200000      28.19200000      14.09600000       0.60000000
Ni      28.19200000      29.95400000      15.85800000       0.60000000
Ni      29.95400000      28.19200000      15.85800000       0.60000000
Ni      29.95400000      29.95400000      14.09600000       0.60000000
Ni      28.19200000      28.19200000      17.62000000       0.60000000
Ni      28.19200000      29.95400000      19.38200000       0.60000000
Ni      29.95400000      28.19200000      19.38200000       0.60000000
Ni      29.95400000      29.95400000      17.62000000       0.60000000
Ni      28.19200000      28.19200000      21.14400000       0.60000000
Ni      28.19200000      29.95400000      22.90600000       0.60000000
Ni      29.95400000      28.19200000      22.90600000       0.60000000
Ni      29.95400000      29.95400000      21.14400000       0.60000000
Ni      28.19200000      28.19200000      24.66800000       0.60000000
Ni      28.19200000      29.95400000      26.43000000       0.60000000
Ni      29.95400000      28.19200000      26.43000000       0.60000000
Ni      29.95400000      29.95400000      24.66800000       0.60000000
Ni      28.19200000      28.19200000      28.19200000       0.60000000
Ni      28.19200000      29.95400000      29.95400000       0.60000000
Ni      29.95400000      28.19200000      29.95400000       0.60000000
Ni      29.95400000      29.95400000      28.19200000       0.60000000
Ni      28.19200000      28.19200000      31.71600000       0.60000000
Ni      28.19200000      29.95400000      33.47800000       0.60000000
Ni      29.95400000      28.19200000      33.47800000       0.60000000
Ni      29.95400000      29.95400000      31.71600000       0.60000000
Ni      28.19200000      31.71600000       0.00000000       0.60000000
Ni      28.19200000      33.47800000       1.76200000       0.60000000
Ni      29.95400000      31.71600000       1.76200000       0.60000000
Ni      29.95400000      33.47800000       0.00000000       0.60000000
Ni      28.19200000      31.71600000       3.52400000       0.60000000
Ni      28.19200000      33.47800000       5.28600000       0.60000000
Ni      29.95400000      31.71600000       5.28600000       0.60000000
Ni      29.95400000      33.47800000       3.52400000       0.60000000
Ni      28.19200000      31.71600000       7.04800000       0.60000000
Ni      28.19200000      33.47800000       8.81000000       0.60000000
Ni      29.95400000      31.71600000       8.81000000       0.60000000
Ni      29.95400000      33.47800000       7.04800000       0.60000000
Ni      28.19200000      31.71600000      10.57200000       0.60000000
Ni      28.19200000      33.47800000      12.33400000       0.60000000
Ni      29.95400000      31.71600000      12.33400000       0.60000000
Ni      29.95400000      33.47800000      10.57200000       0.60000000
Ni      28.19200000      31.71600000      14.09600000       0.60000000
Ni      28.19200000      33.47800000      15.85800000       0.60000000
Ni      29.95400000      31.71600000      15.85800000       0.60000000
Ni      29.95400000      33.47800000      14.09600000       0.60000000
Ni      28.19200000      31.71600000      17.62000000       0.60000000
Ni      28.19200000      33.47800000      19.38200000       0.60000000
Ni      29.95400000      31.71600000      19.38200000       0.60000000
Ni      29.95400000      33.47800000      17.62000000       0.60000000
Ni      28.19200000      31.71600000      21.14400000       0.60000000
Ni      28.19200000      33.47800000      22.90600000       0.60000000
Ni      29.95400000      31.71600000      22.90600000       0.60000000
Ni      29.95400000      33.47800000      21.14400000       0.60000000
Ni      28.19200000      31.71600000      24.66800000       0.60000000
Ni      28.19200000      33.47800000      26.43000000       0.60000000
Ni      29.95400000      31.71600000      26.43000000       0.60000000
Ni      29.95400000      33.47800000      24.66800000       0.60000000
Ni      28.19200000      31.71600000      28.19200000       0.60000000
Ni      28.19200000      33.47800000      29.95400000       0.60000000
Ni      29.95400000      31.71600000      29.95400000       0.60000000
Ni      29.95400000      33.47800000      28.19200000       0.60000000
Ni      28.19200000      31.71600000      31.71600000       0.60000000
Ni      28.19200000      33.47800000      33.47800000       0.60000000
Ni      29.95400000      31.71600000      33.47800000       0.60000000
Ni      29.95400000      33.47800000      31.71600000       0.60000000
Ni      31.71600000       0.00000000       0.00000000       0.60000000
Ni      31.71600000       1.76200000       1.76200000       0.60000000
Ni      33.47800000       0.00000000       1.76200000       0.60000000
Ni      33.47800000       1.76200000       0.00000000       0.60000000
Ni      31.71600000       0.00000000       3.52400000       0.60000000
Ni      31.71600000       1.76200000       5.28600000       0.60000000
Ni      33.47800000       0.00000000       5.28600000       0.60000000
Ni      33.47800000       1.76200000       3.52400000       0.60000000
Ni      31.71600000       0.00000000       7.04800000       0.60000000
Ni      31.71600000       1.76200000       8.81000000       0.60000000
Ni      33.47800000       0.00000000       8.81000000       0.60000000
Ni      33.47800000       1.76200000       7.04800000       0.60000000
Ni      31.71600000       0.00000000      10.57200000       0.60000000
Ni      31.71600000       1.76200000      12.33400000       0.60000000
Ni      33.47800000       0.00000000      12.33400000       0.60000000
Ni      33.47800000       1.76200000      10.57200000       0.60000000
Ni      31.71600000       0.00000000      14.09600000       0.60000000
Ni      31.71600000       1.76200000      15.85800000       0.60000000
Ni      33.47800000       0.00000000      15.85800000       0.60000000
Ni      33.47800000       1.76200000      14.09600000       0.60000000
Ni      31.71600000       0.00000000      17.62000000       0.60000000
Ni      31.71600000       1.76200000      19.38200000       0.60000000
Ni      33.47800000       0.00000000      19.38200000       0.60000000
Ni      33.47800000       1.76200000      17.62000000       0.60000000
Ni      31.71600000       0.00000000      21.14400000       0.60000000
Ni      31.71600000       1.76200000      22.90600000       0.60000000
Ni      33.47800000       0.00000000      22.90600000       0.60000000
Ni      33.47800000       1.76200000      21.14400000       0.60000000
Ni      31.71600000       0.00000000      24.66800000       0.60000000
Ni      31.71600000       1.76200000      26.43000000       0.60000000
Ni      33.47800000       0.00000000      26.43000000       0.60000000
Ni      33.47800000       1.76200000      24.66800000       0.60000000
Ni      31.71600000       0.00000000      28.19200000       0.60000000
Ni      31.71600000       1.76200000      29.95400000       0.60000000
Ni      33.47800000       0.00000000      29.95400000       0.60000000
Ni      33.47800000       1.76200000      28.19200000       0.60000000
Ni      31.71600000       0.00000000      31.71600000       0.60000000
Ni      31.71600000       1.76200000      33.47800000       0.60000000
Ni      33.47800000       0.00000000      33.47800000       0.60000000
Ni      33.47800000       1.76200000      31.71600000       0.60000000
Ni      31.71600000       3.52400000       0.00000000       0.60000000
Ni      31.71600000       5.28600000       1.76200000       0.60000000
Ni      33.47800000       3.52400000       1.76200000       0.60000000
Ni      33.47800000       5.28600000       0.00000000       0.60000000
Ni      31.71600000       3.52400000       3.52400000       0.60000000
Ni      31.71600000       5.28600000       5.28600000       0.60000000
Ni      33.47800000       3.52400000       5.28600000       0.60000000
Ni      33.47800000       5.28600000       3.52400000       0.60000000
Ni      31.71600000       3.52400000       7.04800000       0.60000000
Ni      31.71600000       5.28600000       8.81000000       0.60000000
Ni      33.47800000       3.52400000       8.81000000       0.60000000
Ni      33.47800000       5.28600000       7.04800000       0.60000000
Ni      31.71600000       3.52400000      10.57200000       0.60000000
Ni      31.71600000       5.28600000      12.33400000       0.60000000
Ni      33.47800000       3.52400000      12.33400000       0.60000000
Ni      33.47800000       5.28600000      10.57200000       0.60000000
Ni      31.71600000       3.52400000      14.09600000       0.60000000
Ni      31.71600000       5.28600000      15.85800000       0.60000000
Ni      33.47800000       3.52400000      15.85800000       0.60000000
Ni      33.47800000       5.28600000      14.09600000       0.60000000
Ni      31.71600000       3.52400000      17.62000000       0.60000000
Ni      31.71600000       5.28600000      19.38200000       0.60000000
Ni      33.47800000       3.52400000      19.38200000       0.60000000
Ni      33.47800000       5.28600000      17.62000000       0.60000000
Ni      31.71600000       3.52400000      21.14400000       0.60000000
Ni      31.71600000       5.28600000      22.90600000       0.60000000
Ni      33.47800000       3.52400000      22.90600000       0.60000000
Ni      33.47800000       5.28600000      21.14400000       0.60000000
Ni      31.71600000       3.52400000      24.66800000       0.60000000
Ni      31.71600000       5.28600000      26.43000000       0.60000000
Ni      33.47800000       3.52400000      26.43000000       0.60000000
Ni      33.47800000       5.28600000      24.66800000       0.60000000
Ni      31.71600000       3.52400000      28.19200000       0.60000000
Ni      31.71600000       5.28600000      29.95400000       0.60000000
Ni      33.47800000       3.52400000      29.95400000       0.60000000
Ni      33.47800000       5.28600000      28.19200000       0.60000000
Ni      31.71600000       3.52400000      31.71600000       0.60000000
Ni      31.71600000       5.28600000      33.47800000       0.60000000
Ni      33.47800000       3.52400000      33.47800000       0.60000000
Ni      33.47800000       5.28600000      31.71600000       0.60000000
Ni      31.71600000       7.04800000       0.00000000       0.60000000
Ni      31.71600000       8.81000000       1.76200000       0.60000000
Ni      33.47800000       7.04800000       1.76200000       0.60000000
Ni      33.47800000       8.81000000       0.00000000       0.60000000
Ni      31.71600000       7.04800000       3.52400000       0.60000000
Ni      31.71600000       8.81000000       5.28600000       0.60000000
Ni      33.47800000       7.04800000       5.28600000       0.60000000
Ni      33.47800000       8.81000000       3.52400000       0.60000000
Ni      31.71600000       7.04800000       7.04800000       0.60000000
Ni      31.71600000       8.81000000       8.81000000       0.60000000
Ni      33.47800000       7.04800000       8.81000000       0.60000000
Ni      33.47800000       8.81000000       7.04800000       0.60000000
Ni      31.71600000       7.04800000      10.57200000       0.60000000
Ni      31.71600000       8.81000000      12.33400000       0.60000000
Ni      33.47800000       7.04800000      12.33400000       0.60000000
Ni      33.47800000       8.81000000      10.57200000       0.60000000
Ni      31.71600000       7.04800000      14.09600000       0.60000000
Ni      31.71600000       8.81000000      15.85800000       0.60000000
Ni      33.47800000       7.04800000      15.85800000       0.60000000
Ni      33.47800000       8.81000000      14.09600000       0.60000000
Ni      31.71600000       7.04800000      17.62000000       0.60000000
Ni      31.71600000       8.81000000      19.38200000       0.60000000
Ni      33.47800000       7.04800000      19.38200000       0.60000000
Ni      33.47800000       8.81000000      17.62000000       0.60000000
Ni      31.71600000       7.04800000      21.14400000       0.60000000
Ni      31.71600000       8.81000000      22.90600000       0.60000000
Ni      33.47800000       7.04800000      22.90600000       0.60000000
Ni      33.47800000       8.81000000      21.14400000       0.60000000
Ni      31.71600000       7.04800000      24.66800000       0.60000000
Ni      31.71600000       8.81000000      26.43000000       0.60000000
Ni      33.47800000       7.04800000      26.43000000       0.60000000
Ni      33.47800000       8.81000000      24.66800000       0.60000000
Ni      31.71600000       7.04800000      28.19200000       0.60000000
Ni      31.71600000       8.81000000      29.95400000       0.60000000
Ni      33.47800000       7.04800000      29.95400000       0.60000000
Ni      33.47800000       8.81000000      28.19200000       0.60000000
Ni      31.71600000       7.04800000      31.71600000       0.60000000
Ni      31.71600000       8.81000000      33.47800000       0.60000000
Ni      33.47800000       7.04800000      33.47800000       0.60000000
Ni      33.47800000       8.81000000      31.71600000       0.60000000
Ni      31.71600000      10.57200000       0.00000000       0.60000000
Ni      31.71600000      12.33400000       1.76200000       0.60000000
Ni      33.47800000      10.57200000       1.76200000       0.60000000
Ni      33.47800000      12.33400000       0.00000000       0.60000000
Ni      31.71600000      10.57200000       3.52400000       0.60000000
Ni      31.71600000      12.33400000       5.28600000       0.60000000
Ni      33.47800000      10.57200000       5.28600000       0.60000000
Ni      33.47800000      12.33400000       3.52400000       0.60000000
Ni      31.71600000      10.57200000       7.04800000       0.60000000
Ni      31.71600000      12.33400000       8.81000000       0.60000000
Ni      33.47800000      10.57200000       8.81000000       0.60000000
Ni      33.47800000      12.33400000       7.04800000       0.60000000
Ni      31.71600000      10.57200000      10.57200000       0.60000000
Ni      31.71600000      12.33400000      12.33400000       0.60000000
Ni      33.47800000      10.57200000      12.33400000       0.60000000
Ni      33.47800000      12.33400000      10.57200000       0.60000000
Ni      31.71600000      10.57200000      14.09600000       0.60000000
Ni      31.71600000      12.33400000      15.85800000       0.60000000
Ni      33.47800000      10.57200000      15.85800000       0.60000000
Ni      33.47800000      12.33400000      14.09600000       0.60000000
Ni      31.71600000      10.57200000      17.62000000       0.60000000
Ni      31.71600000      12.33400000      19.38200000       0.60000000
Ni      33.47800000      10.57200000      19.38200000       0.60000000
Ni      33.47800000      12.33400000      17.62000000       0.60000000
Ni      31.71600000      10.57200000      21.14400000       0.60000000
Ni      31.71600000      12.33400000      22.90600000       0.60000000
Ni      33.47800000      10.57200000      22.90600000       0.60000000
Ni      33.47800000      12.33400000      21.14400000       0.60000000
Ni      31.71600000      10.57200000      24.66800000       0.60000000
Ni      31.71600000      12.33400000      26.43000000       0.60000000
Ni      33.47800000      10.57200000      26.43000000       0.60000000
Ni      33.47800000      12.33400000      24.66800000       0.60000000
Ni      31.71600000      10.57200000      28.19200000       0.60000000
Ni      31.71600000      12.33400000      29.95400000       0.60000000
Ni      33.47800000      10.57200000      29.95400000       0.60000000
Ni      33.47800000      12.33400000      28.19200000       0.60000000
Ni      31.71600000      10.57200000      31.71600000       0.60000000
Ni      31.71600000      12.33400000      33.47800000       0.60000000
Ni      33.47800000      10.57200000      33.47800000       0.60000000
Ni      33.47800000      12.33400000      31.71600000       0.60000000
Ni      31.71600000      14.09600000       0.00000000       0.60000000
Ni      31.71600000      15.85800000       1.76200000       0.60000000
Ni      33.47800000      14.09600000       1.76200000       0.60000000
Ni      33.47800000      15.85800000       0.00000000       0.60000000
Ni      31.71600000      14.09600000       3.52400000       0.60000000
Ni      31.71600000      15.85800000       5.28600000       0.60000000
Ni      33.47800000      14.09600000       5.28600000       0.60000000
Ni      33.47800000      15.85800000       3.52400000       0.60000000
Ni      31.71600000      14.09600000       7.04800000       0.60000000
Ni      31.71600000      15.85800000       8.81000000       0.60000000
Ni      33.47800000      14.09600000       8.81000000       0.60000000
Ni      33.47800000      15.85800000       7.04800000       0.60000000
Ni      31.71600000      14.09600000      10.57200000       0.60000000
Ni      31.71600000      15.85800000      12.33400000       0.60000000
Ni      33.47800000      14.09600000      12.33400000       0.60000000
Ni      33.47800000      15.85800000      10.57200000       0.60000000
Ni      31.71600000      14.09600000      14.09600000       0.60000000
Ni      31.71600000      15.85800000      15.85800000       0.60000000
Ni      33.47800000      14.09600000      15.85800000       0.60000000
Ni      33.47800000      15.85800000      14.09600000       0.60000000
Ni      31.71600000      14.09600000      17.62000000       0.60000000
Ni      31.71600000      15.85800000      19.38200000       0.60000000
Ni      33.47800000      14.09600000      19.38200000       0.60000000
Ni      33.47800000      15.85800000      17.62000000       0.60000000
Ni      31.71600000      14.09600000      21.14400000       0.60000000
Ni      31.71600000      15.85800000      22.90600000       0.60000000
Ni      33.47800000      14.09600000      22.90600000       0.60000000
Ni      33.47800000      15.85800000      21.14400000       0.60000000
Ni      31.71600000      14.09600000      24.66800000       0.60000000
Ni      31.71600000      15.85800000      26.43000000       0.60000000
Ni      33.47800000      14.09600000      26.43000000       0.60000000
Ni      33.47800000      15.85800000      24.66800000       0.60000000
Ni      31.71600000      14.09600000      28.19200000       0.60000000
Ni      31.71600000      15.85800000      29.95400000       0.60000000
Ni      33.47800000      14.09600000      29.95400000       0.60000000
Ni      33.47800000      15.85800000      28.19200000       0.60000000
Ni      31.71600000      14.09600000      31.71600000       0.60000000
Ni      31.71600000      15.85800000      33.47800000       0.60000000
Ni      33.47800000      14.09600000      33.47800000       0.60000000
Ni      33.47800000      15.85800000      31.71600000       0.60000000
Ni      31.71600000      17.62000000       0.00000000       0.60000000
Ni      31.71600000      19.38200000       1.76200000       0.60000000
Ni      33.47800000      17.62000000       1.76200000       0.60000000
Ni      33.47800000      19.38200000       0.00000000       0.60000000
Ni      31.71600000      17.62000000       3.52400000       0.60000000
Ni      31.71600000      19.38200000       5.28600000       0.60000000
Ni      33.47800000      17.62000000       5.28600000       0.60000000
Ni      33.47800000      19.38200000       3.52400000       0.60000000
Ni      31.71600000      17.62000000       7.04800000       0.60000000
Ni      31.71600000      19.38200000       8.81000000       0.60000000
Ni      33.47800000      17.62000000       8.81000000       0.60000000
Ni      33.47800000      19.38200000       7.04800000       0.60000000
Ni      31.71600000      17.62000000      10.57200000       0.60000000
Ni      31.71600000      19.38200000      12.33400000       0.60000000
Ni      33.47800000      17.62000000      12.33400000       0.60000000
Ni      33.47800000      19.38200000      10.57200000       0.60000000
Ni      31.71600000      17.62000000      14.09600000       0.60000000
Ni      31.71600000      19.38200000      15.85800000       0.60000000
Ni      33.47800000      17.62000000      15.85800000       0.60000000
Ni      33.47800000      19.38200000      14.09600000       0.60000000
Ni      31.71600000      17.62000000      17.62000000       0.60000000
Ni      31.71600000      19.38200000      19.38200000       0.60000000
Ni      33.47800000      17.62000000      19.38200000       0.60000000
Ni      33.47800000      19.38200000      17.62000000       0.60000000
Ni      31.71600000      17.62000000      21.14400000       0.60000000
Ni      31.71600000      19.38200000      22.90600000       0.60000000
Ni      33.47800000      17.62000000      22.90600000       0.60000000
Ni      33.47800000      19.38200000      21.14400000       0.60000000
Ni      31.71600000      17.62000000      24.66800000       0.60000000
Ni      31.71600000      19.38200000      26.43000000       0.60000000
Ni      33.47800000      17.62000000      26.43000000       0.60000000
Ni      33.47800000      19.38200000      24.66800000       0.60000000
Ni      31.71600000      17.62000000      28.19200000       0.60000000
Ni      31.71600000      19.38200000      29.95400000       0.60000000
Ni      33.47800000      17.62000000      29.95400000       0.60000000
Ni      33.47800000      19.38200000      28.19200000       0.60000000
Ni      31.71600000      17.62000000      31.71600000       0.60000000
Ni      31.71600000      19.38200000      33.47800000       0.60000000
Ni      33.47800000      17.62000000      33.47800000       0.60000000
Ni      33.47800000      19.38200000      31.71600000       0.60000000
Ni      31.71600000      21.14400000       0.00000000       0.60000000
Ni      31.71600000      22.90600000       1.76200000       0.60000000
Ni      33.47800000      21.14400000       1.76200000       0.60000000
Ni      33.47800000      22.90600000       0.00000000       0.60000000
Ni      31.71600000      21.14400000       3.52400000       0.60000000
Ni      31.71600000      22.90600000       5.28600000       0.60000000
Ni      33.47800000      21.14400000       5.28600000       0.60000000
Ni      33.47800000      22.90600000       3.52400000       0.60000000
Ni      31.71600000      21.14400000       7.04800000       0.60000000
Ni      31.71600000      22.90600000       8.81000000       0.60000000
Ni      33.47800000      21.14400000       8.81000000       0.60000000
Ni      33.47800000      22.90600000       7.04800000       0.60000000
Ni      31.71600000      21.14400000      10.57200000       0.60000000
Ni      31.71600000      22.90600000      12.33400000       0.60000000
Ni      33.47800000      21.14400000      12.33400000       0.60000000
Ni      33.47800000      22.90600000      10.57200000       0.60000000
Ni      31.71600000      21.14400000      14.09600000       0.60000000
Ni      31.71600000      22.90600000      15.85800000       0.60000000
Ni      33.47800000      21.14400000      15.85800000       0.60000000
Ni      33.47800000      22.90600000      14.09600000       0.60000000
Ni      31.71600000      21.14400000      17.62000000       0.60000000
Ni      31.71600000      22.90600000      19.38200000       0.60000000
Ni      33.47800000      21.14400000      19.38200000       0.60000000
Ni      33.47800000      22.90600000      17.62000000       0.60000000
Ni      31.71600000      21.14400000      21.14400000       0.60000000
Ni      31.71600000      22.90600000      22.90600000       0.60000000
Ni      33.47800000      21.14400000      22.90600000       0.60000000
Ni      33.47800000      22.90600000      21.14400000       0.60000000
Ni      31.71600000      21.14400000      24.66800000       0.60000000
Ni      31.71600000      22.90600000      26.43000000       0.60000000
Ni      33.47800000      21.14400000      26.43000000       0.60000000
Ni      33.47800000      22.90600000      24.66800000       0.60000000
Ni      31.71600000      21.14400000      28.19200000       0.60000000
Ni      31.71600000      22.90600000      29.95400000       0.60000000
Ni      33.47800000      21.14400000      29.95400000       0.60000000
Ni      33.47800000      22.90600000      28.19200000       0.60000000
Ni      31.71600000      21.14400000      31.71600000       0.60000000
Ni      31.71600000      22.90600000      33.47800000       0.60000000
Ni      33.47800000      21.14400000      33.47800000       0.60000000
Ni      33.47800000      22.90600000      31.71600000       0.60000000
Ni      31.71600000      24.66800000       0.00000000       0.60000000
Ni      31.71600000      26.43000000       1.76200000       0.60000000
Ni      33.47800000      24.66800000       1.76200000       0.60000000
Ni      33.47800000      26.43000000       0.00000000       0.60000000
Ni      31.71600000      24.66800000       3.52400000       0.60000000
Ni      31.71600000      26.43000000       5.28600000       0.60000000
Ni      33.47800000      24.66800000       5.28600000       0.60000000
Ni      33.47800000      26.43000000       3.52400000       0.60000000
Ni      31.71600000      24.66800000       7.04800000       0.60000000
Ni      31.71600000      26.43000000       8.81000000       0.60000000
Ni      33.47800000      24.66800000       8.81000000       0.60000000
Ni      33.47800000      26.43000000       7.04800000       0.60000000
Ni      31.71600000      24.66800000      10.57200000       0.60000000
Ni      31.71600000      26.43000000      12.33400000       0.60000000
Ni      33.47800000      24.66800000      12.33400000       0.60000000
Ni      33.47800000      26.43000000      10.57200000       0.60000000
Ni      31.71600000      24.66800000      14.09600000       0.60000000
Ni      31.71600000      26.43000000      15.85800000       0.60000000
Ni      33.47800000      24.66800000      15.85800000       0.60000000
Ni      33.47800000      26.43000000      14.09600000       0.60000000
Ni      31.71600000      24.66800000      17.62000000       0.60000000
Ni      31.71600000      26.43000000      19.38200000       0.60000000
Ni      33.47800000      24.66800000      19.38200000       0.60000000
Ni      33.47800000      26.43000000      17.62000000       0.60000000
Ni      31.71600000      24.66800000      21.14400000       0.60000000
Ni      31.71600000      26.43000000      22.90600000       0.60000000
Ni      33.47800000      24.66800000      22.90600000       0.60000000
Ni      33.47800000      26.43000000      21.14400000       0.60000000
Ni      31.71600000      24.66800000      24.66800000       0.60000000
Ni      31.71600000      26.43000000      26.43000000       0.60000000
Ni      33.47800000      24.66800000      26.43000000       0.60000000
Ni      33.47800000      26.43000000      24.66800000       0.60000000
Ni      31.71600000      24.66800000      28.19200000       0.60000000
Ni      31.71600000      26.43000000      29.95400000       0.60000000
Ni      33.47800000      24.66800000      29.95400000       0.60000000
Ni      33.47800000      26.43000000      28.19200000       0.60000000
Ni      31.71600000      24.66800000      31.71600000       0.60000000
Ni      31.71600000      26.43000000      33.47800000       0.60000000
Ni      33.47800000      24.66800000      33.47800000       0.60000000
Ni      33.47800000      26.43000000      31.71600000       0.60000000
Ni      31.71600000      28.19200000       0.00000000       0.60000000
Ni      31.71600000      29.95400000       1.76200000       0.60000000
Ni      33.47800000      28.19200000       1.76200000       0.60000000
Ni      33.47800000      29.95400000       0.00000000       0.60000000
Ni      31.71600000      28.19200000       3.52400000       0.60000000
Ni      31.71600000      29.95400000       5.28600000       0.60000000
Ni      33.47800000      28.19200000       5.28600000       0.60000000
Ni      33.47800000      29.95400000       3.52400000       0.60000000
Ni      31.71600000      28.19200000       7.04800000       0.60000000
Ni      31.71600000      29.95400000       8.81000000       0.60000000
Ni      33.47800000      28.19200000       8.81000000       0.60000000
Ni      33.47800000      29.95400000       7.04800000       0.60000000
Ni      31.71600000      28.19200000      10.57200000       0.60000000
Ni      31.71600000      29.95400000      12.33400000       0.60000000
Ni      33.47800000      28.19200000      12.33400000       0.60000000
Ni      33.47800000      29.95400000      10.57200000       0.60000000
Ni      31.71600000      28.19200000      14.09600000       0.60000000
Ni      31.71600000      29.95400000      15.85800000       0.60000000
Ni      33.47800000      28.19200000      15.85800000       0.60000000
Ni      33.47800000      29.95400000      14.09600000       0.60000000
Ni      31.71600000      28.19200000      17.62000000       0.60000000
Ni      31.71600000      29.95400000      19.38200000       0.60000000
Ni      33.47800000      28.19200000      19.38200000       0.60000000
Ni      33.47800000      29.95400000      17.62000000       0.60000000
Ni      31.71600000      28.19200000      21.14400000       0.60000000
Ni      31.71600000      29.95400000      22.90600000       0.60000000
Ni      33.47800000      28.19200000      22.90600000       0.60000000
Ni      33.47800000      29.95400000      21.14400000       0.60000000
Ni      31.71600000      28.19200000      24.66800000       0.60000000
Ni      31.71600000      29.95400000      26.43000000       0.60000000
Ni      33.47800000      28.19200000      26.43000000       0.60000000
Ni      33.47800000      29.95400000      24.66800000       0.60000000
Ni      31.71600000      28.19200000      28.19200000       0.60000000
Ni      31.71600000      29.95400000      29.95400000       0.60000000
Ni      33.47800000      28.19200000      29.95400000       0.60000000
Ni      33.47800000      29.95400000      28.19200000       0.60000000
Ni      31.71600000      28.19200000      31.71600000       0.60000000
Ni      31.71600000      29.95400000      33.47800000       0.60000000
Ni      33.47800000      28.19200000      33.47800000       0.60000000
Ni      33.47800000      29.95400000      31.71600000       0.60000000
Ni      31.71600000      31.71600000       0.00000000       0.60000000
Ni      31.71600000      33.47800000       1.76200000       0.60000000
Ni      33.47800000      31.71600000       1.76200000       0.60000000
Ni      33.47800000      33.47800000       0.00000000       0.60000000
Ni      31.71600000      31.71600000       3.52400000       0.60000000
Ni      31.71600000      33.47800000       5.28600000       0.60000000
Ni      33.47800000      31.71600000       5.28600000       0.60000000
Ni      33.47800000      33.47800000       3.52400000       0.60000000
Ni      31.71600000      31.71600000       7.04800000       0.60000000
Ni      31.71600000      33.47800000       8.81000000       0.60000000
Ni      33.47800000      31.71600000       8.81000000       0.60000000
Ni      33.47800000      33.47800000       7.04800000       0.60000000
Ni      31.71600000      31.71600000      10.57200000       0.60000000
Ni      31.71600000      33.47800000      12.33400000       0.60000000
Ni      33.47800000      31.71600000      12.33400000       0.60000000
Ni      33.47800000      33.47800000      10.57200000       0.60000000
Ni      31.71600000      31.71600000      14.09600000       0.60000000
Ni      31.71600000      33.47800000      15.85800000       0.60000000
Ni      33.47800000      31.71600000      15.85800000       0.60000000
Ni      33.47800000      33.47800000      14.09600000       0.60000000
Ni      31.71600000      31.71600000      17.62000000       0.60000000
Ni      31.71600000      33.47800000      19.38200000       0.60000000
Ni      33.47800000      31.71600000      19.38200000       0.60000000
Ni      33.47800000      33.47800000      17.62000000       0.60000000
Ni      31.71600000      31.71600000      21.14400000       0.60000000
Ni      31.71600000      33.47800000      22.90600000       0.60000000
Ni      33.47800000      31.71600000      22.90600000       0.60000000
Ni      33.47800000      33.47800000      21.14400000       0.60000000
Ni      31.71600000      31.71600000      24.66800000       0.60000000
Ni      31.71600000      33.47800000      26.43000000       0.60000000
Ni      33.47800000      31.71600000      26.43000000       0.60000000
Ni      33.47800000      33.47800000      24.66800000       0.60000000
Ni      31.71600000      31.71600000      28.19200000       0.60000000
Ni      31.71600000      33.47800000      29.95400000       0.60000000
Ni      33.47800000      31.71600000      29.95400000       0.60000000
Ni      33.47800000      33.47800000      28.19200000       0.60000000
Ni      31.71600000      31.71600000      31.71600000       0.60000000
Ni      31.71600000      33.47800000      33.47800000       0.60000000
Ni      33.47800000      31.71600000      33.47800000       0.60000000
Ni      33.47800000      33.47800000      31.71600000       0.60000000
