3955
Lattice="35.2 0.0 0.0 0.0 35.2 0.0 0.0 0.0 35.2" Properties=species:S:1:pos:R:3:initial_magmoms:R:1:forces:R:3:energies:R:1 energy=-22596.78515625 stress="0.014044012874364853 0.002266958123072982 0.0023281218018382788 0.002266958123072982 0.014054258354008198 0.002285569440573454 0.0023281218018382788 0.002285569440573454 0.014041397720575333" free_energy=-22596.78515625 pbc="T T T"
Ni      -0.19705481      -0.19702035      -0.19583052       0.60000000      -0.02017223      -0.01890707      -0.01943035      -5.72226161
Ni      -0.14376229       1.60430148       1.60284655       0.60000000      -0.00870203      -0.01019769      -0.00867991      -5.72424710
Ni       1.60070150      -0.14532715       1.60400299       0.60000000      -0.00958141      -0.00744441      -0.00966953      -5.72382706
Ni       1.60357374       1.60226090      -0.14137277       0.60000000      -0.01000107      -0.00986130      -0.00899498      -5.72422564
Ni      -0.13855988      -0.13942424       3.37542216       0.60000000      -0.00522358      -0.00338362      -0.00692168      -5.72532809
Ni      -0.09976036       1.63853836       5.16984947       0.60000000      -0.00331682      -0.00180411      -0.00453474      -5.72849995
Ni       1.63724666      -0.10402970       5.17062400       0.60000000      -0.00050047       0.00088068      -0.00497715      -5.72837228
Ni       1.63408618       1.63448842       3.39153770       0.60000000      -0.00607617      -0.00576059      -0.00668260      -5.72687095
Ni      -0.10151468      -0.10631530       6.96292526       0.60000000       0.00055019       0.00376242      -0.00320041      -5.72913688
Ni      -0.07608619       1.65324551       8.74834555       0.60000000       0.00036528       0.00517663      -0.00191291      -5.72927684
Ni       1.65912606      -0.08523725       8.74690323       0.60000000      -0.00041624       0.00516862      -0.00334902      -5.72914004
Ni       1.66329881       1.65889053       6.95611378       0.60000000      -0.00151663       0.00077454      -0.00304747      -5.72915828
Ni      -0.08989014      -0.09779743      10.54778880       0.60000000       0.00245621       0.00975617      -0.00348833      -5.72878742
Ni      -0.07179522       1.65469173      12.32792674       0.60000000       0.00117718       0.00686349      -0.00341862      -5.72849190
Ni       1.66613530      -0.08136765      12.32082744       0.60000000       0.00345194       0.00792583      -0.00299211      -5.72872609
Ni       1.67789920       1.66672660      10.52917658       0.60000000       0.00114004       0.00554403      -0.00350939      -5.72896469
Ni      -0.09791371      -0.10129385      14.12388669       0.60000000       0.00146610       0.00984502      -0.00270001      -5.72734982
Ni      -0.08622593       1.64845432      15.89569303       0.60000000       0.00112768       0.00936545      -0.00302150      -5.72700149
Ni       1.66833971      -0.08433406      15.87913241       0.60000000       0.00279138       0.00961573      -0.00344658      -5.72938907
Ni       1.68071026       1.66496121      14.09792228       0.60000000       0.00033758       0.00890914      -0.00287729      -5.72833353
Ni      -0.10975848      -0.10775752      17.67108678       0.60000000       0.00302554       0.01230622      -0.00132611      -5.72807580
Ni      -0.10140681       1.64705139      19.43001042       0.60000000       0.00054493       0.00785798      -0.00423882      -5.72844934
Ni       1.66804176      -0.09159290      19.41248283       0.60000000       0.00234897       0.00845760      -0.00280396      -5.73081785
Ni       1.67713307       1.66190123      17.64788046       0.60000000       0.00147566       0.00766546      -0.00234130      -5.72922909
Ni      -0.11532053      -0.11277512      21.18898636       0.60000000       0.00335423       0.00796177      -0.00300043      -5.74436653
Ni      -0.11455030       1.64106637      22.93736036       0.60000000       0.00524333       0.00659813      -0.00469600      -5.74394536
Ni       1.66414251      -0.10319513      22.92494463       0.60000000       0.00436415       0.00530402      -0.00387437      -5.74643117
Ni       1.66945149       1.65727461      21.17261216       0.60000000       0.00320312       0.00745461      -0.00268426      -5.73170573
Ni      -0.13836741      -0.14093418      24.67304601       0.60000000       0.00495034       0.00790458       0.00015635      -5.61678493
Ni      -0.14487546       1.61316751      26.40885985       0.60000000       0.00352630       0.00361292      -0.00294857      -5.75359488
Ni       1.61998886      -0.14377759      26.40451731       0.60000000       0.00327562       0.00425195      -0.00127886      -5.75159597
Ni       1.64532487       1.63641503      24.67491052       0.60000000       0.00580051       0.00518852      -0.00366896      -5.73881459
Ni      -0.18658780      -0.18503635      28.11477801       0.60000000       0.00416264       0.00525599      -0.00387771      -5.67427427
Ni      -0.17070294       1.58658460      29.84542923       0.60000000      -0.00005726       0.00118151      -0.00289930      -5.74064642
Ni       1.58929516      -0.17458063      29.83785326       0.60000000      -0.00073091      -0.00144405       0.00073348      -5.73718631
Ni       1.62345916       1.61805712      28.13823406       0.60000000       0.00222764       0.00184527      -0.00079445      -5.73681092
Ni      -0.21291196      -0.21897929      31.52762571       0.60000000      -0.00927923      -0.00937662      -0.01021370      -5.67654079
Ni      -0.18527632       1.56810647      33.28658130       0.60000000      -0.00884318      -0.00804110      -0.00937393      -5.72547942
Ni       1.57033028      -0.18932648      33.28454498       0.60000000      -0.01010514      -0.00799301      -0.00746163      -5.72513771
Ni       1.60256602       1.59723374      31.58738963       0.60000000      -0.00328599      -0.00233969      -0.00356233      -5.73156196
Ni      -0.13941911       3.37653332      -0.13690913       0.60000000      -0.00328718      -0.00908119      -0.00359717      -5.72564447
Ni      -0.10481377       5.17112764       1.63929199       0.60000000       0.00080852      -0.00658793       0.00004100      -5.72854692
Ni       1.63372296       3.39161543       1.63649414       0.60000000      -0.00327219      -0.00907240      -0.00523001      -5.72702682
Ni       1.63735170       5.16969159      -0.09726278       0.60000000      -0.00126981      -0.00509887      -0.00324019      -5.72852051
Ni      -0.10069422       3.39532464       3.39384279       0.60000000      -0.00354796      -0.00417246      -0.00234190      -5.72807282
Ni      -0.06621298       5.17396406       5.17644521       0.60000000      -0.00284848      -0.00072097      -0.00163084      -5.72946990
Ni       1.66563935       3.41036025       5.17622047       0.60000000      -0.00505966      -0.00328345      -0.00425786      -5.72881395
Ni       1.66314267       5.17574199       3.41306333       0.60000000      -0.00205869      -0.00678259      -0.00287023      -5.72878289
Ni      -0.06744089       3.40846139       6.95569557       0.60000000      -0.00223351       0.00235283      -0.00263441      -5.72949529
Ni      -0.03580002       5.17297612       8.73599657       0.60000000      -0.00184951       0.00264662      -0.00243163      -5.72974449
Ni       1.68912720       3.41951009       8.73873751       0.60000000       0.00074274       0.00299372      -0.00284280      -5.72939801
Ni       1.69533354       5.17969905       6.95695559       0.60000000      -0.00362276       0.00074319      -0.00261463      -5.72950673
Ni      -0.04916596       3.41170035      10.52952475       0.60000000      -0.00116256       0.00433170      -0.00304818      -5.72926801
Ni      -0.01836890       5.16951155      12.30662325       0.60000000      -0.00233030       0.00288451      -0.00369690      -5.72916830
Ni       1.70133522       3.41990699      12.30753014       0.60000000       0.00024803       0.00449082      -0.00015815      -5.72877699
Ni       1.71801224       5.17892676      10.51773947       0.60000000       0.00037363       0.00420190      -0.00165269      -5.72936273
Ni      -0.04776745       3.40914211      14.10407713       0.60000000      -0.00297761       0.00743787      -0.00426521      -5.72840816
Ni      -0.01940350       5.16785506      15.87620047       0.60000000      -0.00214192       0.00782841      -0.00737866      -5.72901559
Ni       1.70080154       3.41604420      15.87080824       0.60000000      -0.00070526       0.00712042      -0.00268829      -5.72844917
Ni       1.72963553       5.17529637      14.08329192       0.60000000      -0.00250419       0.00383761      -0.00260390      -5.72871929
Ni      -0.06557613       3.40772960      17.66145915       0.60000000      -0.00132033       0.00852496      -0.00352763      -5.72788244
Ni      -0.04190555       5.17767992      19.42462892       0.60000000      -0.00332114       0.00928853      -0.00618469      -5.72859651
Ni       1.69008302       3.41618953      19.41293836       0.60000000       0.00252557       0.00938804      -0.00261967      -5.72965240
Ni       1.72473741       5.17403098      17.64089715       0.60000000      -0.00116873       0.00743329      -0.00504918      -5.72897142
Ni      -0.08770913       3.41179254      21.18413288       0.60000000       0.00141012       0.00772687      -0.00527449      -5.72889447
Ni      -0.07277875       5.19025737      22.93444381       0.60000000      -0.00132222       0.00532678      -0.00681892      -5.72951072
Ni       1.67231810       3.41477728      22.92970229       0.60000000       0.00322573       0.00552179      -0.00537321      -5.73083246
Ni       1.70330173       5.18232184      21.17541275       0.60000000       0.00003407       0.00874923      -0.00424200      -5.72944492
Ni      -0.10978292       3.40853897      24.67859806       0.60000000       0.00327609       0.00404956      -0.00625532      -5.73236954
Ni      -0.10278066       5.19002008      26.41611114       0.60000000       0.00336866       0.00156941      -0.00243392      -5.73025000
Ni       1.65009959       3.40572760      26.41649440       0.60000000       0.00254991       0.00220613      -0.00461503      -5.73122609
Ni       1.67730198       5.18499387      24.68047386       0.60000000       0.00156921       0.00480098      -0.00634689      -5.73086452
Ni      -0.13469470       3.39239184      28.14057433       0.60000000       0.00186178       0.00063269      -0.00374943      -5.73003393
Ni      -0.12520825       5.17854908      29.87883458       0.60000000       0.00100828       0.00155312      -0.00230446      -5.72949022
Ni       1.62948048       3.39070288      29.88093330       0.60000000      -0.00087957       0.00063128      -0.00153268      -5.73085999
Ni       1.65133619       5.18024656      28.16110383       0.60000000       0.00230703       0.00130562      -0.00481948      -5.73090422
Ni      -0.15061985       3.37474604      31.59051741       0.60000000      -0.00186444      -0.00406206      -0.00365853      -5.72730714
Ni      -0.12986468       5.16953238      33.34249099       0.60000000       0.00107617      -0.00392780      -0.00037996      -5.72818977
Ni       1.61814617       3.37990227      33.34222154       0.60000000      -0.00415984      -0.00344222      -0.00415721      -5.72715241
Ni       1.63470892       5.17225267      31.62776849       0.60000000      -0.00047811      -0.00162978      -0.00385035      -5.72984695
Ni      -0.10864298       6.96296894      -0.09940071       0.60000000       0.00602567      -0.00438665       0.00004960      -5.72912353
Ni      -0.08750219       8.74696796       1.66137481       0.60000000       0.00725620      -0.00469111       0.00114568      -5.72913229
Ni       1.65725726       6.95610653       1.66565754       0.60000000       0.00243003      -0.00489420      -0.00011679      -5.72913748
Ni       1.65065989       8.74790218      -0.07313999       0.60000000       0.00810656      -0.00312008       0.00000925      -5.72927773
Ni      -0.07421550       6.95369250       3.41288183       0.60000000       0.00080938      -0.00243804       0.00071431      -5.72932833
Ni      -0.04328736       8.72589169       5.18581996       0.60000000      -0.00047785       0.00014929      -0.00124129      -5.72961622
Ni       1.69199290       6.95150854       5.18801330       0.60000000      -0.00160945      -0.00375076      -0.00193379      -5.72944218
Ni       1.68009301       8.73491800       3.43120444       0.60000000       0.00304485      -0.00341415      -0.00116124      -5.72919220
Ni      -0.03322986       6.94349976       6.95416074       0.60000000      -0.00300984       0.00119069      -0.00171142      -5.72991472
Ni       0.00095060       8.70744403       8.72833080       0.60000000      -0.00433834       0.00115933      -0.00090488      -5.72999251
Ni       1.72609295       6.94487270       8.73461501       0.60000000      -0.00109612       0.00355117      -0.00176781      -5.72961313
Ni       1.72260797       8.72064373       6.96209854       0.60000000      -0.00295733      -0.00032700      -0.00217661      -5.72964889
Ni      -0.00161696       6.93406742      10.51197647       0.60000000      -0.00364355       0.00188710      -0.00123847      -5.72963697
Ni       0.03516628       8.69261106      12.28391321       0.60000000      -0.00741277       0.00415422      -0.00262023      -5.72942007
Ni       1.75100511       6.93859500      12.29353881       0.60000000      -0.00285804       0.00342966      -0.00177529      -5.72910517
Ni       1.76045335       8.70845315      10.50950091       0.60000000      -0.00495815       0.00116425      -0.00196446      -5.72949737
Ni       0.01597002       6.92709490      14.07951031       0.60000000      -0.00382906       0.00602311      -0.00533820      -5.72921693
Ni       0.05111713       8.68713562      15.84798887       0.60000000      -0.00559058       0.00495507      -0.00502316      -5.72900605
Ni       1.76039484       6.93452216      15.85576142       0.60000000      -0.00182843       0.00642900      -0.00466580      -5.72874069
Ni       1.78596783       8.69989802      14.06663179       0.60000000      -0.00516535       0.00342983      -0.00434643      -5.72876471
Ni       0.01153723       6.93283410      17.64433417       0.60000000      -0.00560142       0.00629582      -0.00801184      -5.72942555
Ni       0.03826533       8.70398695      19.40982001       0.60000000      -0.00554539       0.00765180      -0.00528066      -5.72924715
Ni       1.75010175       6.94179948      19.40819151       0.60000000      -0.00401580       0.00493763      -0.00621516      -5.72901535
Ni       1.79327624       8.69988289      17.62509067       0.60000000      -0.00572943       0.00434742      -0.00578679      -5.72855979
Ni      -0.02525472       6.96228301      21.18416778       0.60000000      -0.00518905       0.00899475      -0.00692930      -5.72821784
Ni      -0.01193020       8.74641294      22.93799473       0.60000000      -0.00514719       0.00837774      -0.00573586      -5.72861326
Ni       1.71728895       6.95807757      22.93406187       0.60000000      -0.00056752       0.00720721      -0.00702605      -5.72988540
Ni       1.77554382       8.71549868      21.17236350       0.60000000      -0.00318329       0.00374541      -0.00743071      -5.72940892
Ni      -0.06313260       6.97492075      24.68079832       0.60000000      -0.00020160       0.00361581      -0.00723800      -5.72990251
Ni      -0.06036228       8.76294420      26.42396199       0.60000000       0.00054539       0.00022921      -0.00569362      -5.73022401
Ni       1.68159338       6.96406790      26.43016722       0.60000000       0.00084533       0.00447576      -0.00695871      -5.73095542
Ni       1.72664199       8.74093210      24.68990886       0.60000000      -0.00142478       0.00339140      -0.00839970      -5.72994494
Ni      -0.09835947       6.97674044      28.15495271       0.60000000       0.00544485       0.00081306      -0.00202314      -5.73006630
Ni      -0.09897418       8.76929215      29.89158085       0.60000000       0.00665686      -0.00211762       0.00112742      -5.72974044
Ni       1.65238218       6.96449123      29.90524774       0.60000000       0.00230171      -0.00041623      -0.00368557      -5.73025298
Ni       1.67989118       8.75270018      28.17548819       0.60000000       0.00374339      -0.00128519      -0.00497856      -5.73045224
Ni      -0.11635308       6.97093539      31.62053273       0.60000000       0.00128382      -0.00195491      -0.00147623      -5.72943556
Ni      -0.10883667       8.76273720      33.36507032       0.60000000       0.00600794      -0.00210763       0.00028468      -5.72929674
Ni       1.64151074       6.96032611      33.37608240       0.60000000       0.00337543      -0.00292107      -0.00115315      -5.72945434
Ni       1.65091776       8.75491463      31.64688285       0.60000000       0.00393102      -0.00246645      -0.00023968      -5.72973120
Ni      -0.09965943      10.54748366      -0.08740480       0.60000000       0.00908748      -0.00243618       0.00218216      -5.72881544
Ni      -0.08301419      12.32022754       1.66916223       0.60000000       0.00848137      -0.00239462       0.00233773      -5.72876054
Ni       1.66487675      10.52821630       1.68130459       0.60000000       0.00731923      -0.00272842       0.00027494      -5.72891486
Ni       1.65252348      12.32707145      -0.06847955       0.60000000       0.00647120      -0.00257952      -0.00149731      -5.72833157
Ni      -0.06234051      10.51985560       3.42665331       0.60000000       0.00632275      -0.00379868       0.00127226      -5.72927988
Ni      -0.03407543      12.28439283       5.19688488       0.60000000       0.00485342      -0.00158819      -0.00088245      -5.72978294
Ni       1.70647181      10.50621574       5.19922295       0.60000000       0.00334750      -0.00366502      -0.00081510      -5.72932994
Ni       1.68469047      12.29933977       3.44214427       0.60000000       0.00839977      -0.00195430       0.00055632      -5.72895074
Ni      -0.01124500      10.49108244       6.95815268       0.60000000      -0.00198316       0.00140145      -0.00191086      -5.72990996
Ni       0.02136522      12.25271308       8.72811228       0.60000000      -0.00327761       0.00053452      -0.00010753      -5.72996342
Ni       1.75521803      10.48583492       8.73486474       0.60000000      -0.00340066       0.00076584      -0.00170630      -5.72973377
Ni       1.73626330      12.27110977       6.96952460       0.60000000       0.00068045       0.00075600      -0.00167536      -5.72971928
Ni       0.03630080      10.46760639      10.49891145       0.60000000      -0.00473718       0.00353249      -0.00112947      -5.72975206
Ni       0.07166527      12.22654905      12.26583629       0.60000000      -0.00830343       0.00415934      -0.00082198      -5.72936338
Ni       1.79542992      10.47118928      12.28193288       0.60000000      -0.00407573       0.00173878      -0.00394026      -5.72911698
Ni       1.78866322      12.24924565      10.50566194       0.60000000      -0.00505344       0.00108942      -0.00146757      -5.72952414
Ni       0.07115868      10.45086621      14.05134976       0.60000000      -0.00759653       0.00419068      -0.00370774      -5.72895133
Ni       0.10507888      12.20728525      15.81595379       0.60000000      -0.00490932       0.00575449      -0.00470574      -5.72809488
Ni       1.82146244      10.46325915      15.83585037       0.60000000      -0.00601429       0.00199389      -0.00483381      -5.72829640
Ni       1.83054737      12.23387950      14.05116037       0.60000000      -0.00539769       0.00084241      -0.00733630      -5.72871608
Ni       0.08419923      10.44809165      17.61428189       0.60000000      -0.00726676       0.00598348      -0.00677718      -5.72886503
Ni       0.12043507      12.20786662      19.37451771       0.60000000      -0.00861941       0.00728660      -0.00577841      -5.72961283
Ni       1.82693588      10.46778397      19.39114746       0.60000000      -0.00667649       0.00417925      -0.00639386      -5.72866833
Ni       1.85745945      12.22679143      17.60019092       0.60000000      -0.00754334       0.00241566      -0.00333033      -5.72792614
Ni       0.06600603      10.47540935      21.17086705       0.60000000      -0.00713832       0.00789148      -0.00495975      -5.72970748
Ni       0.08139607      12.25116399      22.93134187       0.60000000      -0.00547087       0.00815665      -0.00021337      -5.72877502
Ni       1.79426846      10.49604807      22.93548919       0.60000000      -0.00419803       0.00400836      -0.00631314      -5.72925967
Ni       1.85303039      12.24164814      21.15712873       0.60000000      -0.00498289       0.00186506      -0.00572898      -5.72872555
Ni      -0.00914372      10.53131751      24.68761550       0.60000000      -0.00277194       0.00616329      -0.00292452      -5.72892654
Ni      -0.02220160      12.32520104      26.42711026       0.60000000       0.00239719      -0.00103552       0.00087045      -5.73004222
Ni       1.72493298      10.53279940      26.43829793       0.60000000       0.00319890      -0.00278531      -0.00623435      -5.72989845
Ni       1.78399816      12.29645515      24.69411334       0.60000000      -0.00118506       0.00220024      -0.00335640      -5.72760558
Ni      -0.06830677      10.55708888      28.16003059       0.60000000       0.00411274      -0.00237055      -0.00217239      -5.73008209
Ni      -0.08400889      12.35515766      29.88750839       0.60000000       0.00282997      -0.00477110      -0.00280384      -5.72940254
Ni       1.67187365      10.54734076      29.91379517       0.60000000       0.00704511      -0.00567144      -0.00108115      -5.72996730
Ni       1.71250156      12.33082453      28.17545985       0.60000000       0.00380528      -0.00530872       0.00007010      -5.72984177
Ni      -0.10294508      10.56336321      31.62678501       0.60000000       0.00834557      -0.00419260       0.00052954      -5.72915846
Ni      -0.10772477      12.35119908      33.36050156       0.60000000       0.00959844      -0.00442106       0.00045570      -5.72794878
Ni       1.64974792      10.54499501      33.38817062       0.60000000       0.00585357      -0.00341963       0.00009593      -5.72915298
Ni       1.66003989      12.34172278      31.64684203       0.60000000       0.00758026      -0.00675119      -0.00139533      -5.72936308
Ni      -0.10251283      14.12411380      -0.09531550       0.60000000       0.00876880      -0.00401235       0.00115031      -5.72719377
Ni      -0.08543269      15.87938679       1.67096974       0.60000000       0.00924495      -0.00454880       0.00211262      -5.72917223
Ni       1.66375537      14.09698501       1.68383615       0.60000000       0.00657767      -0.00178107       0.00079114      -5.72822261
Ni       1.64683805      15.89496399      -0.08360492       0.60000000       0.00922468      -0.00377673       0.00072668      -5.72706497
Ni      -0.06019645      14.08197537       3.43732369       0.60000000       0.00601733      -0.00229643       0.00104679      -5.72961718
Ni      -0.03672580      15.83919706       5.21027537       0.60000000       0.00327911      -0.00164083      -0.00107589      -5.73039627
Ni       1.70960663      14.06346642       5.20983970       0.60000000       0.00545057      -0.00272114      -0.00119004      -5.72959292
Ni       1.68257222      15.85707951       3.44915708       0.60000000       0.00720263      -0.00301598      -0.00102127      -5.72941792
Ni      -0.00531890      14.04472277       6.96784142       0.60000000       0.00124079       0.00099647       0.00011272      -5.73020768
Ni       0.02089477      15.80373953       8.73900004       0.60000000       0.00016162       0.00459439      -0.00001647      -5.73034614
Ni       1.76605801      14.03405782       8.73948643       0.60000000      -0.00062654       0.00221005      -0.00083038      -5.72988796
Ni       1.73473204      15.82467575       6.97982912       0.60000000       0.00334031      -0.00153549      -0.00162817      -5.73010451
Ni       0.05249820      14.01247368      10.49630464       0.60000000      -0.00299236       0.00225493       0.00103931      -5.72987342
Ni       0.08141701      15.77092599      12.26335566       0.60000000      -0.00646258       0.00261563       0.00056043      -5.72985482
Ni       1.82119350      14.01167201      12.27404674       0.60000000      -0.00492627       0.00209220      -0.00208826      -5.72926784
Ni       1.79419118      15.79618623      10.50842407       0.60000000      -0.00102450       0.00289512      -0.00090806      -5.72988057
Ni       0.10416748      13.98374496      14.02986307       0.60000000      -0.00621208       0.00459721      -0.00135177      -5.72904122
Ni       0.13654836      15.74001476      15.79025682       0.60000000      -0.00930989       0.00093089      -0.00356101      -5.72934949
Ni       1.86457991      13.99592033      15.81355304       0.60000000      -0.00333111       0.00125468      -0.00235452      -5.72868603
Ni       1.85163417      15.77328783      14.03859374       0.60000000      -0.00588185       0.00366257      -0.00409407      -5.72965622
Ni       0.14326643      13.96343832      17.57356419       0.60000000      -0.00807744       0.00634572      -0.00560251      -5.72766453
Ni       0.17447175      15.72282651      19.33125100       0.60000000      -0.01215241       0.00055857      -0.00032779      -5.72872275
Ni       1.88696528      13.99289425      19.36417761       0.60000000      -0.00726379       0.00345643      -0.00317963      -5.72801137
Ni       1.89428739      15.75913722      17.57503534       0.60000000      -0.00911788       0.00064184      -0.00086574      -5.72916126
Ni       0.14717732      13.97324568      21.13470773       0.60000000      -0.00828523       0.00006813       0.00054401      -5.73118621
Ni       0.13731720      15.75283538      22.91038009       0.60000000      -0.00866675      -0.00133152       0.00075334      -5.72982323
Ni       1.85323839      14.02723639      22.92588671       0.60000000      -0.00402527      -0.00011114      -0.00031173      -5.72698963
Ni       1.89500554      15.76472548      21.13448246       0.60000000      -0.00602653       0.00078868      -0.00151494      -5.72929609
Ni       0.03491201      14.07531012      24.69438137       0.60000000      -0.00625107       0.00242359       0.00193794      -5.72780919
Ni      -0.00935764      15.88024056      26.41599596       0.60000000      -0.00398933       0.00056413       0.00345155      -5.74228954
Ni       1.76521725      14.09610774      26.43400178       0.60000000      -0.00027358      -0.00336262      -0.00025681      -5.72957087
Ni       1.81029029      15.84573201      24.68509238       0.60000000      -0.00616189      -0.00417464       0.00049370      -5.72879571
Ni      -0.05163033      14.12896084      28.15164421       0.60000000       0.00088192      -0.00187859       0.00164261      -5.73147303
Ni      -0.09694782      15.93120518      29.85371885       0.60000000       0.00463448      -0.00229103       0.00419682      -5.72339082
Ni       1.69028993      14.12861802      29.90152782       0.60000000       0.00056723      -0.00719228       0.00132713      -5.73017210
Ni       1.72628106      15.89652425      28.15732391       0.60000000       0.00252266      -0.00374808       0.00107022      -5.73267150
Ni      -0.10809517      14.14953473      31.60340815       0.60000000       0.00901273      -0.00413374       0.00233125      -5.72668022
Ni      -0.12260574      15.92745946      33.32535577       0.60000000       0.01074363      -0.00449998       0.00226724      -5.72385520
Ni       1.64752759      14.12721121      33.37614099       0.60000000       0.01105713      -0.00606330      -0.00042685      -5.72773367
Ni       1.65928329      15.91795608      31.61677382       0.60000000       0.00616835      -0.00578838       0.00106821      -5.72717839
Ni      -0.10855410      17.67198944      -0.10820856       0.60000000       0.00892703      -0.00375239       0.00175729      -5.72796661
Ni      -0.09322273      19.41280530       1.66905029       0.60000000       0.00864868      -0.00297632       0.00240624      -5.73052883
Ni       1.66036819      17.64799946       1.67946176       0.60000000       0.00886127      -0.00484746       0.00194479      -5.72911978
Ni       1.64693780      19.42913876      -0.10011245       0.60000000       0.00535721      -0.00524221       0.00136601      -5.72846007
Ni      -0.06683148      17.62969152       3.44543570       0.60000000       0.00698146      -0.00296743       0.00219153      -5.73052955
Ni      -0.05098264      19.38102618       5.22223309       0.60000000       0.00393142      -0.00361303       0.00218641      -5.73119938
Ni       1.70237260      17.61442388       5.21865992       0.60000000       0.00582299      -0.00372296       0.00089092      -5.73035759
Ni       1.67535799      19.39814161       3.44959179       0.60000000       0.00713651      -0.00469367       0.00046996      -5.73051202
Ni      -0.01584012      17.59575011       6.98430329       0.60000000       0.00063257      -0.00050847      -0.00023590      -5.73077786
Ni      -0.00036003      19.35134127       8.75852675       0.60000000       0.00130947       0.00277125       0.00103290      -5.73086458
Ni       1.75773203      17.58474817       8.74980841       0.60000000       0.00108354       0.00133809      -0.00088987      -5.73030108
Ni       1.71990553      19.37145078       6.98981984       0.60000000       0.00393259      -0.00323661      -0.00044859      -5.73072416
Ni       0.04311581      17.56239321      10.51018381       0.60000000      -0.00173223       0.00266700      -0.00034380      -5.73042190
Ni       0.06034838      19.31854369      12.28184436       0.60000000      -0.00636030       0.00341821      -0.00200872      -5.73069578
Ni       1.81928820      17.55746823      12.27573041       0.60000000      -0.00288098       0.00402724      -0.00255702      -5.73017269
Ni       1.77653217      19.34419487      10.51947889       0.60000000      -0.00112345       0.00442111       0.00003176      -5.73050457
Ni       0.10541741      17.52705348      14.02933233       0.60000000      -0.00489905       0.00281487      -0.00404742      -5.73039317
Ni       0.12181167      19.28027419      15.79431697       0.60000000      -0.00564623       0.00583788      -0.00378370      -5.73122114
Ni       1.87561709      17.53459298      15.80158737       0.60000000      -0.00612723       0.00424070      -0.00366747      -5.73040009
Ni       1.83815469      19.31813879      14.04148406       0.60000000      -0.00603224       0.00242612      -0.00040745      -5.73080701
Ni       0.15930152      17.49377404      17.55114573       0.60000000      -0.00638861       0.00190631      -0.00328931      -5.73024392
Ni       0.16213673      19.24092027      19.32225241       0.60000000      -0.00174410       0.00620707      -0.00303230      -5.73232901
Ni       1.90509046      17.52276730      19.34339776       0.60000000      -0.00786837      -0.00109557      -0.00059865      -5.72996479
Ni       1.88464459      19.29387034      17.56810585       0.60000000      -0.00613698       0.00042574      -0.00213079      -5.73101979
Ni       0.17618332      17.48163272      21.11002675       0.60000000      -0.00719446      -0.00095841      -0.00222906      -5.73784554
Ni       0.13932369      19.24849590      22.89668440       0.60000000      -0.00658323      -0.00063266       0.00336390      -5.67663860
Ni       1.87598907      17.54833198      22.90649008       0.60000000      -0.00863651      -0.00231941       0.00252034      -5.73204941
Ni       1.88883123      19.28684952      21.12022671       0.60000000      -0.00866887      -0.00325010       0.00312538      -5.73425794
Ni       0.03269579      17.60867835      24.67155532       0.60000000      -0.00583578       0.00190047       0.00433480      -5.67439705
Ni      -0.04605246      19.39697484      26.36711868       0.60000000      -0.00771313       0.00884081       0.00533251      -5.66029465
Ni       1.76656652      17.64022005      26.41135302       0.60000000      -0.00171750      -0.00218959       0.00485464      -5.74122834
Ni       1.78999548      19.37183740      24.66734707       0.60000000      -0.00315541      -0.00285983       0.00346475      -5.73675865
Ni      -0.08140540      17.68975462      28.11329199       0.60000000      -0.00067526       0.00072503       0.00275205      -5.71321279
Ni      -0.18343254      19.51392418      29.75445655       0.60000000      -0.00489626       0.00383733       0.00165126      -5.70296896
Ni       1.67555103      17.68918536      29.86209972       0.60000000       0.00442143      -0.00250511       0.00145655      -5.72563428
Ni       1.69240577      19.43595495      28.11584293       0.60000000      -0.00108535      -0.00253527       0.00310785      -5.73276329
Ni      -0.14644036      17.72525549      31.53865335       0.60000000       0.00671248      -0.00369796       0.00397581      -5.71855152
Ni      -0.13274965      19.46003896      33.30659019       0.60000000       0.00689405      -0.00505220       0.00147946      -5.72995085
Ni       1.63882177      17.68529783      33.33881311       0.60000000       0.00703024      -0.00467307       0.00023488      -5.72485054
Ni       1.63111464      19.45933196      31.56319297       0.60000000       0.00127012      -0.00045794       0.00194677      -5.72264582
Ni      -0.11398115      21.18823500      -0.11614577       0.60000000       0.00809087      -0.00288511       0.00408593      -5.74410278
Ni      -0.10433272      22.92281313       1.66432504       0.60000000       0.00407712      -0.00391888       0.00323961      -5.74640626
Ni       1.65647264      21.17113981       1.67078692       0.60000000       0.00612020      -0.00314143       0.00386930      -5.73152858
Ni       1.63949305      22.93428378      -0.11539086       0.60000000       0.00664374      -0.00314700       0.00560310      -5.74349409
Ni      -0.08158307      21.15631463       3.44826663       0.60000000       0.00790526      -0.00445519       0.00024615      -5.73148841
Ni      -0.07545398      22.90258882       5.22452418       0.60000000       0.00542815      -0.00235147      -0.00037616      -5.73101807
Ni       1.68744580      21.14974946       5.22034196       0.60000000       0.00531972      -0.00402022       0.00128536      -5.73101377
Ni       1.66297641      22.91729650       3.44140979       0.60000000       0.00592761      -0.00206901       0.00363144      -5.73130345
Ni      -0.04059627      21.13254017       6.99893183       0.60000000       0.00277821      -0.00080706      -0.00022034      -5.73125046
Ni      -0.03634365      22.88192938       8.77743214       0.60000000       0.00311493       0.00118642      -0.00041173      -5.73132449
Ni       1.73245021      21.12746520       8.76164203       0.60000000       0.00271266      -0.00061868      -0.00091428      -5.73099482
Ni       1.69493540      22.90071998       6.99273503       0.60000000       0.00408230      -0.00323990       0.00156300      -5.73134238
Ni       0.00902083      21.10552853      10.53489902       0.60000000       0.00268438       0.00406460      -0.00113474      -5.73091149
Ni       0.01165054      22.85881162      12.31322641       0.60000000      -0.00023839       0.00454401      -0.00017206      -5.73106718
Ni       1.78879763      21.10291734      12.29047568       0.60000000      -0.00075403       0.00467208      -0.00292716      -5.73085958
Ni       1.73939354      22.88164574      10.53524387       0.60000000       0.00376349       0.00422245      -0.00073928      -5.73119587
Ni       0.06805614      21.07337306      14.05452283       0.60000000      -0.00197819       0.00599686      -0.00319757      -5.73111624
Ni       0.06458516      22.82774982      15.83011924       0.60000000      -0.00381393       0.00649585      -0.00101151      -5.73106533
Ni       1.84498020      21.07638941      15.80919131       0.60000000      -0.00383209       0.00357286      -0.00189441      -5.73138082
Ni       1.79195646      22.86014332      14.06279759       0.60000000      -0.00281900       0.00525213       0.00154693      -5.73107815
Ni       0.12526743      21.03106084      17.56208698       0.60000000      -0.00309611       0.00550093      -0.00361063      -5.73184454
Ni       0.11327966      22.77936510      19.33545894       0.60000000      -0.00019827       0.00744704      -0.00517530      -5.73420280
Ni       1.87263272      21.04788935      19.34069722       0.60000000      -0.00352365       0.00258741      -0.00209712      -5.73146963
Ni       1.83744819      22.83134674      17.58015697       0.60000000      -0.00175876       0.00740380      -0.00027365      -5.73150629
Ni       0.13333250      20.98143392      21.10618259       0.60000000       0.00381983       0.00512549      -0.00326139      -5.74861890
Ni       0.05564387      22.72232063      22.88984598       0.60000000       0.01017547       0.00833465      -0.00570854      -5.66309386
Ni       1.83624423      21.05902865      22.89757663       0.60000000      -0.00413247      -0.00249239       0.00149198      -5.73881227
Ni       1.83374830      22.79834966      21.11895743       0.60000000      -0.00135383       0.00601082      -0.00342337      -5.73513508
Ni      -0.04370852      21.10771604      24.68876386       0.60000000       0.00233337       0.00196768      -0.00374385      -5.52504545
Ni      -0.18264419      22.95855650      26.29123132       0.60000000       0.00064161       0.00018813      -0.00111801      -5.48626441
Ni       1.71771505      21.15899265      26.38036059       0.60000000       0.00002352      -0.00382766      -0.00088897      -5.74193609
Ni       1.74505751      22.84970642      24.64072931       0.60000000       0.00181814      -0.00105138       0.00161257      -5.75104433
Ni      -0.17720778      21.25482666      27.99805591       0.60000000      -0.00716805       0.00581077       0.00354989      -5.64215690
Ni      -0.16724879      23.00877145      29.74906595       0.60000000       0.00105339       0.00429221       0.00508340      -5.65738434
Ni       1.63112064      21.21082584      29.80208299       0.60000000       0.00101120       0.00305392       0.00107530      -5.73302662
Ni       1.63611522      22.93781786      28.05344831       0.60000000       0.00054647       0.00035669       0.00141230      -5.74884212
Ni      -0.16156748      21.24629659      31.52411043       0.60000000       0.00012913       0.00143042       0.00623904      -5.75234127
Ni      -0.16227990      22.98452247      33.30474105       0.60000000       0.00388610       0.00047577       0.00413506      -5.61478782
Ni       1.62170380      21.20940297      33.31762289       0.60000000       0.00369160      -0.00321692       0.00499152      -5.73367912
Ni       1.61778143      22.95516522      31.54715800       0.60000000       0.00131483       0.00031450       0.00457445      -5.75432467
Ni      -0.14140262      24.66936116      -0.13906335       0.60000000       0.00693306      -0.00054926       0.00560094      -5.61628062
Ni      -0.14435522      26.40163839       1.62032626       0.60000000       0.00424415      -0.00255781       0.00118110      -5.75169873
Ni       1.63545938      24.67193177       1.64584983       0.60000000       0.00538415      -0.00352581       0.00551441      -5.73878860
Ni       1.61249517      26.40530872      -0.14539435       0.60000000       0.00232417      -0.00332229       0.00478750      -5.75361753
Ni      -0.10703417      24.66176886       3.43205815       0.60000000       0.00484975      -0.00351304       0.00267137      -5.73233205
Ni      -0.10618947      26.39504024       5.21098249       0.60000000       0.00346886       0.00032319      -0.00151657      -5.73018152
Ni       1.66495588      24.66161709       5.21212364       0.60000000       0.00374038      -0.00235442      -0.00029254      -5.73101705
Ni       1.64123925      26.40721558       3.42025427       0.60000000       0.00273118      -0.00160664       0.00269380      -5.73086947
Ni      -0.07397170      24.64480777       7.00344381       0.60000000       0.00431672       0.00127115      -0.00147908      -5.73121136
Ni      -0.07544130      26.38586417       8.78537590       0.60000000       0.00381719       0.00554952      -0.00207985      -5.73108590
Ni       1.69850757      24.64953253       8.76797283       0.60000000       0.00318357       0.00203230       0.00000332      -5.73150241
Ni       1.66653297      26.40461113       6.98740336       0.60000000       0.00432939       0.00054601      -0.00157101      -5.73115772
Ni      -0.03760675      24.62969306      10.55830059       0.60000000       0.00266960       0.00386418       0.00062540      -5.73131835
Ni      -0.04492896      26.37675064      12.34170998       0.60000000       0.00093764       0.00522490       0.00071451      -5.73108906
Ni       1.73969063      24.63511656      12.31101248       0.60000000       0.00252393       0.00434632       0.00181638      -5.73123795
Ni       1.69763758      26.39747143      10.54566599       0.60000000       0.00349020       0.00429279      -0.00049152      -5.73144382
Ni       0.00433241      24.61128915      14.09504626       0.60000000      -0.00112823       0.00643637      -0.00040099      -5.73079377
Ni      -0.01424995      26.36221918      15.87921077       0.60000000      -0.00203389       0.00561949      -0.00186147      -5.72993046
Ni       1.78339226      24.61471740      15.83914603       0.60000000       0.00042595       0.00656442      -0.00055252      -5.73103517
Ni       1.73279010      26.38620408      14.08987524       0.60000000      -0.00049389       0.00429676       0.00177843      -5.73100847
Ni       0.04665755      24.58122716      17.61008777       0.60000000      -0.00208448       0.00548971      -0.00169154      -5.73010623
Ni       0.01533817      26.33630172      19.39093954       0.60000000      -0.00405324       0.00523679       0.00022680      -5.73092073
Ni       1.81696272      24.58636442      19.35243559       0.60000000      -0.00207055       0.00611715      -0.00173782      -5.73115087
Ni       1.76538921      26.36727730      17.61602745       0.60000000      -0.00115376       0.00437815      -0.00084807      -5.73074412
Ni       0.08567743      24.53284596      21.10833821       0.60000000      -0.00311165       0.00759342      -0.00195993      -5.75360495
Ni       0.01355958      26.30165354      22.89336706       0.60000000      -0.01298619       0.00313837      -0.00239721      -5.69818735
Ni       1.79303514      24.56013936      22.86937880       0.60000000      -0.00206144       0.00641842      -0.00266037      -5.75347388
Ni       1.77235712      26.34621241      21.13026499       0.60000000      -0.00142422       0.00311530      -0.00142511      -5.73490012
Ni      -0.00501782      24.56460926      24.58226422       0.60000000      -0.00330178      -0.00334105      -0.00525448      -5.50906724
Ni      -0.25340990      26.31697586      26.20046368       0.60000000      -0.00032324      -0.00538477      -0.00829155      -5.42641360
Ni       1.67515945      24.64033349      26.34130640       0.60000000       0.00007659      -0.00212346      -0.00532876      -5.76781040
Ni       1.71507467      26.34593222      24.61323832       0.60000000      -0.00024166       0.00036804      -0.00431729      -5.76577568
Ni      -0.19948695      24.69916869      27.98338482       0.60000000       0.00432035      -0.00206411      -0.00447463      -5.48961216
Ni      -0.33129582      26.34494934      29.74241020       0.60000000      -0.00178246      -0.01068256      -0.00422248      -5.48834866
Ni       1.58813833      24.69036474      29.78507696       0.60000000      -0.00016224      -0.00041276       0.00158251      -5.76100820
Ni       1.55748500      26.38535849      28.03332353       0.60000000      -0.00078002      -0.00728399      -0.00371913      -5.74474198
Ni      -0.17311482      24.72069280      31.53341487       0.60000000       0.00241195       0.00185171       0.00364909      -5.48630470
Ni      -0.22276561      26.37416682      33.26898444       0.60000000      -0.00000453      -0.00463158       0.00415421      -5.48365551
Ni       1.60327731      24.68507931      33.29906743       0.60000000       0.00159966      -0.00058695       0.00499883      -5.75636214
Ni       1.57059873      26.40964817      31.52019460       0.60000000       0.00353303      -0.00384749       0.00468155      -5.75971895
Ni      -0.18505911      28.11126801      -0.18665888       0.60000000       0.00352730      -0.00200390       0.00253109      -5.67547852
Ni      -0.17652433      29.83491325       1.58813368       0.60000000       0.00030518      -0.00118310      -0.00061364      -5.73596549
Ni       1.61670557      28.13528339       1.62350148       0.60000000       0.00356227      -0.00172482       0.00193327      -5.73691750
Ni       1.58495407      29.84157542      -0.17196512       0.60000000      -0.00193173      -0.00271514      -0.00176422      -5.73898607
Ni      -0.13787335      28.12660838       3.40190059       0.60000000       0.00288900       0.00007148      -0.00051620      -5.72905093
Ni      -0.12925470      29.86097595       5.18785491       0.60000000       0.00255768       0.00562823      -0.00097899      -5.72916561
Ni       1.64244826      28.14558756       5.19521642       0.60000000       0.00157374       0.00032709      -0.00067159      -5.73062629
Ni       1.62130060      29.87177880       3.39807016       0.60000000       0.00109166       0.00136275       0.00114980      -5.73055911
Ni      -0.10400522      28.13052493       6.99393261       0.60000000       0.00182005       0.00375124      -0.00288838      -5.73031068
Ni      -0.10323689      29.86966562       8.77904994       0.60000000       0.00389102       0.00782809      -0.00199820      -5.72997165
Ni       1.66662493      28.14772879       8.76598645       0.60000000       0.00442509       0.00427467      -0.00176477      -5.73098284
Ni       1.64550319      29.88685010       6.97475589       0.60000000       0.00227808       0.00174164      -0.00106762      -5.73022020
Ni      -0.08050389      28.12778779      10.56923457       0.60000000       0.00440461       0.00683796      -0.00254953      -5.73074472
Ni      -0.08886368      29.86966132      12.35222537       0.60000000       0.00353297       0.00702661      -0.00250325      -5.73020434
Ni       1.69311745      28.14395076      12.32518850       0.60000000       0.00252165       0.00402687       0.00033408      -5.73116195
Ni       1.66572173      29.89096352      10.54659148       0.60000000       0.00437246       0.00529229      -0.00159761      -5.73066223
Ni      -0.05945623      28.12208489      14.12536325       0.60000000       0.00145972       0.00479785      -0.00206585      -5.73067522
Ni      -0.07977978      29.86352838      15.90409950       0.60000000       0.00278419       0.00605764      -0.00260076      -5.73054957
Ni       1.71931034      28.13397266      15.86874424       0.60000000       0.00086421       0.00460538      -0.00115752      -5.73096186
Ni       1.68573133      29.88791824      14.10430842       0.60000000       0.00113128       0.00263069      -0.00075609      -5.73100084
Ni      -0.04175338      28.11117314      17.65995796       0.60000000      -0.00084041       0.00295633      -0.00217865      -5.72907579
Ni      -0.07448538      29.85978632      19.43342581       0.60000000       0.00193691       0.00317906       0.00054353      -5.72904038
Ni       1.74255027      28.11875572      19.38643565       0.60000000      -0.00242602       0.00398338      -0.00177319      -5.73125482
Ni       1.70218301      29.87875304      17.64260713       0.60000000       0.00024627       0.00207876      -0.00243412      -5.73104656
Ni      -0.02070879      28.09961603      21.15840810       0.60000000      -0.00485224       0.00306007       0.00484145      -5.75142658
Ni      -0.10675897      29.86920177      22.95507356       0.60000000       0.00499429      -0.00036773      -0.00106179      -5.68319952
Ni       1.72415192      28.11030332      22.88772689       0.60000000      -0.00091479       0.00040970      -0.00127425      -5.75282788
Ni       1.70143152      29.87045565      21.16039331       0.60000000       0.00092696       0.00177205      -0.00210890      -5.73372841
Ni      -0.07309951      28.06976222      24.62324267       0.60000000       0.00108329       0.00203232      -0.00621889      -5.50375718
Ni      -0.34772919      29.80106887      26.24706650       0.60000000       0.00264715      -0.00474820      -0.00946669      -5.49272472
Ni       1.60263649      28.08690608      26.34111714       0.60000000      -0.00088386      -0.00462905      -0.00414929      -5.74843144
Ni       1.63718757      29.85132764      24.64659673       0.60000000       0.00214368      -0.00221416       0.00101604      -5.76150602
Ni      -0.36919288      28.02552510      27.93247247       0.60000000      -0.00476595      -0.01332236      -0.01230124      -5.53035253
Ni      -0.38909020      29.73112759      29.70992624       0.60000000      -0.00485912      -0.02112959      -0.01868675      -5.56740373
Ni       1.47623432      28.07700974      29.75866498       0.60000000       0.00121218      -0.00914551      -0.00042879      -5.72890794
Ni       1.47050978      29.79462015      28.03350008       0.60000000       0.00054337      -0.00479864      -0.00399857      -5.72367734
Ni      -0.35812718      28.02732695      31.50535110       0.60000000      -0.00068436      -0.01435563      -0.00726244      -5.53245717
Ni      -0.29787535      29.77533037      33.20344647       0.60000000      -0.00786826      -0.01599029      -0.00948997      -5.55658960
Ni       1.54087303      28.10531130      33.26396076       0.60000000       0.00123248      -0.00414089       0.00204318      -5.74704027
Ni       1.48651571      29.78681759      31.49123732       0.60000000      -0.00312035      -0.00797844      -0.00379724      -5.73312783
Ni      -0.22525600      31.51889489      -0.21951314       0.60000000      -0.00734885      -0.00729701      -0.00811232      -5.67527366
Ni      -0.19185685      33.27928059       1.56747793       0.60000000      -0.00765823      -0.00773906      -0.00801302      -5.72398180
Ni       1.59498131      31.58348847       1.60120895       0.60000000      -0.00211248      -0.00412517      -0.00226136      -5.73061889
Ni       1.56495833      33.28117248      -0.18657873       0.60000000      -0.00938584      -0.00845667      -0.00821291      -5.72466278
Ni      -0.15526177      31.57823374       3.37714581       0.60000000      -0.00149125       0.00101516      -0.00409125      -5.72588950
Ni      -0.12886750      33.33280579       5.17158270       0.60000000       0.00006679       0.00339579      -0.00467694      -5.72806203
Ni       1.62891757      31.61499684       5.17799159       0.60000000       0.00048477       0.00256296      -0.00092085      -5.72947800
Ni       1.61263613      33.33541815       3.38288336       0.60000000      -0.00244357      -0.00228993      -0.00373946      -5.72662008
Ni      -0.11763405      31.60390480       6.97668174       0.60000000       0.00322878       0.00753840      -0.00349948      -5.72929871
Ni      -0.10450603      33.35212016       8.76383905       0.60000000       0.00334839       0.00907880      -0.00321734      -5.72920293
Ni       1.65035030      31.62956190       8.75729122       0.60000000       0.00233971       0.00637987      -0.00322840      -5.72982591
Ni       1.64212013      33.36346018       6.96259331       0.60000000       0.00206557       0.00352026      -0.00439010      -5.72924197
Ni      -0.10297640      31.61189265      10.56364842       0.60000000       0.00307088       0.00744388      -0.00172832      -5.72924465
Ni      -0.10268743      33.35414716      12.34624331       0.60000000       0.00351873       0.01002865      -0.00251434      -5.72821695
Ni       1.66469821      31.63312498      12.32734738       0.60000000       0.00409887       0.00690246      -0.00286653      -5.73028702
Ni       1.65694146      33.37362451      10.54012347       0.60000000       0.00276109       0.00934752      -0.00355056      -5.72926664
Ni      -0.09980023      31.60926155      14.13157469       0.60000000       0.00475933       0.01011002      -0.00113579      -5.72962868
Ni      -0.10795904      33.34902793      15.90497633       0.60000000       0.00183840       0.01101702      -0.00144552      -5.72872418
Ni       1.67690643      31.62811480      15.87903471       0.60000000       0.00363305       0.00696745      -0.00116201      -5.73097503
Ni       1.66468809      33.37410203      14.10518924       0.60000000       0.00359181       0.00798382      -0.00172649      -5.72979873
Ni      -0.09937146      31.60290951      17.67363125       0.60000000       0.00496385       0.00727309      -0.00287559      -5.73078811
Ni      -0.11458897      33.34072376      19.43809470       0.60000000       0.00651044       0.00951785      -0.00126505      -5.73282748
Ni       1.68453043      31.61982796      19.40964947       0.60000000       0.00051395       0.00285117      -0.00194338      -5.73104542
Ni       1.67006640      33.36747247      17.64885148       0.60000000       0.00207958       0.00712866      -0.00174134      -5.73047650
Ni      -0.10937183      31.60180117      21.20463156       0.60000000       0.00575825       0.00551298      -0.00117245      -5.75030470
Ni      -0.11561096      33.34454061      22.94794554       0.60000000       0.01001096       0.00466669      -0.00002695      -5.63080794
Ni       1.67444878      31.60439969      22.91753138       0.60000000       0.00338607       0.00585321      -0.00070683      -5.75607646
Ni       1.66714816      33.35642988      21.17317228       0.60000000       0.00319184       0.00497997      -0.00187902      -5.73957491
Ni      -0.15734177      31.59894772      24.67254897       0.60000000       0.00539283      -0.00006106       0.00165695      -5.47367805
Ni      -0.23791348      33.27918839      26.37025448       0.60000000       0.00385115       0.00523283      -0.00045313      -5.48299021
Ni       1.57485498      31.55148556      26.38113527       0.60000000       0.00419788       0.00040747       0.00283705      -5.75303710
Ni       1.62444049      33.32418426      24.67282908       0.60000000       0.00410929       0.00589985      -0.00006267      -5.75847673
Ni      -0.38079058      31.50803965      27.99710402       0.60000000      -0.00137012      -0.00777645      -0.01592006      -5.53489351
Ni      -0.30881211      33.19758124      29.76532467       0.60000000      -0.00392167      -0.00911138      -0.01961767      -5.55138105
Ni       1.48323678      31.49914418      29.76886965       0.60000000      -0.00153800      -0.00619765      -0.00419118      -5.72932118
Ni       1.53953301      33.26887722      28.09481250       0.60000000       0.00138341       0.00154000      -0.00127534      -5.74092638
Ni      -0.36486514      31.46766216      31.46323822       0.60000000      -0.00934453      -0.02621130      -0.02873814      -5.56947207
Ni      -0.29382697      33.19062699      33.19246732       0.60000000      -0.02038459      -0.02167718      -0.02263938      -5.56711864
Ni       1.52321544      31.51852049      33.24128102       0.60000000      -0.00906184      -0.00843183      -0.00710274      -5.73120821
Ni       1.52213025      33.23922803      31.51114479       0.60000000      -0.00892723      -0.00611362      -0.00606878      -5.72945052
Ni       3.37465154      -0.13933370      -0.13686172       0.60000000      -0.00833349      -0.00544893      -0.00460109      -5.72531217
Ni       3.38967479       1.63426780       1.63688330       0.60000000      -0.00614117      -0.00612856      -0.00601068      -5.72686189
Ni       5.16841379      -0.10032935       1.64018136       0.60000000      -0.00420960      -0.00298859      -0.00041884      -5.72840601
Ni       5.16973060       1.63746430      -0.10029535       0.60000000      -0.00560868      -0.00165388      -0.00057682      -5.72843260
Ni       3.39196319      -0.10103026       3.39601676       0.60000000      -0.00412009      -0.00334866      -0.00567903      -5.72790164
Ni       3.41062265       1.66394232       5.17622097       0.60000000      -0.00337740      -0.00328140      -0.00613229      -5.72880888
Ni       5.17429652      -0.06585330       5.17495989       0.60000000      -0.00093003      -0.00435438      -0.00105375      -5.72947586
Ni       5.17454656       1.66571571       3.41238734       0.60000000      -0.00430335      -0.00536581      -0.00365205      -5.72872263
Ni       3.41088553      -0.07327356       6.95406338       0.60000000      -0.00176273       0.00071257      -0.00312519      -5.72937411
Ni       3.42803575       1.68102561       8.73595610       0.60000000       0.00032979       0.00363083      -0.00446662      -5.72933120
Ni       5.18322964      -0.04272421       8.72700892       0.60000000      -0.00113541      -0.00008928      -0.00067053      -5.72972733
Ni       5.18537192       1.69222171       6.95267090       0.60000000      -0.00118438      -0.00134650      -0.00281373      -5.72950828
Ni       3.42391560      -0.06090831      10.52065860       0.60000000       0.00076314       0.00613419      -0.00369645      -5.72930491
Ni       3.43911362       1.68609582      12.30042649       0.60000000       0.00054137       0.00690665      -0.00329949      -5.72894531
Ni       5.19408699      -0.03264139      12.28519438       0.60000000      -0.00065719       0.00348415      -0.00092738      -5.72975212
Ni       5.19634831       1.70725070      10.50691640       0.60000000      -0.00004765       0.00326444      -0.00167456      -5.72941291
Ni       3.43430468      -0.05891076      14.08295938       0.60000000       0.00216214       0.00658362      -0.00528091      -5.72967649
Ni       3.44587215       1.68398384      15.85769928       0.60000000       0.00168060       0.00730583      -0.00247185      -5.72958803
Ni       5.20729188      -0.03534528      15.84015144       0.60000000       0.00093775       0.00344779      -0.00219001      -5.73052299
Ni       5.20719370       1.71085008      14.06459274       0.60000000      -0.00152948       0.00404662      -0.00343925      -5.72960025
Ni       3.44317126      -0.06534749      17.62987158       0.60000000       0.00269172       0.00604701      -0.00242187      -5.73069006
Ni       3.44693141       1.67647104      19.39874053       0.60000000       0.00255316       0.00720542      -0.00374053      -5.73066115
Ni       5.22015074      -0.04985776      19.38177446       0.60000000       0.00088559       0.00416440      -0.00342236      -5.73121065
Ni       5.21579934       1.70362275      17.61545203       0.60000000       0.00093668       0.00548575      -0.00396006      -5.73046899
Ni       3.44653771      -0.07998854      21.15710338       0.60000000       0.00198766       0.00672007      -0.00402367      -5.73161912
Ni       3.43973326       1.66394645      22.91926909       0.60000000       0.00397022       0.00571298      -0.00230379      -5.73143500
Ni       5.22276875      -0.07443317      22.90375133       0.60000000       0.00013167       0.00555797      -0.00107862      -5.73112381
Ni       5.21792394       1.68798363      21.15100922       0.60000000       0.00182650       0.00628368      -0.00418765      -5.73107833
Ni       3.43139252      -0.10635842      24.66370921       0.60000000       0.00143271       0.00543219      -0.00187259      -5.73234868
Ni       3.41971957       1.64218205      26.40937180       0.60000000       0.00183756       0.00239830       0.00021654      -5.73086947
Ni       5.21015444      -0.10567312      26.39728367       0.60000000      -0.00213892       0.00402345       0.00059949      -5.73030043
Ni       5.21042339       1.66570706      24.66326307       0.60000000       0.00127558       0.00331853       0.00026114      -5.73105240
Ni       3.40193392      -0.13617319      28.12894758       0.60000000      -0.00059753      -0.00047349       0.00192338      -5.72901034
Ni       3.39850288       1.62234541      29.87538966       0.60000000      -0.00046013       0.00177078      -0.00048449      -5.73062557
Ni       5.18767892      -0.12822525      29.86445070       0.60000000      -0.00230819       0.00084788       0.00382387      -5.72928631
Ni       5.19442167       1.64298577      28.14826253       0.60000000       0.00032790       0.00191625       0.00145913      -5.73068321
Ni       3.37761104      -0.15417889      31.58183338       0.60000000      -0.00490070      -0.00155986       0.00041295      -5.72629774
Ni       3.38316503       1.61406205      33.33941154       0.60000000      -0.00462320      -0.00323464      -0.00198211      -5.72708780
Ni       5.17069960      -0.12906772      33.33613375       0.60000000      -0.00498438      -0.00040275       0.00186768      -5.72797674
Ni       5.17791168       1.62978064      31.61895849       0.60000000      -0.00213541      -0.00037727       0.00118421      -5.72964084
Ni       3.39463606       3.39289891      -0.09702418       0.60000000      -0.00563538      -0.00366514      -0.00417404      -5.72807163
Ni       3.40945001       5.17544240       1.66884225       0.60000000      -0.00332618      -0.00495444      -0.00460579      -5.72876978
Ni       5.17459652       3.41079870       1.66762486       0.60000000      -0.00578844      -0.00252535      -0.00501972      -5.72876167
Ni       5.17309347       5.17454720      -0.06183789       0.60000000      -0.00106208      -0.00181512      -0.00304400      -5.72949934
Ni       3.41029813       3.41124394       3.41298903       0.60000000      -0.00490106      -0.00543317      -0.00471772      -5.72831053
Ni       3.43340105       5.18585274       5.18942951       0.60000000      -0.00308283      -0.00442244      -0.00378420      -5.72924244
Ni       5.18690708       3.43374564       5.18779013       0.60000000      -0.00297685      -0.00404262      -0.00439276      -5.72925371
Ni       5.18550968       5.18723588       3.43695832       0.60000000      -0.00509343      -0.00426838      -0.00478077      -5.72923583
Ni       3.43289786       3.42851326       6.95693906       0.60000000      -0.00207204      -0.00028125      -0.00395623      -5.72935975
Ni       3.45754922       5.19149334       8.73618076       0.60000000      -0.00046123       0.00180568      -0.00202752      -5.72947305
Ni       5.20158551       3.45093885       8.73200107       0.60000000      -0.00032503      -0.00034515      -0.00266561      -5.72947985
Ni       5.20441796       5.20170846       6.96466092       0.60000000      -0.00170331      -0.00370260      -0.00354467      -5.72956473
Ni       3.44943166       3.43570092      10.51573483       0.60000000      -0.00048589       0.00414676      -0.00093178      -5.72919440
Ni       3.47476236       5.19111426      12.29369700       0.60000000      -0.00156337       0.00602376      -0.00084324      -5.72902811
Ni       5.21376585       3.45746229      12.28653116       0.60000000      -0.00106274       0.00422828      -0.00187111      -5.72922379
Ni       5.22244023       5.20938047      10.51109798       0.60000000      -0.00076035       0.00160185      -0.00203079      -5.72933382
Ni       3.45848322       3.43481720      14.07717702       0.60000000      -0.00001022       0.00645154      -0.00074808      -5.72884768
Ni       3.48125635       5.18759300      15.85204729       0.60000000      -0.00098397       0.00511429      -0.00364924      -5.72893316
Ni       5.22151167       3.45511778      15.84166013       0.60000000       0.00013763       0.00570010      -0.00411403      -5.72961676
Ni       5.23359213       5.20956675      14.06434130       0.60000000       0.00109810       0.00311660      -0.00120625      -5.72914827
Ni       3.45987617       3.43071606      17.62999039       0.60000000       0.00071642       0.00700280      -0.00370018      -5.72976458
Ni       3.47431324       5.18494181      19.39939577       0.60000000       0.00197440       0.00592784      -0.00373805      -5.73002213
Ni       5.22208501       3.44563563      19.38766637       0.60000000       0.00248431       0.00588053      -0.00361582      -5.73064554
Ni       5.23637483       5.20308585      17.61566310       0.60000000       0.00065293       0.00497948      -0.00320091      -5.72992313
Ni       3.45021783       3.42544792      21.16416352       0.60000000       0.00380455       0.00883633      -0.00276903      -5.73072898
Ni       3.45422989       5.18393389      22.92637319       0.60000000       0.00335101       0.00695274      -0.00350019      -5.73118609
Ni       5.21383269       3.43174892      22.91618042       0.60000000       0.00293335       0.00693390      -0.00179779      -5.73151934
Ni       5.22636707       5.19350765      21.15729658       0.60000000       0.00275314       0.00490215      -0.00375707      -5.73132169
Ni       3.43296211       3.41530405      24.67444271       0.60000000       0.00432128       0.00323911      -0.00315826      -5.73079544
Ni       3.43081762       5.18014564      26.42863271       0.60000000       0.00332826       0.00304071      -0.00298088      -5.73183244
Ni       5.19898092       3.41552270      26.42099336       0.60000000       0.00273453       0.00378202      -0.00213313      -5.73156768
Ni       5.20761929       5.18376295      24.68010059       0.60000000       0.00146374       0.00559009      -0.00133529      -5.73207450
Ni       3.41451766       3.40315725      28.15840874       0.60000000       0.00101020       0.00126860      -0.00126980      -5.73128974
Ni       3.41061172       5.17460176      29.90975769       0.60000000       0.00158632       0.00124516      -0.00530669      -5.73109049
Ni       5.18403332       3.40251480      29.90312645       0.60000000      -0.00013343       0.00019491       0.00001105      -5.73095351
Ni       5.18836507       5.17699323      28.17979990       0.60000000       0.00534265       0.00110248      -0.00418777      -5.73179817
Ni       3.39832077       3.39162126      31.62691113       0.60000000      -0.00145196       0.00023049      -0.00120885      -5.73008347
Ni       3.40057308       5.17002536      33.38115856       0.60000000      -0.00102704      -0.00102860      -0.00350706      -5.72961497
Ni       5.17276773       3.39761301      33.37769110       0.60000000      -0.00153234      -0.00009719      -0.00205228      -5.72959465
Ni       5.17584686       5.17181546      31.66021268       0.60000000       0.00016688       0.00119130      -0.00390709      -5.73074174
Ni       3.40700390       6.95478499      -0.06402586       0.60000000       0.00167461      -0.00317920      -0.00126440      -5.72942668
Ni       3.41799298       8.73758263       1.69258575       0.60000000       0.00435665      -0.00261687       0.00038835      -5.72925276
Ni       5.17929932       6.95517269       1.69876486       0.60000000      -0.00101129      -0.00305649      -0.00183558      -5.72941065
Ni       5.17145651       8.73459698      -0.03142643       0.60000000       0.00261657      -0.00280358      -0.00191560      -5.72960079
Ni       3.42799266       6.95567233       3.43560063       0.60000000      -0.00093396      -0.00464420      -0.00097857      -5.72928160
Ni       3.45061436       8.73043658       5.20463953       0.60000000      -0.00072727      -0.00204253      -0.00162291      -5.72941768
Ni       5.20111405       6.96218340       5.20770232       0.60000000      -0.00180563      -0.00318198      -0.00289088      -5.72956359
Ni       5.19103245       8.73417254       3.46119902       0.60000000       0.00055883      -0.00158508      -0.00122413      -5.72934383
Ni       3.45895544       6.95619913       6.96538043       0.60000000      -0.00247299      -0.00270394      -0.00270775      -5.72958004
Ni       3.48815037       8.72320327       8.74027025       0.60000000      -0.00301186      -0.00001558      -0.00160117      -5.72952628
Ni       5.22675446       6.96776385       8.74123609       0.60000000      -0.00103578      -0.00054635      -0.00131865      -5.72951424
Ni       5.22261323       8.73442060       6.97923786       0.60000000      -0.00186023      -0.00351688      -0.00178760      -5.72960502
Ni       3.48617252       6.95375605      10.51352007       0.60000000      -0.00103568       0.00258619      -0.00078954      -5.72925711
Ni       3.51811769       8.71733688      12.28932912       0.60000000      -0.00254167       0.00126699      -0.00164623      -5.72904813
Ni       5.24706639       6.96906164      12.28883885       0.60000000      -0.00222027       0.00253474      -0.00144900      -5.72913808
Ni       5.25368646       8.73365369      10.51781483       0.60000000      -0.00257203       0.00065160      -0.00280990      -5.72925669
Ni       3.50324167       6.94992496      14.06943709       0.60000000      -0.00112317       0.00374305      -0.00138918      -5.72880560
Ni       3.53490844       8.71317356      15.84264310       0.60000000      -0.00275831       0.00304683      -0.00378334      -5.72835004
Ni       5.25620936       6.96552155      15.83963202       0.60000000       0.00011189       0.00337961      -0.00191028      -5.72910202
Ni       5.27483404       8.73215722      14.06495856       0.60000000      -0.00227635       0.00332549      -0.00165978      -5.72882754
Ni       3.50599873       6.94649063      17.62360150       0.60000000      -0.00005430       0.00662084      -0.00408477      -5.72893989
Ni       3.53417038       8.71390515      19.39239253       0.60000000      -0.00237987       0.00305060      -0.00366524      -5.72861570
Ni       5.25028026       6.95650006      19.38715670       0.60000000       0.00207360       0.00696777      -0.00229649      -5.73030764
Ni       5.28140390       8.72823098      17.61197480       0.60000000      -0.00112437       0.00256638      -0.00222416      -5.72862756
Ni       3.49024019       6.94828695      21.16650141       0.60000000       0.00041156       0.00464045      -0.00583637      -5.73031247
Ni       3.50408588       8.72231761      22.93289787       0.60000000       0.00074602       0.00269600      -0.00728754      -5.73029113
Ni       5.22755658       6.94984309      22.92659687       0.60000000       0.00508581       0.00662655      -0.00401468      -5.73205078
Ni       5.26299566       8.72014461      21.15898422       0.60000000       0.00193345       0.00414956      -0.00393791      -5.73013908
Ni       3.45771788       6.95301707      24.68742662       0.60000000       0.00165377       0.00645712      -0.00679038      -5.73158330
Ni       3.45733746       8.73489245      26.44571425       0.60000000       0.00403570       0.00297481      -0.00973491      -5.73116428
Ni       5.19989954       6.94821781      26.44442654       0.60000000       0.00421767       0.00532186      -0.00454730      -5.73234016
Ni       5.22443350       8.71997557      24.69637207       0.60000000       0.00717187       0.00753529      -0.00603735      -5.73191530
Ni       3.42718811       6.95598936      28.18265811       0.60000000       0.00377961       0.00077382      -0.00645064      -5.73148561
Ni       3.42171845       8.74191939      29.93177055       0.60000000       0.00427231      -0.00142735      -0.00489159      -5.73076355
Ni       5.17924999       6.94946669      29.93806768       0.60000000       0.00479167       0.00020179      -0.00705309      -5.73143208
Ni       5.19156093       8.72598493      28.20602888       0.60000000       0.00490475       0.00280805      -0.00891448      -5.73183960
Ni       3.40785662       6.95581167      31.66001628       0.60000000       0.00209989      -0.00091681      -0.00641284      -5.73034972
Ni       3.40622481       8.74291692      33.40734771       0.60000000       0.00507487      -0.00345372      -0.00311260      -5.72971481
Ni       5.17119932       6.95089609      33.41579266       0.60000000       0.00146569      -0.00094912      -0.00561096      -5.73012573
Ni       5.17168260       8.73217947      31.69162577       0.60000000       0.00487600      -0.00189156      -0.00676047      -5.73064268
Ni       3.40929427      10.52844737      -0.04531594       0.60000000       0.00596133      -0.00389004      -0.00188670      -5.72916478
Ni       3.41873142      12.30669570       1.70508475       0.60000000       0.00253221      -0.00207873      -0.00151577      -5.72867614
Ni       5.17758909      10.51619546       1.72226873       0.60000000       0.00491869      -0.00175108      -0.00103174      -5.72917640
Ni       5.16747519      12.30452253      -0.01489329       0.60000000       0.00380749      -0.00424107      -0.00148225      -5.72908181
Ni       3.43486032      10.51477397       3.45284430       0.60000000       0.00367202      -0.00219095      -0.00075869      -5.72901732
Ni       3.45688701      12.28590773       5.21651442       0.60000000       0.00364409      -0.00433012      -0.00183513      -5.72921538
Ni       5.20900812      10.50964843       5.22529862       0.60000000       0.00111994      -0.00317696      -0.00111449      -5.72932386
Ni       5.19083294      12.29274978       3.47801411       0.60000000       0.00355373      -0.00195224      -0.00021878      -5.72896296
Ni       3.47729740      10.50041368       6.97464028       0.60000000      -0.00038236      -0.00169294      -0.00124203      -5.72952384
Ni       3.50719947      12.26709038       8.74585072       0.60000000      -0.00281944      -0.00090662      -0.00333375      -5.72964472
Ni       5.24839557      10.50374735       8.75136587       0.60000000      -0.00192430      -0.00196383      -0.00114593      -5.72951633
Ni       5.23149546      12.28039946       6.99111192       0.60000000       0.00313835      -0.00301947      -0.00105648      -5.72952390
Ni       3.51980480      10.48896028      10.51463259       0.60000000      -0.00200244       0.00210132      -0.00344281      -5.72937828
Ni       3.55401205      12.25581698      12.28680640       0.60000000      -0.00580834       0.00028279      -0.00425649      -5.72900498
Ni       5.28434788      10.50109482      12.29325948       0.60000000      -0.00457558       0.00265290      -0.00430654      -5.72894013
Ni       5.27758675      12.27207566      10.52350743       0.60000000      -0.00179366       0.00031933      -0.00218663      -5.72940356
Ni       3.55274222      10.48365616      14.06244704       0.60000000      -0.00463581      -0.00058281      -0.00184867      -5.72851932
Ni       3.58916596      12.25232249      15.83236296       0.60000000      -0.00659459      -0.00132652      -0.00378798      -5.72815472
Ni       5.30656111      10.50165210      15.83881377       0.60000000      -0.00208564       0.00098442      -0.00418608      -5.72802621
Ni       5.31874860      12.27318015      14.06667876       0.60000000      -0.00518515      -0.00105848      -0.00505498      -5.72842830
Ni       3.56949784      10.48190358      17.61239603       0.60000000      -0.00429606       0.00138961      -0.00415706      -5.72785163
Ni       3.60038325      12.25458572      19.38070557       0.60000000      -0.00585630       0.00181133      -0.00271018      -5.72725737
Ni       5.30861865      10.50016453      19.38328450       0.60000000      -0.00267401       0.00322254      -0.00313357      -5.72700727
Ni       5.34136446      12.27778809      17.61113840       0.60000000      -0.00683566      -0.00182710      -0.00532397      -5.72679025
Ni       3.55926831      10.48958438      21.16128421       0.60000000      -0.00254966       0.00208341      -0.00646889      -5.72790265
Ni       3.57262409      12.27757407      22.92965568       0.60000000      -0.00417561      -0.00225029      -0.00453470      -5.72673976
Ni       5.27174876      10.49752199      22.93213460       0.60000000       0.00344698       0.00479334      -0.00691401      -5.72890520
Ni       5.33133765      12.28135185      21.15445773       0.60000000      -0.00426601       0.00200181      -0.00324067      -5.72503048
Ni       3.50888088      10.51271047      24.69658715       0.60000000      -0.00155663       0.00172260      -0.00868228      -5.72902733
Ni       3.50549085      12.30974397      26.44784191       0.60000000       0.00046760      -0.00514674      -0.00345555      -5.72904176
Ni       5.22103761      10.50530081      26.46126691       0.60000000       0.00553707       0.00000060      -0.00798939      -5.73120308
Ni       5.27834716      12.29296661      24.69944096       0.60000000      -0.00044062      -0.00030691      -0.00756523      -5.72703809
Ni       3.45136246      10.52693877      28.19559615       0.60000000       0.00674313      -0.00271042      -0.00584547      -5.73068476
Ni       3.43999716      12.32283042      29.93655413       0.60000000       0.00788265      -0.00342837      -0.00333409      -5.73028857
Ni       5.18248207      10.51425757      29.96009549       0.60000000       0.00684991      -0.00128056      -0.00823173      -5.73113942
Ni       5.21400509      12.29935202      28.21633838       0.60000000       0.00604698       0.00003397      -0.00674678      -5.73069721
Ni       3.41381148      10.53311609      31.67479005       0.60000000       0.00900510      -0.00272391      -0.00090631      -5.73005295
Ni       3.40809491      12.32240835      33.41464801       0.60000000       0.00780792      -0.00336840      -0.00156208      -5.72921395
Ni       5.16687842      10.51942085      33.43928859       0.60000000       0.00530513      -0.00290592      -0.00339576      -5.72979844
Ni       5.17343648      12.30693556      31.70525597       0.60000000       0.00840518      -0.00394695      -0.00546461      -5.73033249
Ni       3.40675630      14.10234800      -0.04554082       0.60000000       0.00839449      -0.00388409      -0.00075871      -5.72833657
Ni       3.41409171      15.86966488       1.70351091       0.60000000       0.00834406      -0.00365956      -0.00015406      -5.72842771
Ni       5.17394925      14.08166401       1.73257962       0.60000000       0.00364467      -0.00319748      -0.00237366      -5.72865605
Ni       5.16600597      15.87278942      -0.01688636       0.60000000       0.00874059      -0.00396964      -0.00117117      -5.72901106
Ni       3.43411325      14.07654773       3.46149326       0.60000000       0.00362599      -0.00287939       0.00092229      -5.72881353
Ni       3.45431303      15.84049163       5.22465294       0.60000000       0.00454489      -0.00460099      -0.00010687      -5.72960687
Ni       5.20913170      14.06325025       5.23689631       0.60000000       0.00296471      -0.00222465      -0.00087423      -5.72920352
Ni       5.18641922      15.85054167       3.48409165       0.60000000       0.00591390      -0.00333817       0.00054104      -5.72891253
Ni       3.48214207      14.05168965       6.98339141       0.60000000       0.00402275      -0.00279063      -0.00149787      -5.72969079
Ni       3.50866032      15.81560156       8.75101195       0.60000000       0.00106885      -0.00103927      -0.00214740      -5.72997010
Ni       5.25745898      14.04798699       8.75786417       0.60000000       0.00102816      -0.00224285      -0.00077128      -5.72983569
Ni       5.22986021      15.82920705       6.99801856       0.60000000       0.00366897      -0.00273910      -0.00134995      -5.72985011
Ni       3.53769388      14.03289286      10.51560663       0.60000000      -0.00210051      -0.00024464      -0.00246171      -5.72958636
Ni       3.56830984      15.79859256      12.28316438       0.60000000      -0.00429062      -0.00028615      -0.00322965      -5.72958058
Ni       5.31012673      14.04222661      12.29409402       0.60000000      -0.00359246      -0.00100346      -0.00356825      -5.72922826
Ni       5.28485281      15.81508146      10.52403470       0.60000000      -0.00012742      -0.00132461      -0.00155954      -5.72993332
Ni       3.58870094      14.02296136      14.05536532       0.60000000      -0.00792244       0.00168918      -0.00508300      -5.72890431
Ni       3.61831727      15.79008798      15.81960823       0.60000000      -0.00891284       0.00045985      -0.00236266      -5.72945368
Ni       5.35438223      14.04776393      15.83798261       0.60000000      -0.00875518      -0.00275143      -0.00545210      -5.72802556
Ni       5.34325209      15.81267718      14.06197911       0.60000000      -0.00861799      -0.00065049      -0.00244787      -5.72909081
Ni       3.62030912      14.02157996      17.59883838       0.60000000      -0.00696302      -0.00050198      -0.00304308      -5.72826481
Ni       3.63838682      15.79172504      19.36711864       0.60000000      -0.00477814       0.00079251      -0.00268096      -5.72900504
Ni       5.36813228      14.05582178      19.38115849       0.60000000      -0.00718629      -0.00423950      -0.00232879      -5.72643983
Ni       5.38015428      15.82025957      17.60538772       0.60000000      -0.00658844      -0.00421882      -0.00328464      -5.72890121
Ni       3.61803644      14.03338783      21.15075700       0.60000000      -0.00601324       0.00058196      -0.00121688      -5.72721350
Ni       3.61458110      15.81779522      22.91650605       0.60000000      -0.00580444      -0.00005459       0.00250329      -5.72780246
Ni       5.34723124      14.07136403      22.92237580       0.60000000      -0.00646743       0.00218515      -0.00160306      -5.72329563
Ni       5.38496290      15.83381628      21.14820250       0.60000000      -0.00761639      -0.00441047      -0.00042179      -5.72643763
Ni       3.56249620      14.07699009      24.68829279       0.60000000       0.00123075       0.00106667      -0.00034129      -5.72646499
Ni       3.54485333      15.87210359      26.42941714       0.60000000      -0.00163203      -0.00389978       0.00184213      -5.72944683
Ni       5.27983314      14.09222554      26.45251497       0.60000000      -0.00301836      -0.00464197      -0.00220511      -5.72767073
Ni       5.34272205      15.86335475      24.67857620       0.60000000       0.00415847       0.00383407      -0.00268709      -5.72556984
Ni       3.49185392      14.10829780      28.18639604       0.60000000      -0.00085154      -0.00518872       0.00033213      -5.72929776
Ni       3.46525502      15.90136270      29.91278697       0.60000000       0.00428492      -0.00664781      -0.00038883      -5.72971034
Ni       5.20302649      14.09732100      29.95959130       0.60000000       0.00816384      -0.00267598      -0.00469409      -5.73025393
Ni       5.26951748      15.88916157      28.19158783       0.60000000      -0.00003441      -0.00508361       0.00150776      -5.72698468
Ni       3.42491350      14.11603995      31.66981888       0.60000000       0.00728785      -0.00502248      -0.00614866      -5.72983086
Ni       3.41129476      15.89681506      33.39764988       0.60000000       0.00793758      -0.00569490      -0.00175734      -5.72854722
Ni       5.16794677      14.09559982      33.44445670       0.60000000       0.00624597      -0.00503476      -0.00556585      -5.72964239
Ni       5.19201469      15.88747492      31.69139499       0.60000000       0.00653806      -0.00335370      -0.00243066      -5.73005444
Ni       3.40671838      17.65919655      -0.06301787       0.60000000       0.00919998      -0.00233467      -0.00118682      -5.72801119
Ni       3.41552781      19.41137698       1.69283245       0.60000000       0.00846733      -0.00223485       0.00135011      -5.72963423
Ni       5.17250361      17.63860660       1.72778545       0.60000000       0.00864681      -0.00456945      -0.00166038      -5.72899586
Ni       5.17665355      19.42169945      -0.03910836       0.60000000       0.00995655      -0.00467809      -0.00455292      -5.72861737
Ni       3.42944092      17.62884277       3.46294348       0.60000000       0.00697710      -0.00399114       0.00098708      -5.72965264
Ni       3.44492542      19.38621635       5.22576115       0.60000000       0.00583744      -0.00385824      -0.00104483      -5.73052692
Ni       5.20289166      17.61369648       5.23956355       0.60000000       0.00314058      -0.00155196       0.00002607      -5.72983724
Ni       5.18388179      19.39751993       3.47765370       0.60000000       0.00714863      -0.00383691       0.00061604      -5.72995806
Ni       3.47527302      17.60209035       6.98970104       0.60000000       0.00215778      -0.00342307      -0.00021924      -5.73019117
Ni       3.49413685      19.36394429       8.75536699       0.60000000       0.00113193      -0.00321142      -0.00156407      -5.73053932
Ni       5.25078770      17.59470176       8.75859879       0.60000000       0.00205472      -0.00405960      -0.00032260      -5.73031694
Ni       5.21710778      19.37702694       6.99544207       0.60000000       0.00502591      -0.00412548       0.00067776      -5.73077250
Ni       3.53353707      17.57921676      10.51712046       0.60000000      -0.00056033       0.00174297      -0.00044476      -5.73014009
Ni       3.55465437      19.34289712      12.28212300       0.60000000      -0.00330443       0.00408831       0.00055965      -5.73038864
Ni       5.31153305      17.58307446      12.28739770       0.60000000      -0.00349628      -0.00030776       0.00040922      -5.72993457
Ni       5.27055619      19.36099876      10.51858071       0.60000000      -0.00012155      -0.00006088       0.00003966      -5.73043919
Ni       3.59396576      17.56334334      14.04748004       0.60000000      -0.00471843       0.00334350      -0.00274371      -5.73010594
Ni       3.60927434      19.32703329      15.81219030       0.60000000      -0.00544614       0.00237406       0.00002974      -5.73067009
Ni       5.36668670      17.58117759      15.82590355       0.60000000      -0.00847326      -0.00099291      -0.00092103      -5.72980404
Ni       5.33153813      19.35049979      14.04972537       0.60000000      -0.00278279       0.00056694       0.00178359      -5.73002356
Ni       3.63552267      17.55586026      17.58562669       0.60000000      -0.00762857       0.00080576      -0.00345400      -5.73024416
Ni       3.63613893      19.31904642      19.35303556       0.60000000      -0.00825208      -0.00306839      -0.00187050      -5.73099655
Ni       5.39549012      17.58737882      19.36974296       0.60000000      -0.00855808      -0.00415092      -0.00206439      -5.73008144
Ni       5.37813074      19.34427908      17.58915371       0.60000000      -0.00739320       0.00071259       0.00025810      -5.73052752
Ni       3.63807641      17.56329085      21.13391574       0.60000000      -0.00591180      -0.00052708       0.00051375      -5.73064858
Ni       3.61564991      19.34123311      22.89567143       0.60000000      -0.00975794      -0.00506753       0.00486989      -5.73156482
Ni       5.38356024      17.60817423      22.90560907       0.60000000      -0.00408782      -0.00116011      -0.00180570      -5.72891927
Ni       5.39522938      19.34755186      21.12839853       0.60000000      -0.01058189       0.00416084      -0.00108789      -5.73106217
Ni       3.58466161      17.61766078      24.66813733       0.60000000      -0.00608059      -0.00568062       0.00632473      -5.72954977
Ni       3.54306436      19.40091041      26.39936089       0.60000000      -0.00202205      -0.00701493       0.00688828      -5.73315543
Ni       5.32790143      17.64915659      26.41911600       0.60000000       0.00354752      -0.00440657      -0.00145319      -5.72769886
Ni       5.36724744      19.38355931      24.64951341       0.60000000      -0.00788373      -0.00393213      -0.00184288      -5.73126888
Ni       3.50733420      17.66164648      28.15598567       0.60000000       0.00311308      -0.00333682       0.00042281      -5.73068219
Ni       3.46441401      19.43530984      29.86939154       0.60000000      -0.00111002      -0.00460514       0.00147112      -5.72849452
Ni       5.25522592      17.66989565      29.91235639       0.60000000       0.00055362      -0.00535164       0.00291988      -5.72713768
Ni       5.30121138      19.41847226      28.14482920       0.60000000      -0.00238006      -0.00544309       0.00316706      -5.72844023
Ni       3.43760470      17.67872570      31.63013174       0.60000000       0.00395504      -0.00564720       0.00175251      -5.72813517
Ni       3.41075775      19.43833550      33.36027186       0.60000000       0.00600438      -0.00365362       0.00125452      -5.72611105
Ni       5.17976153      17.66287776      33.42367517       0.60000000       0.00809679      -0.00554821      -0.00393018      -5.72936338
Ni       5.22067147      19.43406246      31.64531450       0.60000000       0.00498472      -0.00644801       0.00018817      -5.72938955
Ni       3.41122431      21.18168279      -0.08638075       0.60000000       0.00736599      -0.00385183       0.00176310      -5.72884637
Ni       3.41374347      22.92713469       1.67356092       0.60000000       0.00558715      -0.00446596       0.00361838      -5.73064893
Ni       5.18173722      21.17362489       1.70562830       0.60000000       0.00823884      -0.00546770      -0.00123473      -5.72934657
Ni       5.18898156      22.93196605      -0.07188766       0.60000000       0.00634470      -0.00759038       0.00112873      -5.72949827
Ni       3.42499942      21.16256613       3.45276011       0.60000000       0.00766821      -0.00320997       0.00309024      -5.73065019
Ni       3.43166035      22.91444876       5.21604271       0.60000000       0.00532410      -0.00192447       0.00298995      -5.73146456
Ni       5.19307773      21.15553455       5.22959538       0.60000000       0.00498563      -0.00327571       0.00249506      -5.73131812
Ni       5.18373495      22.92406112       3.45686149       0.60000000       0.00649932      -0.00252191       0.00132105      -5.73105180
Ni       3.45778794      21.14430655       6.98990712       0.60000000       0.00354935      -0.00473018      -0.00029586      -5.73112851
Ni       3.46695821      22.90166221       8.75612184       0.60000000       0.00364260      -0.00252572      -0.00036804      -5.73144585
Ni       5.23025002      21.14219030       8.75219533       0.60000000       0.00246113      -0.00622476       0.00018240      -5.73121786
Ni       5.19984372      22.91609132       6.98333834       0.60000000       0.00570040      -0.00489614       0.00290453      -5.73199421
Ni       3.50882851      21.12492978      10.52121743       0.60000000       0.00150504       0.00162767       0.00141858      -5.73076695
Ni       3.51764606      22.88476959      12.29005594       0.60000000       0.00067693       0.00383556       0.00046198      -5.73090315
Ni       5.28575258      21.12807709      12.27997503       0.60000000       0.00126102       0.00154696       0.00207499      -5.73031276
Ni       5.24003884      22.90676866      10.51222252       0.60000000       0.00337346      -0.00329025       0.00238087      -5.73124224
Ni       3.56753569      21.10546895      14.04874062       0.60000000      -0.00396310       0.00376713       0.00003583      -5.73076963
Ni       3.56915123      22.86412612      15.81826054       0.60000000      -0.00428493       0.00314090       0.00084329      -5.73096073
Ni       5.34192632      21.11321813      15.81477789       0.60000000      -0.00504509       0.00214118      -0.00008389      -5.73017949
Ni       5.29438759      22.89125246      14.04650223       0.60000000      -0.00069577       0.00261815       0.00074621      -5.73029995
Ni       3.60992247      21.08664969      17.58057539       0.60000000      -0.00528694       0.00110304      -0.00255824      -5.73100072
Ni       3.59293775      22.84162978      19.34996244       0.60000000      -0.00244166       0.00155923       0.00047633      -5.73050088
Ni       5.37667089      21.10223771      19.35202998       0.60000000      -0.00908083       0.00002464       0.00235802      -5.73061687
Ni       5.34069997      22.86988972      17.58200000       0.60000000      -0.00888755       0.00422393       0.00271499      -5.73019350
Ni       3.61728302      21.07954195      21.11928478       0.60000000      -0.01165388      -0.00073818       0.00178170      -5.73105645
Ni       3.58379195      22.84018300      22.87406599       0.60000000      -0.00990235       0.00355334       0.00435808      -5.73119366
Ni       5.38235576      21.11023639      22.87665598       0.60000000      -0.01769492       0.00475193       0.00405188      -5.73135871
Ni       5.36146033      22.85938858      21.10863940       0.60000000      -0.00639877      -0.00158718       0.00361313      -5.73073906
Ni       3.57275121      21.12074336      24.64050914       0.60000000      -0.00316885      -0.00710585       0.00243642      -5.73238105
Ni       3.51959600      22.88982058      26.36454815       0.60000000      -0.00088001      -0.00271985       0.00183843      -5.73257703
Ni       5.33776840      21.14818448      26.37893820       0.60000000      -0.00572163      -0.00682499       0.00629312      -5.73034686
Ni       5.35279926      22.87129759      24.61507780       0.60000000      -0.00929320       0.00191955       0.00722513      -5.73011935
Ni       3.49367795      21.17009866      28.11472108       0.60000000      -0.00328965      -0.00415556       0.00551114      -5.73016924
Ni       3.43745159      22.92730695      29.82888475       0.60000000      -0.00135365       0.00199607       0.00413715      -5.72743225
Ni       5.25553665      21.17878820      29.87449697       0.60000000       0.00395388      -0.00444953       0.00224006      -5.73009932
Ni       5.28832624      22.90635287      28.10932368       0.60000000      -0.00250189      -0.00395998       0.00545983      -5.72965157
Ni       3.42452688      21.19153341      31.59219069       0.60000000       0.00256649      -0.00373013      -0.00104182      -5.72714144
Ni       3.41055754      22.93670271      33.33680563       0.60000000       0.00404917      -0.00348076       0.00242877      -5.73088109
Ni       5.19628237      21.18629267      33.38264798       0.60000000       0.00747152      -0.00601682      -0.00226872      -5.72889048
Ni       5.21764902      22.92881271      31.60710207       0.60000000       0.00436381      -0.00470800       0.00221457      -5.72947192
Ni       3.40717737      24.67525888      -0.10922251       0.60000000       0.00551969      -0.00531981       0.00333509      -5.73242629
Ni       3.40469087      26.41320437       1.65103781       0.60000000       0.00228254      -0.00305004       0.00261023      -5.73110193
Ni       5.18417838      24.67723282       1.67886545       0.60000000       0.00440811      -0.00457221       0.00269553      -5.73070359
Ni       5.18793381      26.41349880      -0.10155826       0.60000000       0.00361222      -0.00461972       0.00335148      -5.73014301
Ni       3.41439154      24.67192709       3.43453110       0.60000000       0.00493800      -0.00355808       0.00408256      -5.73062652
Ni       3.41516546      26.41807877       5.20004042       0.60000000       0.00393778      -0.00118956       0.00454240      -5.73150283
Ni       5.18428292      24.67785742       5.20983674       0.60000000       0.00374376      -0.00231331       0.00113170      -5.73200333
Ni       5.18027034      26.42554169       3.43240107       0.60000000       0.00054404      -0.00385301       0.00361977      -5.73174185
Ni       3.43529047      24.66676268       6.98180375       0.60000000       0.00584628      -0.00200725       0.00175510      -5.73171401
Ni       3.43789367      26.41783496       8.75234032       0.60000000       0.00405776      -0.00085977      -0.00042979      -5.73161560
Ni       5.20508181      24.67672399       8.74192750       0.60000000       0.00392629      -0.00452773       0.00281636      -5.73196238
Ni       5.18435328      26.43317845       6.96759502       0.60000000       0.00608757      -0.00271903       0.00391926      -5.73202723
Ni       3.47211199      24.65710301      10.52574749       0.60000000       0.00312323       0.00093782       0.00120470      -5.73148209
Ni       3.47244893      26.40945872      12.29958001       0.60000000       0.00217282       0.00514551       0.00282466      -5.73138982
Ni       5.24588086      24.66763890      12.27908472       0.60000000       0.00052428       0.00046476       0.00272590      -5.73114419
Ni       5.20813860      26.43427066      10.50840553       0.60000000       0.00373090      -0.00287318       0.00270087      -5.73170441
Ni       3.51798213      24.64154068      14.06249715       0.60000000       0.00137649       0.00300579       0.00169729      -5.73098814
Ni       3.51068157      26.39422359      15.83743486       0.60000000       0.00310602       0.00262604       0.00276827      -5.73117548
Ni       5.29379744      24.64882494      15.81717634       0.60000000       0.00201892       0.00241561       0.00105846      -5.73052049
Ni       5.24609470      26.42348188      14.05203474       0.60000000       0.00246451       0.00159138       0.00292486      -5.73122668
Ni       3.55888930      24.61874739      17.58952216       0.60000000      -0.00130235       0.00367808       0.00058889      -5.73112273
Ni       3.53781459      26.37108170      19.36180741       0.60000000      -0.00265749       0.00592110       0.00088926      -5.73088783
Ni       5.32906348      24.62366787      19.34569049       0.60000000      -0.00512606       0.00242903       0.00439596      -5.73058444
Ni       5.28708430      26.40063388      17.58904188       0.60000000      -0.00106246       0.00230361       0.00174580      -5.73102134
Ni       3.56720742      24.59706408      21.11071879       0.60000000      -0.00095190       0.00408779       0.00084333      -5.73051637
Ni       3.52812477      26.35589409      22.86866299       0.60000000       0.00174225       0.00252288      -0.00006171      -5.73125404
Ni       5.33682066      24.61528785      22.85907532       0.60000000      -0.00192210      -0.00281058       0.00101186      -5.73021126
Ni       5.30989272      26.37443582      21.10788628       0.60000000      -0.00241730       0.00512266       0.00131065      -5.73039281
Ni       3.53627420      24.60625768      24.61491905       0.60000000      -0.00553144       0.00511904       0.00104891      -5.73385620
Ni       3.47425963      26.36955625      26.35051318       0.60000000      -0.00081073      -0.00144815      -0.00051370      -5.73265648
Ni       5.30739904      24.62935026      26.35322794       0.60000000      -0.00449223      -0.00131213       0.00459600      -5.72926760
Ni       5.30199318      26.36769870      24.60710752       0.60000000      -0.00028011      -0.00192120       0.00294906      -5.72922558
Ni       3.45739867      24.64972212      28.08583341       0.60000000      -0.00012334      -0.00301433       0.00059171      -5.72940099
Ni       3.40063433      26.39395474      29.80445456       0.60000000       0.00292191      -0.00301809       0.00276915      -5.72690958
Ni       5.24011152      24.65607849      29.84148805       0.60000000       0.00269152      -0.00386755       0.00409505      -5.72864377
Ni       5.25745016      26.37798273      28.08977936       0.60000000      -0.00231976      -0.00091742       0.00270701      -5.72853535
Ni       3.40856691      24.67312461      31.56397094       0.60000000       0.00349341      -0.00285688       0.00418460      -5.73250252
Ni       3.39342185      26.40716960      33.30959490       0.60000000       0.00426503      -0.00121414       0.00405988      -5.73332059
Ni       5.19827952      24.67259143      33.34886788       0.60000000       0.00712769      -0.00561764       0.00336355      -5.72929752
Ni       5.20769858      26.39746620      31.57730212       0.60000000       0.00298233      -0.00354149       0.00248671      -5.72839922
Ni       3.39040325      28.13742123      -0.13454200       0.60000000       0.00258165      -0.00341284       0.00199041      -5.72989887
Ni       3.38951779      29.87758388       1.62961395       0.60000000       0.00001060      -0.00232804       0.00035315      -5.73085129
Ni       5.17929879      28.15772561       1.65293773       0.60000000       0.00062258      -0.00356209       0.00177447      -5.73082840
Ni       5.17776284      29.87620552      -0.12345726       0.60000000      -0.00144612      -0.00371232       0.00024003      -5.72947764
Ni       3.40248656      28.15526855       3.41538456       0.60000000       0.00145670      -0.00209883       0.00095304      -5.73124713
Ni       3.40186155      29.89979252       5.18473377       0.60000000       0.00126573      -0.00153213       0.00027925      -5.73095834
Ni       5.17666777      28.17611560       5.19033969       0.60000000       0.00195913      -0.00333086       0.00429740      -5.73177660
Ni       5.17391456      29.90574944       3.41230855       0.60000000       0.00173172      -0.00405197       0.00125697      -5.73106778
Ni       3.41526136      28.16506381       6.97054140       0.60000000       0.00540405      -0.00068865       0.00088110      -5.73122555
Ni       3.41711863      29.91126670       8.74595575       0.60000000       0.00387760       0.00127644      -0.00165869      -5.73079854
Ni       5.18554351      28.18704045       8.73327689       0.60000000       0.00377753      -0.00326256       0.00273447      -5.73162323
Ni       5.17539299      29.92666818       6.95541730       0.60000000       0.00184612      -0.00196988       0.00257676      -5.73129410
Ni       3.43835468      28.16637418      10.52677768       0.60000000       0.00430809       0.00282759       0.00135394      -5.73139668
Ni       3.43808470      29.91222852      12.30451941       0.60000000       0.00346994       0.00544218       0.00076960      -5.73124099
Ni       5.20913162      28.18657097      12.28199402       0.60000000       0.00520794       0.00076904       0.00028864      -5.73152995
Ni       5.18720981      29.93689645      10.50670027       0.60000000       0.00439675      -0.00039788      -0.00065018      -5.73118037
Ni       3.46853912      28.15904640      14.07651435       0.60000000       0.00299840       0.00255693       0.00201414      -5.73138809
Ni       3.46323549      29.90387118      15.85287062       0.60000000       0.00273456       0.00280735       0.00042588      -5.73141778
Ni       5.24437000      28.17325588      15.82748244       0.60000000       0.00271821       0.00092272       0.00007054      -5.73152173
Ni       5.21072404      29.93381918      14.05873792       0.60000000       0.00487106       0.00199600       0.00086687      -5.73147762
Ni       3.49999519      28.14255288      17.61140864       0.60000000       0.00100722       0.00320522      -0.00173336      -5.73161542
Ni       3.48340788      29.88759912      19.38285678       0.60000000      -0.00054609       0.00231675      -0.00155251      -5.73119730
Ni       5.27715174      28.14684334      19.35885596       0.60000000       0.00012361       0.00468135      -0.00245991      -5.73136479
Ni       5.24208784      29.91625359      17.60225661       0.60000000       0.00161097       0.00176037      -0.00122682      -5.73148876
Ni       3.51160652      28.12249735      21.12662762       0.60000000       0.00083748       0.00528598      -0.00211316      -5.73075056
Ni       3.48032740      29.86712431      22.88860159       0.60000000       0.00066100       0.00192485       0.00015967      -5.73157144
Ni       5.28709880      28.12076298      22.86631043       0.60000000      -0.00201161       0.00613262      -0.00035120      -5.73003840
Ni       5.26431545      29.88816117      21.12476921       0.60000000      -0.00061138       0.00620056      -0.00195382      -5.73133337
Ni       3.48087852      28.11073169      24.62016255       0.60000000       0.00113110      -0.00109763       0.00060036      -5.73301923
Ni       3.42188369      29.83825292      26.36421229       0.60000000      -0.00100899      -0.00156251       0.00395778      -5.72891670
Ni       5.26238781      28.11068809      26.35346631       0.60000000       0.00025656      -0.00072648      -0.00004793      -5.72913659
Ni       5.25918478      29.86078048      24.62166608       0.60000000      -0.00083715       0.00425949       0.00226364      -5.72989398
Ni       3.40017470      28.10655205      28.07882449       0.60000000      -0.00020878      -0.00421666      -0.00063651      -5.72211158
Ni       3.34930982      29.82034397      29.79901854       0.60000000      -0.00020713      -0.00364326       0.00014523      -5.71567667
Ni       5.21419076      28.11506337      29.82556658       0.60000000       0.00250259      -0.00274822      -0.00184242      -5.72752243
Ni       5.22033989      29.84176381      28.09381496       0.60000000      -0.00054215       0.00095585       0.00307729      -5.72790134
Ni       3.37249153      28.12148123      31.54259661       0.60000000       0.00351813      -0.00453893       0.00246979      -5.72511190
Ni       3.36455598      29.84273854      33.29014524       0.60000000      -0.00106648      -0.00295432      -0.00008578      -5.72489887
Ni       5.18800937      28.13463706      33.32308926       0.60000000       0.00421011      -0.00323722       0.00070216      -5.72899252
Ni       5.18695053      29.84835508      31.56428256       0.60000000      -0.00030973      -0.00122121      -0.00069790      -5.72697985
Ni       3.37323310      31.58699337      -0.15003692       0.60000000      -0.00460294      -0.00337662      -0.00196769      -5.72683632
Ni       3.37856577      33.33846666       1.61869583       0.60000000      -0.00483161      -0.00419829      -0.00298360      -5.72682148
Ni       5.17142261      31.62410940       1.63654288       0.60000000      -0.00125537      -0.00286139       0.00016087      -5.72982836
Ni       5.16882908      33.33984378      -0.12673553       0.60000000      -0.00543097      -0.00157986      -0.00046365      -5.72803205
Ni       3.39036867      31.62329823       3.39840212       0.60000000       0.00073608      -0.00240811       0.00009668      -5.72996378
Ni       3.39726497      33.37340359       5.17355286       0.60000000      -0.00102523      -0.00149966      -0.00109066      -5.72941726
Ni       5.17139315      31.65559424       5.17721943       0.60000000       0.00216025      -0.00247710       0.00112921      -5.73078024
Ni       5.16949271      33.37711037       3.40231957       0.60000000      -0.00135992      -0.00310184      -0.00012475      -5.72953349
Ni       3.40523310      31.64570814       6.95952276       0.60000000       0.00040993       0.00162678       0.00086120      -5.73028827
Ni       3.41266873      33.39241435       8.73912433       0.60000000       0.00117120       0.00360838      -0.00063186      -5.72969490
Ni       5.17767231      31.67595997       8.72780556       0.60000000       0.00075971      -0.00186086       0.00191782      -5.73059976
Ni       5.17458318      33.40650648       6.94907909       0.60000000       0.00012441      -0.00161603       0.00125356      -5.73018271
Ni       3.42041067      31.65605484      10.52462657       0.60000000       0.00341505       0.00391313      -0.00176554      -5.73040187
Ni       3.42601312      33.39927757      12.30432630       0.60000000       0.00160908       0.00607077      -0.00218478      -5.73005068
Ni       5.19120099      31.68278531      12.28408612       0.60000000       0.00510652       0.00235834      -0.00072343      -5.73088026
Ni       5.18393503      33.42268637      10.50560802       0.60000000       0.00045660       0.00045976      -0.00032124      -5.73011839
Ni       3.43856857      31.65553111      14.08247112       0.60000000       0.00238484       0.00346441       0.00009644      -5.73107898
Ni       3.44015174      33.39516586      15.85827676       0.60000000       0.00128169       0.00521195      -0.00190963      -5.73079771
Ni       5.21430966      31.67561081      15.83547696       0.60000000       0.00326476       0.00206954       0.00153276      -5.73127818
Ni       5.19847338      33.42527048      14.06233819       0.60000000       0.00330785       0.00147274       0.00086009      -5.73059392
Ni       3.45764957      31.64451500      17.62520328       0.60000000       0.00170143       0.00328879       0.00026110      -5.73133194
Ni       3.45213927      33.38267734      19.39306473       0.60000000       0.00017507       0.00399629      -0.00195808      -5.73097742
Ni       5.23978618      31.65493639      19.37203429       0.60000000      -0.00164627       0.00196244      -0.00034101      -5.73171049
Ni       5.21816040      33.41385043      17.61007170       0.60000000       0.00125064       0.00114899      -0.00014940      -5.73123980
Ni       3.46904118      31.62684599      21.14532901       0.60000000      -0.00199054       0.00382352      -0.00066804      -5.73190463
Ni       3.44916172      33.36031105      22.90879740       0.60000000      -0.00069583       0.00384535      -0.00146116      -5.73303646
Ni       5.24887896      31.62551498      22.88598476       0.60000000      -0.00246938       0.00331205       0.00383572      -5.73109317
Ni       5.23267629      33.39076689      21.13947410       0.60000000       0.00040624       0.00303804       0.00037317      -5.73140901
Ni       3.44369024      31.59669409      24.64544906       0.60000000       0.00098570       0.00273058       0.00235494      -5.73400068
Ni       3.41135950      33.32043791      26.39231710       0.60000000       0.00119751       0.00359666       0.00276459      -5.73169625
Ni       5.22885898      31.59103394      26.37219889       0.60000000      -0.00253411       0.00394263       0.00539818      -5.72957897
Ni       5.22875132      33.35761456      24.64504088       0.60000000      -0.00337141       0.00321253       0.00274218      -5.73030716
Ni       3.37880027      31.55785355      28.09917076       0.60000000       0.00076888       0.00088089       0.00309166      -5.72300214
Ni       3.36911380      33.29213682      29.82969459       0.60000000      -0.00407553      -0.00072047       0.00411514      -5.72351009
Ni       5.19123932      31.57205423      29.83290472       0.60000000      -0.00132607       0.00204032       0.00353574      -5.72703999
Ni       5.20343280      33.32477852      28.11717080       0.60000000      -0.00468324       0.00394094       0.00563774      -5.72895932
Ni       3.34866976      31.54808595      31.53895535       0.60000000      -0.00573395      -0.00496852       0.00025302      -5.72143126
Ni       3.35889433      33.29474353      33.29321607       0.60000000      -0.00658213      -0.00389161      -0.00178780      -5.72246957
Ni       5.17323138      31.58818246      33.31370096       0.60000000      -0.00311434      -0.00410415       0.00170358      -5.72743678
Ni       5.17599427      33.31524917      31.57816044       0.60000000      -0.00279114       0.00088835       0.00485542      -5.72738159
Ni       6.96238905      -0.10183502      -0.10385190       0.60000000      -0.00492067      -0.00103160       0.00458699      -5.72904128
Ni       6.95547400       1.66280342       1.66177215       0.60000000      -0.00402968      -0.00124389       0.00119937      -5.72906518
Ni       8.74789292      -0.07692508       1.65552406       0.60000000      -0.00277376       0.00114653       0.00668773      -5.72918987
Ni       8.74695615       1.65847828      -0.08191166       0.60000000      -0.00571565       0.00092864       0.00532319      -5.72913945
Ni       6.95434487      -0.06754872       3.41034097       0.60000000      -0.00236155      -0.00287851       0.00269284      -5.72932780
Ni       6.95556624       1.69511190       5.18241217       0.60000000      -0.00362764      -0.00311138      -0.00231836      -5.72938734
Ni       8.73495588      -0.03602812       5.17523933       0.60000000      -0.00193082      -0.00046398       0.00211356      -5.72955197
Ni       8.73823418       1.68854625       3.42219701       0.60000000      -0.00337329       0.00100474       0.00338472      -5.72921175
Ni       6.95214660      -0.03316620       6.94521122       0.60000000      -0.00057978      -0.00312684       0.00045454      -5.72986060
Ni       6.95964701       1.72264539       8.72202968       0.60000000      -0.00127466      -0.00225554      -0.00071832      -5.72965294
Ni       8.72681848       0.00087149       8.70858272       0.60000000      -0.00152635      -0.00487171       0.00213112      -5.72988462
Ni       8.73356538       1.72635109       6.94712663       0.60000000      -0.00338247      -0.00360321       0.00224858      -5.72950894
Ni       6.95566716      -0.01061338      10.49214257       0.60000000      -0.00151547      -0.00263542       0.00171210      -5.72992456
Ni       6.96693567       1.73678506      12.27253105       0.60000000      -0.00162045       0.00048375       0.00032049      -5.72970432
Ni       8.72541166       0.02159762      12.25421371       0.60000000       0.00067373      -0.00270122       0.00133247      -5.72995085
Ni       8.73270055       1.75481368      10.48717954       0.60000000      -0.00268107      -0.00299146       0.00188920      -5.72980618
Ni       6.96509674      -0.00441140      14.04604762       0.60000000       0.00080063       0.00090170       0.00050613      -5.73019338
Ni       6.97686328       1.73598414      15.82620576       0.60000000      -0.00028556       0.00198497      -0.00244658      -5.73016846
Ni       8.73613538       0.02185114      15.80515445       0.60000000       0.00164718      -0.00109478       0.00372147      -5.73033017
Ni       8.73690696       1.76652734      14.03612960       0.60000000      -0.00130748      -0.00095672       0.00079799      -5.72986382
Ni       6.98171319      -0.01480563      17.59652636       0.60000000      -0.00048679       0.00113166       0.00124598      -5.73086625
Ni       6.98699200       1.72063194      19.37254304       0.60000000      -0.00019568       0.00405621      -0.00204567      -5.73081076
Ni       8.75610551       0.00073606      19.35262667       0.60000000       0.00087750       0.00077586       0.00420046      -5.73086917
Ni       8.74720125       1.75853510      17.58632118       0.60000000      -0.00019705       0.00062734       0.00123495      -5.73037833
Ni       6.99677026      -0.03982536      21.13369370       0.60000000       0.00025344       0.00300271      -0.00035025      -5.73123527
Ni       6.99102019       1.69550017      22.90209848       0.60000000      -0.00022610       0.00472755      -0.00168901      -5.73135847
Ni       8.77501559      -0.03568087      22.88373265       0.60000000       0.00139103       0.00437021       0.00236028      -5.73133427
Ni       8.75925960       1.73332914      21.12891402       0.60000000      -0.00112646       0.00185249       0.00096071      -5.73102194
Ni       7.00138912      -0.07313904      24.64663831       0.60000000       0.00002721       0.00423611       0.00312971      -5.73124564
Ni       6.98590739       1.66676699      26.40696223       0.60000000      -0.00142749       0.00494897       0.00208679      -5.73118049
Ni       8.78365142      -0.07492657      26.38886782       0.60000000      -0.00166644       0.00389199       0.00347117      -5.73107558
Ni       8.76623618       1.69870619      24.65175948       0.60000000      -0.00002321       0.00398266       0.00253441      -5.73140186
Ni       6.99279243      -0.10393767      28.13319886       0.60000000      -0.00221164       0.00293014       0.00570760      -5.73035741
Ni       6.97395163       1.64554606      29.88995346       0.60000000      -0.00093639       0.00346090       0.00196266      -5.73019689
Ni       8.77825997      -0.10345356      29.87280194       0.60000000      -0.00376298       0.00430319       0.00687287      -5.72989398
Ni       8.76463890       1.66683871      28.15073227       0.60000000      -0.00183003       0.00382295       0.00452801      -5.73095000
Ni       6.97579462      -0.11768646      31.60727158       0.60000000      -0.00316625       0.00399347       0.00688243      -5.72926992
Ni       6.96188567       1.64195379      33.36713058       0.60000000      -0.00407236       0.00204746       0.00388615      -5.72926122
Ni       8.76360423      -0.10463825      33.35520328       0.60000000      -0.00404734       0.00237609       0.00798334      -5.72915184
Ni       8.75660546       1.65002214      31.63306949       0.60000000      -0.00347664       0.00251485       0.00526994      -5.72973949
Ni       6.95294168       3.41018322      -0.06908516       0.60000000      -0.00201013       0.00067721      -0.00035435      -5.72933418
Ni       6.95133197       5.18477823       1.69625252       0.60000000      -0.00492065      -0.00044148      -0.00210853      -5.72943962
Ni       8.73557178       3.42757618       1.68464221       0.60000000      -0.00557271      -0.00034682       0.00311704      -5.72924954
Ni       8.72579998       5.18262321      -0.03839304       0.60000000      -0.00084263      -0.00108216      -0.00018442      -5.72962046
Ni       6.95582939       3.43221748       3.43169265       0.60000000      -0.00533716      -0.00079773      -0.00090751      -5.72928262
Ni       6.96215936       5.20406018       5.20452528       0.60000000      -0.00243382      -0.00165345      -0.00289040      -5.72955430
Ni       8.73515646       3.45721870       5.19432993       0.60000000      -0.00298972      -0.00110636       0.00087551      -5.72935075
Ni       8.73076214       5.20089956       3.45445404       0.60000000      -0.00301655      -0.00077353      -0.00024383      -5.72945893
Ni       6.96263283       3.45890807       6.95823064       0.60000000      -0.00052644      -0.00234027      -0.00247963      -5.72953373
Ni       6.97650241       5.22248429       8.73654796       0.60000000      -0.00133894      -0.00156994      -0.00336870      -5.72960055
Ni       8.73812825       3.48784890       8.72514819       0.60000000      -0.00191239      -0.00335732       0.00012992      -5.72956502
Ni       8.73907829       5.22622637       6.97026972       0.60000000      -0.00088725      -0.00178912      -0.00063920      -5.72950578
Ni       6.97227904       3.47738070      10.50196552       0.60000000      -0.00175808      -0.00015122      -0.00196691      -5.72953522
Ni       6.98886277       5.23202708      12.28222134       0.60000000      -0.00222534       0.00186179      -0.00352377      -5.72942263
Ni       8.74311292       3.50680788      12.26887126       0.60000000      -0.00265493      -0.00116233      -0.00031612      -5.72967589
Ni       8.74897340       5.24816787      10.50581632       0.60000000      -0.00166234      -0.00182358      -0.00170011      -5.72953856
Ni       6.98069324       3.48298223      14.05322491       0.60000000      -0.00152208       0.00322968      -0.00307923      -5.72964591
Ni       6.99497337       5.23017864      15.83116984       0.60000000      -0.00123635       0.00375543      -0.00292013      -5.72977054
Ni       8.74831879       3.50927094      15.81775786       0.60000000      -0.00166242       0.00085064      -0.00168614      -5.72993195
Ni       8.75550389       5.25767996      14.05036334       0.60000000      -0.00122275      -0.00018555      -0.00434956      -5.72978365
Ni       6.98679827       3.47592897      17.60409029       0.60000000      -0.00010794       0.00269196      -0.00530575      -5.73024499
Ni       6.99255390       5.21744596      19.37886908       0.60000000       0.00003740       0.00480792      -0.00447494      -5.73084015
Ni       8.75255871       3.49424845      19.36579531       0.60000000      -0.00008116       0.00330682      -0.00291629      -5.73061758
Ni       8.75589416       5.25131777      17.59722873       0.60000000      -0.00048053       0.00111626      -0.00561497      -5.73029691
Ni       6.98649978       3.45808367      21.14540612       0.60000000       0.00299927       0.00392417      -0.00288677      -5.73118567
Ni       6.98036649       5.19964110      22.91757185       0.60000000       0.00410423       0.00602363      -0.00365333      -5.73201644
Ni       8.75337691       3.46730599      22.90332552       0.60000000       0.00202255       0.00340752      -0.00165686      -5.73137254
Ni       8.74938932       5.23014736      21.14385842       0.60000000       0.00111090       0.00350263      -0.00540706      -5.73118085
Ni       6.97992769       3.43539455      24.66908024       0.60000000       0.00151800       0.00530997      -0.00280247      -5.73171550
Ni       6.96558504       5.18424224      26.43596940       0.60000000       0.00296637       0.00507294      -0.00276382      -5.73203999
Ni       8.75071279       3.43746337      26.42068659       0.60000000      -0.00053901       0.00597099      -0.00235482      -5.73156893
Ni       8.73921596       5.20449774      24.67860742       0.60000000       0.00381087       0.00444172      -0.00298413      -5.73191756
Ni       6.96918107       3.41584430      28.16807266       0.60000000       0.00048719       0.00287073       0.00012064      -5.73123723
Ni       6.95343790       5.17534354      29.93085320       0.60000000       0.00389304       0.00176571      -0.00311629      -5.73125792
Ni       8.74449278       3.41702486      29.91458369       0.60000000      -0.00127620       0.00332326       0.00185993      -5.73074210
Ni       8.73122083       5.18506511      28.19026031       0.60000000       0.00244669       0.00415770      -0.00351146      -5.73162127
Ni       6.95874799       3.40494176      31.64984493       0.60000000      -0.00012481       0.00254201       0.00010012      -5.73025763
Ni       6.94742537       5.17421532      33.41140315       0.60000000       0.00250189       0.00098692      -0.00381363      -5.73009270
Ni       8.73832903       3.41220054      33.39666731       0.60000000      -0.00146797       0.00169058       0.00195118      -5.72961527
Ni       8.72586366       5.17737182      31.67998721       0.60000000       0.00240761       0.00076220      -0.00059283      -5.73047465
Ni       6.94296564       6.95170856      -0.02839918       0.60000000       0.00017587      -0.00115488      -0.00362317      -5.72985017
Ni       6.94415407       8.73244691       1.73088093       0.60000000       0.00257747      -0.00191191      -0.00378080      -5.72955924
Ni       8.72013242       6.95901063       1.72711998       0.60000000      -0.00000986      -0.00251005      -0.00257801      -5.72965729
Ni       8.70644644       8.72590556       0.00637592       0.60000000       0.00194355      -0.00200435      -0.00650901      -5.72991675
Ni       6.95574394       6.96199038       3.46282804       0.60000000      -0.00251875      -0.00016250      -0.00296375      -5.72956866
Ni       6.96730441       8.73845186       5.23011524       0.60000000      -0.00020870      -0.00087508      -0.00207614      -5.72952443
Ni       8.73413774       6.97580087       5.22585295       0.60000000      -0.00191629      -0.00127369      -0.00122549      -5.72955817
Ni       8.72254311       8.73747162       3.49198669       0.60000000       0.00130745      -0.00246651      -0.00255581      -5.72956026
Ni       6.97580616       6.97543093       6.97860838       0.60000000      -0.00250043      -0.00152683      -0.00270091      -5.72964227
Ni       6.99517438       8.74565950       8.75289024       0.60000000      -0.00131281      -0.00199177      -0.00105248      -5.72950512
Ni       8.75043733       6.99476403       8.74793472       0.60000000      -0.00061947      -0.00136303      -0.00121592      -5.72954035
Ni       8.74570750       8.75011241       6.99798584       0.60000000      -0.00231527      -0.00160562      -0.00087767      -5.72948056
Ni       6.99551776       6.98578966      10.51475995       0.60000000      -0.00199416      -0.00018271      -0.00167970      -5.72942895
Ni       7.01870901       8.75037273      12.29274246       0.60000000      -0.00310368       0.00262685      -0.00311602      -5.72920293
Ni       8.76365295       7.00852447      12.28636463       0.60000000      -0.00049093      -0.00001216      -0.00308940      -5.72952121
Ni       8.76723661       8.76338850      10.52557686       0.60000000       0.00059397      -0.00122991      -0.00059736      -5.72935802
Ni       7.00769201       6.98865117      14.06035795       0.60000000      -0.00048755       0.00226114      -0.00234179      -5.72941136
Ni       7.02896496       8.74997765      15.83595744       0.60000000      -0.00243973       0.00212607      -0.00358327      -5.72920072
Ni       8.76712798       7.00922143      15.82851329       0.60000000      -0.00140179       0.00076536      -0.00415826      -5.73018909
Ni       8.78099354       8.77163686      14.06492193       0.60000000      -0.00071567       0.00104927      -0.00430257      -5.72947216
Ni       7.00724410       6.98014390      17.60614422       0.60000000       0.00062806       0.00202376      -0.00247408      -5.73025763
Ni       7.01588134       8.73369832      19.38089541       0.60000000       0.00203560       0.00474089      -0.00349272      -5.73045778
Ni       8.75564490       6.99185370      19.37472722       0.60000000       0.00061734       0.00301861      -0.00328000      -5.73110688
Ni       8.77381499       8.76052313      17.60443190       0.60000000      -0.00438826      -0.00005783      -0.00317849      -5.73093259
Ni       6.99178689       6.96277127      21.15339291       0.60000000       0.00099546       0.00524779      -0.00293912      -5.73176247
Ni       6.98419241       8.71693077      22.93094457       0.60000000       0.00717996       0.00614638      -0.00452181      -5.73235792
Ni       8.73570619       6.96755840      22.92428893       0.60000000       0.00466625       0.00311577      -0.00584475      -5.73220569
Ni       8.74356886       8.73126428      21.15733722       0.60000000       0.00577016       0.00577139      -0.00582914      -5.73224014
Ni       6.96843457       6.95025859      24.69046317       0.60000000       0.00546779       0.00425764      -0.00277901      -5.73266244
Ni       6.95451129       8.71295396      26.46380638       0.60000000       0.00966267       0.00494090      -0.00679094      -5.73273498
Ni       8.71998695       6.94976140      26.45509817       0.60000000       0.00676016       0.00539317      -0.00448845      -5.73227799
Ni       8.71610400       8.71201048      24.70748607       0.60000000       0.00748331       0.00615158      -0.00563703      -5.73285526
Ni       6.95055317       6.94473121      28.20352648       0.60000000       0.00487666       0.00374710      -0.00569274      -5.73206556
Ni       6.93772075       8.71819089      29.96767339       0.60000000       0.00651888       0.00129069      -0.00857593      -5.73156285
Ni       8.71277553       6.94354345      29.95976484       0.60000000       0.00547404       0.00375055      -0.00518449      -5.73131561
Ni       8.70170926       8.70766687      28.23048196       0.60000000       0.00589067       0.00437128      -0.00651466      -5.73210776
Ni       6.94114864       6.94615664      31.69268756       0.60000000       0.00463990      -0.00055826      -0.00655264      -5.73086756
Ni       6.93428045       8.72603001      33.45010733       0.60000000       0.00210774      -0.00149908      -0.00699707      -5.73023140
Ni       8.71285882       6.94749558      33.44458013       0.60000000       0.00210369      -0.00012236      -0.00473321      -5.73025942
Ni       8.69910556       8.71468436      31.72560049       0.60000000       0.00509412       0.00065982      -0.00769728      -5.73083520
Ni       6.93241277      10.51007600       0.00328342       0.60000000       0.00305117      -0.00294651      -0.00557210      -5.72954792
Ni       6.93791264      12.29159697       1.75526354       0.60000000       0.00204801      -0.00177390      -0.00472176      -5.72900295
Ni       8.70783976      10.50718430       1.76491603       0.60000000       0.00086386      -0.00188757      -0.00509605      -5.72950214
Ni       8.69147113      12.28103067       0.03910438       0.60000000       0.00351264      -0.00281321      -0.00623407      -5.72938317
Ni       6.95349766      10.51161673       3.49023837       0.60000000       0.00088819      -0.00146360      -0.00287927      -5.72928971
Ni       6.96895215      12.28721690       5.24996370       0.60000000       0.00187816      -0.00156471      -0.00119884      -5.72916710
Ni       8.73339192      10.51482299       5.25683320       0.60000000       0.00107588      -0.00102223      -0.00238804      -5.72934276
Ni       8.71716723      12.28733637       3.52203255       0.60000000       0.00047530      -0.00266329      -0.00380326      -5.72906256
Ni       6.98555226      10.51264002       6.99791551       0.60000000       0.00058089      -0.00195661      -0.00113514      -5.72944665
Ni       7.00830653      12.28412122       8.76575095       0.60000000       0.00165360      -0.00302336       0.00081074      -5.72948360
Ni       8.76316798      10.52350597       8.76989642       0.60000000       0.00055019      -0.00163451       0.00021441      -5.72928309
Ni       8.75070022      12.29014033       7.02085440       0.60000000       0.00111540      -0.00224660      -0.00114131      -5.72916514
Ni       7.01945182      10.51540194      10.52735810       0.60000000      -0.00040867       0.00022552      -0.00116549      -5.72922337
Ni       7.04852337      12.28757766      12.30102272       0.60000000      -0.00224199      -0.00154191      -0.00223485      -5.72903222
Ni       8.78869525      10.53376780      12.30232886       0.60000000       0.00158202       0.00139075       0.00014856      -5.72900933
Ni       8.78617644      12.29636264      10.54083070       0.60000000       0.00107578      -0.00065954       0.00097985      -5.72915363
Ni       7.04505946      10.51992157      14.06890469       0.60000000      -0.00131401       0.00134540      -0.00385426      -5.72871125
Ni       7.07808729      12.29731683      15.84445156       0.60000000      -0.00379493      -0.00093293      -0.00602953      -5.72721189
Ni       8.80039806      10.54001875      15.84051061       0.60000000      -0.00255246      -0.00009554      -0.00440298      -5.72875017
Ni       8.81523443      12.30928920      14.07782816       0.60000000       0.00011628       0.00208612       0.00025705      -5.72841632
Ni       7.05291941      10.51913758      17.60962509       0.60000000      -0.00157423       0.00169004      -0.00336726      -5.72748542
Ni       7.08227347      12.30025607      19.38318993       0.60000000      -0.00472581      -0.00284285      -0.00647291      -5.72363305
Ni       8.77151905      10.51152932      19.38464973       0.60000000       0.00475624       0.00609980      -0.00680699      -5.73058534
Ni       8.82723823      12.31902568      17.61600902       0.60000000      -0.00025340      -0.00325814      -0.00575697      -5.72443509
Ni       7.02142010      10.49729159      21.15872736       0.60000000       0.00442053       0.00531841      -0.00576392      -5.72940451
Ni       7.02864306      12.27657369      22.93658799       0.60000000       0.00504514       0.00701704      -0.00445524      -5.72643161
Ni       8.72616405      10.47830070      22.94537518       0.60000000       0.00671105       0.00672881      -0.00732341      -5.73272163
Ni       8.76951148      12.27158562      21.17186430       0.60000000       0.00823538       0.00709801      -0.01073552      -5.72727150
Ni       6.97506181      10.48524540      24.70894466       0.60000000       0.00819560       0.00748747      -0.00814029      -5.73181719
Ni       6.97024497      12.27175722      26.48117970       0.60000000       0.00502880       0.00320985      -0.01141468      -5.73063743
Ni       8.69667075      10.47079279      26.48975864       0.60000000       0.01156911       0.00896135      -0.00839036      -5.73272306
Ni       8.70884383      12.24263209      24.73344005       0.60000000       0.01382447       0.01010195      -0.00826343      -5.73162085
Ni       6.94354561      10.49118328      28.23198538       0.60000000       0.00761853       0.00354886      -0.00876414      -5.73217469
Ni       6.93431091      12.28150477      29.99042582       0.60000000       0.00895652       0.00046544      -0.00941070      -5.73132372
Ni       8.68745614      10.48083540      29.99948553       0.60000000       0.00721496       0.00397588      -0.00688357      -5.73136652
Ni       8.68404541      12.24994522      28.26459374       0.60000000       0.01123484       0.00464403      -0.01125511      -5.73216498
Ni       6.92903143      10.50229042      31.72452338       0.60000000       0.00429292      -0.00129732      -0.00798969      -5.73070037
Ni       6.92421061      12.29082950      33.47352218       0.60000000       0.00660984      -0.00216748      -0.00625827      -5.72977078
Ni       8.69207927      10.49573410      33.48534701       0.60000000       0.00245686      -0.00104751      -0.00858663      -5.73011851
Ni       8.67978071      12.26650057      31.75910895       0.60000000       0.00713487       0.00240837      -0.00995439      -5.73024309
Ni       6.92582282      14.07589114       0.01921909       0.60000000       0.00571286      -0.00357192      -0.00382838      -5.72917706
Ni       6.93285954      15.85342954       1.76318590       0.60000000       0.00845765      -0.00416397      -0.00088023      -5.72871816
Ni       8.69884984      14.06450932       1.78973981       0.60000000       0.00412147      -0.00499078      -0.00652011      -5.72871441
Ni       8.68532461      15.84443123       0.05446088       0.60000000       0.00631623      -0.00386290      -0.00604357      -5.72891331
Ni       6.94956219      14.06841019       3.50671411       0.60000000       0.00193850      -0.00323678      -0.00148424      -5.72875422
Ni       6.96538768      15.83808271       5.25946956       0.60000000       0.00256006      -0.00233489      -0.00141494      -5.72912824
Ni       8.73258248      14.06313977       5.27745481       0.60000000       0.00042241      -0.00235733      -0.00073538      -5.72886962
Ni       8.71257648      15.84163823       3.53761903       0.60000000       0.00229388      -0.00507859      -0.00200414      -5.72835606
Ni       6.98857395      14.05828208       7.01016129       0.60000000       0.00266348      -0.00289201       0.00035860      -5.72946155
Ni       7.00924731      15.82581984       8.77015449       0.60000000       0.00072137      -0.00290973      -0.00327481      -5.73020798
Ni       8.77164647      14.06183295       8.78340766       0.60000000       0.00140323      -0.00170244      -0.00036902      -5.72945017
Ni       8.74979491      15.83316932       7.03155092       0.60000000       0.00213313      -0.00146877      -0.00168967      -5.72925252
Ni       7.03446083      14.05382838      10.53327531       0.60000000      -0.00066336      -0.00214137      -0.00077467      -5.72983992
Ni       7.06443673      15.82520922      12.29940682       0.60000000      -0.00427615      -0.00193412      -0.00055499      -5.72952884
Ni       8.81349624      14.07060127      12.30943808       0.60000000      -0.00288940      -0.00243951       0.00158500      -5.72941256
Ni       8.79182212      15.83151189      10.54142311       0.60000000      -0.00092108      -0.00224438      -0.00229371      -5.73041934
Ni       7.08367100      14.06369953      14.07425036       0.60000000      -0.00532508      -0.00062120      -0.00236225      -5.72825009
Ni       7.12085792      15.84146964      15.84560413       0.60000000      -0.01343138      -0.00514053      -0.00453559      -5.72756350
Ni       8.85399854      14.09510763      15.85614162       0.60000000      -0.00214770       0.00274333      -0.00384596      -5.72524077
Ni       8.84966986      15.84848135      14.07806625       0.60000000      -0.00823287      -0.00114186       0.00409742      -5.72758508
Ni       7.11619123      14.08195551      17.61895541       0.60000000      -0.01103098      -0.00976545      -0.00700400      -5.72524267
Ni       7.14730815      15.85765934      19.38518016       0.60000000      -0.00881429      -0.00847436      -0.00022116      -5.72445917
Ni       8.87304217      14.11070234      19.38853057       0.60000000      -0.00908073      -0.01082086      -0.00480239      -5.71109277
Ni       8.90900859      15.88605981      17.63059598       0.60000000      -0.02214027      -0.01824485      -0.00749977      -5.71929759
Ni       7.11026119      14.08539137      21.15294468       0.60000000      -0.00690211      -0.00799419      -0.00292825      -5.71960229
Ni       7.13875397      15.87643893      22.91498963       0.60000000      -0.01002781      -0.01282278       0.00094219      -5.71989483
Ni       8.78013989      14.05610209      22.95904240       0.60000000       0.01346760       0.00214891      -0.00856569      -5.72473508
Ni       8.92625354      15.89194293      21.15228250       0.60000000      -0.01334217       0.00359996       0.00185312      -5.71290964
Ni       7.04473992      14.07947224      24.70683836       0.60000000      -0.00251820      -0.00239349      -0.00513073      -5.72491527
Ni       7.05491269      15.88249706      26.46140579       0.60000000      -0.00421177      -0.00762708      -0.00306533      -5.72018158
Ni       8.70260706      14.03204612      26.51562337       0.60000000       0.01300703       0.00727739      -0.00972649      -5.73134613
Ni       6.96498064      14.06988650      28.24113367       0.60000000       0.00765150       0.00003769      -0.00823614      -5.73018777
Ni       6.96506505      15.87046480      29.98103721       0.60000000       0.00811875      -0.00326068      -0.00436785      -5.72812480
Ni       8.67931527      14.04337241      30.02328667       0.60000000       0.01080787       0.00326513      -0.01087184      -5.73117644
Ni       8.71328617      15.83516929      28.27029462       0.60000000       0.01483345       0.00137332      -0.01204407      -5.72172529
Ni       6.92894626      14.07618866      31.73598398       0.60000000       0.00907400      -0.00193053      -0.00563163      -5.73036695
Ni       6.92720573      15.86394683      33.47721949       0.60000000       0.00648997      -0.00320209      -0.00667239      -5.72997838
Ni       8.67887655      14.05684396      33.50980392       0.60000000       0.00610769      -0.00002556      -0.00735031      -5.72937119
Ni       8.67993498      15.83978981      31.77184705       0.60000000       0.01041007      -0.00005804      -0.01056355      -5.73059994
Ni       6.93084364      17.64089996       0.01454841       0.60000000       0.00796805      -0.00597830      -0.00624624      -5.72940522
Ni       6.94033590      19.40606677       1.75294493       0.60000000       0.00555730      -0.00633335      -0.00483832      -5.72895879
Ni       8.69842250      17.62344329       1.79553710       0.60000000       0.00438727      -0.00712065      -0.00438534      -5.72849000
Ni       8.70192497      19.40775055       0.04067263       0.60000000       0.00927949      -0.00732988      -0.00500650      -5.72913063
Ni       6.94576653      17.62168560       3.50888751       0.60000000       0.00592703      -0.00259241      -0.00020533      -5.72885209
Ni       6.95629996      19.38556910       5.25363347       0.60000000       0.00649012      -0.00390380       0.00113165      -5.73027086
Ni       8.72759699      17.61052305       5.28439402       0.60000000       0.00399349      -0.00267199      -0.00053008      -5.72858739
Ni       8.71332788      19.39084055       3.53692262       0.60000000       0.00255493      -0.00471717      -0.00241321      -5.72862291
Ni       6.97990518      17.60402561       7.01079694       0.60000000       0.00215230      -0.00171240      -0.00236024      -5.73025751
Ni       6.99149161      19.37287222       8.75841441       0.60000000       0.00377824      -0.00460223      -0.00029836      -5.73113596
Ni       8.76023584      17.60184238       8.77569601       0.60000000       0.00091128      -0.00224257      -0.00152139      -5.73094171
Ni       8.73371060      19.37913572       7.01899534       0.60000000       0.00567619      -0.00375034       0.00207345      -5.73037910
Ni       7.02941608      17.59476958      10.52638196       0.60000000       0.00087102      -0.00195910      -0.00056703      -5.73043293
Ni       7.04804893      19.36807718      12.28098849       0.60000000      -0.00126485      -0.00521764       0.00268284      -5.72998804
Ni       8.81105960      17.60571969      12.29323260       0.60000000      -0.00247952      -0.00399846       0.00145526      -5.73001033
Ni       8.76563787      19.37766270      10.51382960       0.60000000       0.00069894      -0.00421823       0.00163269      -5.73154575
Ni       7.09166192      17.59770034      14.06056253       0.60000000      -0.00604642      -0.00367410       0.00195710      -5.72925860
Ni       7.11207362      19.36529194      15.81942551       0.60000000      -0.00752652       0.00013135       0.00511604      -5.72941440
Ni       8.88371273      17.62486368      15.83310704       0.60000000      -0.01327186      -0.00317590       0.00708154      -5.72824901
Ni       8.82812794      19.38540685      14.04038242       0.60000000      -0.00121410      -0.00558754       0.00935891      -5.72905439
Ni       7.14641955      17.61034274      17.60611537       0.60000000      -0.01371303      -0.00625045      -0.00174670      -5.72944516
Ni       7.16093002      19.36909736      19.36079041       0.60000000      -0.01219612      -0.00298476      -0.00080736      -5.73052245
Ni       8.94785206      17.64898802      19.37912999       0.60000000      -0.01278739      -0.00910844       0.00154174      -5.71909171
Ni       8.91019936      19.38739191      17.58340880       0.60000000      -0.01659690      -0.00201581       0.01055324      -5.72884154
Ni       7.17450670      17.62423293      21.14105643       0.60000000      -0.01671783      -0.00199065       0.00481238      -5.72557718
Ni       7.17420026      19.37764458      22.89047254       0.60000000      -0.01255718       0.02376517      -0.01183805      -5.72980624
Ni       8.96622185      19.40897502      21.11945192       0.60000000      -0.00917549      -0.02766689       0.00832737      -5.72612852
Ni       7.14262007      17.65036047      24.66716840       0.60000000      -0.01228875       0.00216163       0.00109661      -5.71924609
Ni       7.13785415      19.41284664      26.39360370       0.60000000      -0.00532416      -0.00791621       0.00425368      -5.72250748
Ni       8.80660133      15.86870151      24.74280754       0.60000000      -0.00554008      -0.00395050      -0.00386604      -5.68972433
Ni       8.98485496      19.41119233      24.63007793       0.60000000      -0.00911153       0.01636152      -0.00145087      -5.70314854
Ni       7.08313609      17.67356664      28.16833405       0.60000000      -0.01094327      -0.01203226       0.00889770      -5.71674007
Ni       7.04327159      19.43356127      29.91442038       0.60000000       0.00219049      -0.00524936       0.00106833      -5.72552693
Ni       8.72431896      17.63997975      30.01317576       0.60000000       0.01677182       0.00174790      -0.01369458      -5.72554028
Ni       8.89111188      19.45001377      28.15850429       0.60000000      -0.01675730      -0.01342490       0.00456871      -5.71021253
Ni       6.95934323      17.65601152      31.71755929       0.60000000       0.01383459      -0.00394124      -0.00884761      -5.73018008
Ni       6.95691623      19.42675594      33.44713042       0.60000000       0.01277521      -0.00547251      -0.00723046      -5.72958362
Ni       8.68790528      17.63031181      33.50937426       0.60000000       0.00929298      -0.00532735      -0.00731891      -5.73035985
Ni       8.73597345      19.42584788      31.73712718       0.60000000       0.01536004      -0.00273761      -0.01129032      -5.72716850
Ni       6.96142116      21.18190542      -0.02366097       0.60000000       0.00855354      -0.00660825      -0.00332578      -5.72815168
Ni       6.95765943      22.93122278       1.71923859       0.60000000       0.00598613      -0.00548108      -0.00101416      -5.72973990
Ni       8.71438390      21.17015558       1.77792949       0.60000000       0.00451389      -0.00659440      -0.00361505      -5.72932065
Ni       8.74574908      22.93623757      -0.01087663       0.60000000       0.00717432      -0.00671964      -0.00113507      -5.72853565
Ni       6.94759403      21.16395832       3.49346866       0.60000000       0.00567773      -0.00297396      -0.00090628      -5.73029619
Ni       6.95036019      22.92438241       5.23077114       0.60000000       0.00584848      -0.00292727       0.00414595      -5.73196137
Ni       8.72066761      21.15706553       5.26624309       0.60000000       0.00334663      -0.00356065       0.00221468      -5.73011881
Ni       8.72209487      22.93023122       3.50673211       0.60000000       0.00335010      -0.00543440       0.00085146      -5.73019499
Ni       6.96301170      21.15190906       6.99484796       0.60000000       0.00498843      -0.00424797       0.00106280      -5.73173153
Ni       6.96796301      22.92252171       8.73884834       0.60000000       0.00407606      -0.00705672       0.00353315      -5.73221505
Ni       8.73160241      21.15510247       8.74675464       0.60000000       0.00690815      -0.00609042       0.00353318      -5.73224664
Ni       8.71803153      22.92915190       6.98777935       0.60000000       0.00586457      -0.00653488       0.00595993      -5.73225641
Ni       7.00195996      21.14585083      10.50750593       0.60000000       0.00398680      -0.00466020       0.00236389      -5.73111129
Ni       7.01095872      22.91804047      12.26437645       0.60000000       0.00232597      -0.00412145       0.00426696      -5.73055792
Ni       8.77185256      21.16159318      12.25590146       0.60000000      -0.00070269      -0.00567119       0.00991222      -5.73047888
Ni       8.73071624      22.93743032      10.48344023       0.60000000       0.00680304      -0.00695818       0.00691447      -5.73205370
Ni       7.06255313      21.13884395      14.04002854       0.60000000      -0.00224989      -0.00233272       0.00391918      -5.72930950
Ni       7.06943431      22.90200712      15.80562021       0.60000000      -0.00577595       0.00046295       0.00215555      -5.72953498
Ni       8.84324727      21.15766076      15.79829173       0.60000000      -0.00747908      -0.00219171       0.00333960      -5.72871095
Ni       8.77717600      22.94053931      14.01440438       0.60000000       0.00204648      -0.00435209       0.00544563      -5.72966117
Ni       7.12139615      21.12427162      17.57907503       0.60000000      -0.00806804       0.00481979       0.00502908      -5.72996628
Ni       7.12099319      22.87710481      19.33937325       0.60000000      -0.00788265       0.00957997       0.00166895      -5.73016500
Ni       8.92090423      21.14159788      19.33010135       0.60000000      -0.01130571       0.00567618       0.01171574      -5.72943598
Ni       8.85214883      22.91648874      17.55993457       0.60000000      -0.00899314       0.00338239       0.00066168      -5.72965676
Ni       7.15876767      21.12126115      21.11391716       0.60000000      -0.00328968       0.00644351      -0.01130247      -5.73060024
Ni       7.14918280      22.87791189      22.85371910       0.60000000      -0.00360967      -0.01176528       0.00226080      -5.72970283
Ni       8.97300083      21.14552122      22.85344447       0.60000000      -0.00898458      -0.00179526      -0.00430596      -5.72680032
Ni       8.92213578      22.89008456      21.07732391       0.60000000      -0.00813787       0.00968419       0.00709925      -5.72937465
Ni       7.16765895      21.13629906      24.61896574       0.60000000      -0.01446443      -0.00452787       0.00909617      -5.72908306
Ni       7.12689006      22.88959434      26.35752471       0.60000000      -0.00572622       0.00194362       0.00752732      -5.72933525
Ni       8.94546649      21.16484786      26.36928840       0.60000000      -0.01498719      -0.00099844       0.00618111      -5.72143620
Ni       8.94799695      22.89454398      24.59220587       0.60000000      -0.00895804      -0.00722633       0.00043925      -5.72785479
Ni       7.09491335      21.16804719      28.13304571       0.60000000      -0.00267620      -0.00654492       0.00272153      -5.72799200
Ni       7.04798789      22.91925146      29.87325444       0.60000000       0.00295479      -0.00610446      -0.00029340      -5.73092490
Ni       8.83490856      21.19311171      29.91276865       0.60000000       0.00335046      -0.00672312      -0.00438350      -5.72125858
Ni       8.89006273      22.90720744      28.11649215       0.60000000      -0.00534152       0.00083904       0.00610066      -5.72897691
Ni       7.00677592      21.18697475      31.65513344       0.60000000       0.00947358      -0.00518750      -0.00045982      -5.72958410
Ni       6.98614106      22.93214652      33.39405670       0.60000000       0.00897300      -0.00636677      -0.00057401      -5.72917175
Ni       8.75819191      21.18934157      33.44486536       0.60000000       0.01316815      -0.00627606      -0.00367987      -5.72581071
Ni       8.80453476      22.92854332      31.65233813       0.60000000       0.00890001      -0.00383885      -0.00209800      -5.72808659
Ni       6.97286494      24.67813057      -0.06171574       0.60000000       0.00644019      -0.00659401       0.00080616      -5.72991246
Ni       6.96354019      26.42685146       1.68335632       0.60000000       0.00255493      -0.00546058       0.00146769      -5.73092598
Ni       8.73993054      24.68723695       1.72811995       0.60000000       0.00549370      -0.00784260       0.00000908      -5.72991508
Ni       8.76170425      26.42153013      -0.05819163       0.60000000       0.00101474      -0.00531245       0.00207707      -5.73018867
Ni       6.95322062      24.68433996       3.45990173       0.60000000       0.00586020      -0.00591145       0.00225976      -5.73152328
Ni       6.94906841      26.44107062       5.20230056       0.60000000       0.00419691      -0.00310260       0.00520923      -5.73235989
Ni       8.72129597      24.69390763       5.22757294       0.60000000       0.00527848      -0.00748924       0.00716099      -5.73186445
Ni       8.73510575      26.44223072       3.45995834       0.60000000       0.00267846      -0.00736055       0.00339708      -5.73125058
Ni       6.95109389      24.68854760       6.97162792       0.60000000       0.00483311      -0.00451526       0.00464316      -5.73261368
Ni       6.95101466      26.45266519       8.72335322       0.60000000       0.00456210      -0.00599616       0.00504903      -5.73227412
Ni       8.71381318      24.70488313       8.71968074       0.60000000       0.00505688      -0.00630798       0.00648923      -5.73284489
Ni       8.71424912      26.46100236       6.95834359       0.60000000       0.00688015      -0.00792687       0.00737742      -5.73269498
Ni       6.97192005      24.69208885      10.49319174       0.60000000       0.00412457      -0.00823926       0.00374076      -5.73184520
Ni       6.97476699      26.45481848      12.25997823       0.60000000       0.00402186      -0.00424513       0.00081613      -5.73151714
Ni       8.73270219      24.71634318      12.23805091       0.60000000       0.00347727      -0.01025594       0.00761318      -5.73117888
Ni       8.71167568      26.47815487      10.47001762       0.60000000       0.00521360      -0.00779881       0.00500262      -5.73201531
Ni       7.01535042      24.68305792      14.03187595       0.60000000       0.00344073      -0.00012738       0.00200722      -5.73057222
Ni       7.01739899      26.43877823      15.80563741       0.60000000       0.00312789      -0.00080281       0.00079655      -5.73090571
Ni       8.78293825      24.70518414      15.78465864       0.60000000       0.00194176      -0.00370507       0.00164541      -5.73043007
Ni       8.73658307      26.48187531      14.00907805       0.60000000       0.00382478      -0.00684670       0.00415955      -5.73112631
Ni       7.06988736      24.65613654      17.57360431       0.60000000      -0.00576902       0.00495343       0.00216420      -5.73017889
Ni       7.06681848      26.40521100      19.33812065       0.60000000      -0.00371395       0.00270480       0.00442762      -5.73083645
Ni       8.85945903      24.66495866      19.31871992       0.60000000      -0.00626377       0.00199831       0.00665734      -5.73019725
Ni       8.79544151      26.45185700      17.55606150       0.60000000      -0.00334350       0.00172546       0.00244071      -5.73099178
Ni       7.11196999      24.63069757      21.09164224       0.60000000      -0.00502821       0.00481255       0.00740859      -5.73046190
Ni       7.09696397      26.37697900      22.84633984       0.60000000      -0.00692855       0.00568956       0.00619805      -5.73025638
Ni       8.91225950      24.63670603      22.82531623       0.60000000      -0.00708257       0.00642321       0.01161524      -5.72952199
Ni       8.86081726      26.40743513      21.07754687       0.60000000      -0.00754354       0.00467211       0.00694948      -5.73060519
Ni       7.12184661      24.62756231      24.59879529       0.60000000      -0.00213539      -0.00650020      -0.00150510      -5.72963631
Ni       7.08797192      26.37147507      26.34473053       0.60000000      -0.00269607      -0.00227030       0.00068759      -5.72948855
Ni       8.90971720      24.63360028      26.33984544       0.60000000      -0.00948321      -0.00069550       0.00304493      -5.72847229
Ni       8.89283430      26.37513866      24.58075890       0.60000000      -0.00632398       0.00800640       0.00635714      -5.72967690
Ni       7.08067852      24.63869769      28.09941768       0.60000000      -0.00111062       0.00101882       0.00500429      -5.72936481
Ni       7.04168815      26.38083956      29.84152495       0.60000000      -0.00046497      -0.00071048       0.00292904      -5.72882134
Ni       8.85132158      24.64409675      29.85963594       0.60000000       0.00021731       0.00031248       0.00489201      -5.72879517
Ni       8.87316814      26.36956391      28.08813319       0.60000000      -0.00291754      -0.00241088       0.00000291      -5.72797704
Ni       7.01517153      24.66213380      31.61287543       0.60000000       0.00710548      -0.00533811       0.00109212      -5.72954571
Ni       6.99152689      26.40617184      33.35635612       0.60000000       0.00353612      -0.00295878       0.00363740      -5.72967368
Ni       8.77737149      24.67296601      33.39752402       0.60000000       0.00678446      -0.00580689      -0.00197157      -5.72956669
Ni       8.81250218      26.39020113      31.60652442       0.60000000      -0.00088498       0.00082000       0.00519842      -5.72932470
Ni       6.97480813      28.15230384      -0.09569790       0.60000000       0.00431159      -0.00286685       0.00325098      -5.73005927
Ni       6.96403944      29.90207895       1.65547614       0.60000000      -0.00113075      -0.00412071       0.00118025      -5.73027843
Ni       8.75214978      28.17236189       1.68277881       0.60000000      -0.00075850      -0.00431598       0.00424874      -5.73041147
Ni       8.76812678      29.88905095      -0.09517826       0.60000000      -0.00140266       0.00043997       0.00524695      -5.72974694
Ni       6.95603062      28.17880273       3.42967507       0.60000000       0.00051676      -0.00437577       0.00315910      -5.73143601
Ni       6.94983514      29.93347074       5.18189026       0.60000000       0.00003714      -0.00571158       0.00438792      -5.73137170
Ni       8.72729388      28.20217374       5.19463609       0.60000000       0.00108860      -0.00807229       0.00519617      -5.73184645
Ni       8.74266145      29.92784987       3.42515300       0.60000000      -0.00300271      -0.00320997       0.00446576      -5.73073089
Ni       6.94529803      28.19963471       6.95302830       0.60000000       0.00509082      -0.00444398       0.00597077      -5.73205769
Ni       6.94399307      29.95582763       8.71549599       0.60000000       0.00558356      -0.00577091       0.00452339      -5.73138207
Ni       8.70907935      28.22743303       8.70541366       0.60000000       0.00600447      -0.00875923       0.00492651      -5.73206431
Ni       8.71962901      29.96295305       6.94119365       0.60000000       0.00058802      -0.00606191       0.00525975      -5.73148781
Ni       6.95168908      28.21206874      10.48769497       0.60000000       0.00576962      -0.00557166       0.00415171      -5.73164165
Ni       6.95510412      29.96420912      12.26152209       0.60000000       0.00551027      -0.00331868       0.00195002      -5.73121816
Ni       8.71351978      28.24130189      12.23694648       0.60000000       0.00623943      -0.00687157       0.00487141      -5.73135650
Ni       8.70868836      29.98701244      10.46825599       0.60000000       0.00476491      -0.00635604       0.00632058      -5.73116487
Ni       6.97799528      28.20899316      14.03417736       0.60000000       0.00424737      -0.00207689       0.00306853      -5.73144996
Ni       6.98430569      29.95357798      15.81162660       0.60000000       0.00325029      -0.00131652       0.00233606      -5.73135871
Ni       8.74764696      28.23038096      15.78602518       0.60000000       0.00310104      -0.00477341       0.00313487      -5.73111230
Ni       8.72172535      29.99147286      14.01376637       0.60000000       0.00387776      -0.00355688       0.00548587      -5.73097682
Ni       7.02091677      28.18414802      17.57894677       0.60000000       0.00142709       0.00174349       0.00111625      -5.73132324
Ni       7.02269912      29.92261738      19.35127382       0.60000000       0.00128442       0.00422601      -0.00310695      -5.73143983
Ni       8.80525185      28.19086126      19.32561557       0.60000000      -0.00311062       0.00227560       0.00444011      -5.73127627
Ni       8.76050458      29.96888190      17.56347734       0.60000000       0.00212673      -0.00205552       0.00257430      -5.73120284
Ni       7.06085503      28.14694832      21.10229722       0.60000000      -0.00409052       0.00543071       0.00258000      -5.73094481
Ni       7.04952297      29.88455484      22.86462731       0.60000000      -0.00175007       0.00721191      -0.00037960      -5.73076922
Ni       8.85542625      28.14367791      22.83959961       0.60000000      -0.00558112       0.00518014       0.00675853      -5.73032594
Ni       8.80956956      29.92461310      21.09551731       0.60000000      -0.00108104       0.00350350       0.00331023      -5.73111606
Ni       7.07485651      28.11796282      24.60111950       0.60000000      -0.00488256       0.00738233       0.00287198      -5.73000461
Ni       7.04891119      29.85444321      26.35374079       0.60000000      -0.00355450       0.00741000       0.00307166      -5.73022705
Ni       8.86831471      28.11110514      26.33533489       0.60000000      -0.00578517       0.00680936       0.00762215      -5.72950774
Ni       8.84324075      29.87719519      24.60050713       0.60000000      -0.00693090       0.00769663       0.00552231      -5.73019046
Ni       7.05247120      28.10967776      28.09048917       0.60000000      -0.00066383       0.00159895       0.00226872      -5.72949809
Ni       7.01971632      29.84815402      29.83498631       0.60000000      -0.00280419       0.00211080       0.00336310      -5.72967458
Ni       8.83614286      28.11106368      29.83612390       0.60000000      -0.00327060       0.00122190       0.00628497      -5.72932106
Ni       8.83939521      29.84894734      28.08882284       0.60000000      -0.00469520       0.00900176       0.00616334      -5.73007292
Ni       7.00947506      28.12371469      31.58529046       0.60000000      -0.00084354       0.00143423       0.00279239      -5.72937495
Ni       6.98559560      29.86851678      33.33348815       0.60000000      -0.00141291      -0.00042759       0.00133467      -5.72944462
Ni       8.78559510      28.13895047      33.35584353       0.60000000      -0.00271565       0.00175776       0.00608942      -5.72993940
Ni       8.80459431      29.85796395      31.58721214       0.60000000      -0.00517512       0.00207620       0.00581399      -5.72991002
Ni       6.97047571      31.61783922      -0.11325009       0.60000000      -0.00383330      -0.00148985       0.00200542      -5.72944361
Ni       6.96019995      33.37258073       1.64542860       0.60000000      -0.00450487      -0.00072408       0.00188777      -5.72937465
Ni       8.75469464      31.64371408       1.65526708       0.60000000      -0.00265701       0.00050976       0.00324911      -5.72974390
Ni       8.76250328      33.36204748      -0.10470782       0.60000000      -0.00368816       0.00122639       0.00662914      -5.72927684
Ni       6.95551618      31.65565377       3.41122026       0.60000000      -0.00024730      -0.00483734       0.00018222      -5.73035234
Ni       6.95062090      33.41103385       5.17421459       0.60000000       0.00014818      -0.00405780      -0.00019788      -5.73015463
Ni       8.73291281      31.68681507       5.17536688       0.60000000      -0.00150582      -0.00595071       0.00489338      -5.73062354
Ni       8.74305446      33.40309246       3.41123048       0.60000000      -0.00350248      -0.00130281       0.00161842      -5.72967005
Ni       6.94647048      31.68750368       6.94371024       0.60000000       0.00052021      -0.00445846       0.00348291      -5.73088092
Ni       6.94788821      33.43954493       8.71510007       0.60000000       0.00172817      -0.00388147       0.00131555      -5.73030102
Ni       8.71590805      31.72088018       8.70206452       0.60000000       0.00153421      -0.00745369       0.00457960      -5.73072243
Ni       8.72702072      33.44463801       6.93718481       0.60000000      -0.00149217      -0.00466683       0.00279776      -5.73015910
Ni       6.94695763      31.70634610      10.48819166       0.60000000       0.00317714      -0.00102951      -0.00000625      -5.73071605
Ni       6.95432538      33.45302018      12.26566434       0.60000000       0.00186112      -0.00116991       0.00215723      -5.73031181
Ni       8.71366550      31.73851371      12.24314024       0.60000000       0.00474864      -0.00645172       0.00352271      -5.73053491
Ni       8.71817889      33.47319610      10.47436829       0.60000000       0.00079950      -0.00443457       0.00388710      -5.73016560
Ni       6.96238117      31.70887171      14.03990081       0.60000000       0.00380206       0.00043691       0.00044967      -5.73092210
Ni       6.97206456      33.44887094      15.81877005       0.60000000       0.00248863      -0.00140083       0.00210444      -5.73080760
Ni       8.73360488      31.73267575      15.79468941       0.60000000       0.00534265      -0.00417959       0.00106307      -5.73084742
Ni       8.72372126      33.48198420      14.02361714       0.60000000       0.00149689      -0.00021611       0.00312730      -5.73036391
Ni       6.99158724      31.69138948      17.58830506       0.60000000       0.00219232       0.00222641       0.00058391      -5.73135972
Ni       6.99677320      33.42647539      19.36224520       0.60000000       0.00044061       0.00225994       0.00153773      -5.73132640
Ni       8.77116476      31.70196487      19.33984539       0.60000000       0.00205726       0.00010072       0.00084490      -5.73120242
Ni       8.74673464      33.46790110      17.57452872       0.60000000       0.00113058      -0.00110007       0.00237719      -5.73084968
Ni       7.02092940      31.65829575      21.11938156       0.60000000       0.00008200       0.00358072      -0.00011680      -5.73144931
Ni       7.01371031      33.39197408      22.88489915       0.60000000      -0.00016663       0.00422965       0.00046190      -5.73135751
Ni       8.80768089      31.65637029      22.86290880       0.60000000      -0.00107395       0.00361247       0.00248775      -5.73099649
Ni       8.77686235      33.43282452      21.11359541       0.60000000       0.00004563       0.00234515      -0.00044785      -5.73117441
Ni       7.03360951      31.61949541      24.62335927       0.60000000      -0.00137143       0.00656142       0.00266810      -5.73081076
Ni       7.01342484      33.35466449      26.37894261       0.60000000      -0.00117202       0.00722170       0.00532061      -5.73073536
Ni       8.82392597      31.61194547      26.35892460       0.60000000      -0.00277092       0.00841808       0.00510724      -5.73044914
Ni       8.79848252      33.38889746      24.62743979       0.60000000      -0.00037924       0.00395275       0.00163653      -5.73113626
Ni       7.02067587      31.59066649      28.10312714       0.60000000      -0.00227088       0.00636793       0.00755135      -5.73015630
Ni       6.99545498      33.33224273      29.85296199       0.60000000      -0.00399141       0.00469997       0.00689547      -5.72958034
Ni       8.81066980      31.59214505      29.84151207       0.60000000      -0.00405175       0.00613424       0.00971674      -5.72993022
Ni       8.80138271      33.35144903      28.11511637       0.60000000      -0.00284058       0.00557654       0.00791549      -5.73021597
Ni       6.99296023      31.59074373      31.58245719       0.60000000      -0.00210022       0.00233774       0.00551404      -5.72943962
Ni       6.97389259      33.34013885      33.33583114       0.60000000      -0.00340745       0.00058392       0.00563934      -5.72900951
Ni       8.78052403      31.60715336      33.34033974       0.60000000      -0.00161563       0.00086716       0.00419169      -5.72950524
Ni       8.78504280      33.33995850      31.59675557       0.60000000      -0.00356589       0.00447235       0.00917813      -5.72943187
Ni      10.54787183      -0.09056067      -0.09488733       0.60000000      -0.00448100       0.00268150       0.00918102      -5.72882646
Ni      10.52910695       1.67729633       1.66964519       0.60000000      -0.00325650       0.00060193       0.00683050      -5.72891909
Ni      12.32807585      -0.07251162       1.65717148       0.60000000      -0.00362591       0.00130849       0.00672288      -5.72841364
Ni      12.32088534       1.66587746      -0.07841552       0.60000000      -0.00272242       0.00156004       0.00864408      -5.72872704
Ni      10.52930840      -0.04968285       3.41428891       0.60000000      -0.00377288      -0.00038202       0.00422615      -5.72912329
Ni      10.51755175       1.71808802       5.18127200       0.60000000      -0.00240886      -0.00209596       0.00525716      -5.72915167
Ni      12.30678025      -0.01888992       5.17188155       0.60000000      -0.00538946      -0.00166950       0.00399514      -5.72907752
Ni      12.30820429       1.70058206       3.42251071       0.60000000      -0.00265016       0.00066510       0.00543881      -5.72867525
Ni      10.51185085      -0.00154952       6.93568767       0.60000000      -0.00439538      -0.00456727       0.00337277      -5.72950256
Ni      10.50802033       1.75969407       8.71074600       0.60000000      -0.00177079      -0.00307252      -0.00023101      -5.72956204
Ni      12.28285199       0.03475216       8.69476923       0.60000000      -0.00180575      -0.00756539       0.00448290      -5.72935289
Ni      12.29357995       1.75107306       6.94137694       0.60000000      -0.00389152      -0.00471990       0.00284847      -5.72901803
Ni      10.49722847       0.03594409      10.46954696       0.60000000      -0.00165981      -0.00507850       0.00249462      -5.72973967
Ni      10.50313370       1.78802629      12.25127086       0.60000000      -0.00105959      -0.00482603       0.00061146      -5.72962958
Ni      12.26415169       0.07132691      12.22897115       0.60000000      -0.00046014      -0.00714219       0.00274828      -5.72935849
Ni      12.28019314       1.79450008      10.47329303       0.60000000      -0.00323512      -0.00411251       0.00253697      -5.72921556
Ni      10.49410429       0.05298077      14.01436765       0.60000000      -0.00026581      -0.00245001       0.00201649      -5.72986948
Ni      10.50621487       1.79506113      15.79839914       0.60000000      -0.00199116      -0.00295370       0.00122496      -5.72984302
Ni      12.26121537       0.08226140      15.77274308       0.60000000      -0.00021135      -0.00781329       0.00236606      -5.72987610
Ni      12.27251150       1.82091110      14.01342225       0.60000000      -0.00452344      -0.00468836       0.00308666      -5.72929943
Ni      10.50761971       0.04379155      17.56377824       0.60000000      -0.00066930      -0.00127444       0.00321745      -5.73039198
Ni      10.51716069       1.77707117      19.34628624       0.60000000      -0.00027865      -0.00077994       0.00334209      -5.73057193
Ni      12.27888951       0.06059460      19.32076256       0.60000000      -0.00047447      -0.00474009       0.00211076      -5.73070139
Ni      12.27317043       1.81983747      17.55994430       0.60000000      -0.00202890      -0.00264645       0.00182815      -5.73017889
Ni      10.53222278       0.00986420      21.10788204       0.60000000       0.00010044       0.00310348       0.00311368      -5.73097813
Ni      10.53305041       1.74035683      22.88394041       0.60000000      -0.00018300       0.00165705       0.00461695      -5.73108757
Ni      12.31142875       0.01257148      22.86146928       0.60000000      -0.00185329      -0.00023792       0.00366842      -5.73109221
Ni      12.28781273       1.78915890      21.10516197       0.60000000      -0.00042513      -0.00020500       0.00450886      -5.73086679
Ni      10.55663283      -0.03693461      24.63209765       0.60000000       0.00040882       0.00320319       0.00424339      -5.73118770
Ni      10.54451019       1.69747633      26.40030677       0.60000000      -0.00096321       0.00499038       0.00339196      -5.73129690
Ni      12.34062165      -0.04530592      26.37961991       0.60000000      -0.00072430       0.00240531       0.00298363      -5.73092532
Ni      12.30987419       1.74026993      24.63789380       0.60000000      -0.00044830       0.00291879       0.00380206      -5.73101193
Ni      10.56774650      -0.08069036      28.13100807       0.60000000      -0.00098477       0.00474229       0.00462245      -5.73069155
Ni      10.54567555       1.66542498      29.89389263       0.60000000      -0.00260280       0.00515047       0.00545181      -5.73064661
Ni      12.35192495      -0.08934273      29.87191340       0.60000000      -0.00317430       0.00447335       0.00798448      -5.73013300
Ni      12.32406605       1.69286490      28.14664525       0.60000000       0.00149965       0.00312685       0.00359201      -5.73109460
Ni      10.56365375      -0.10341581      31.61426190       0.60000000      -0.00333586       0.00377700       0.00933842      -5.72917670
Ni      10.54006943       1.65648879      33.37699780       0.60000000      -0.00501931       0.00244944       0.00752764      -5.72925204
Ni      12.34650568      -0.10294515      33.35696601       0.60000000      -0.00378840       0.00287390       0.00956214      -5.72813761
Ni      12.32670515       1.66446553      31.63599341       0.60000000      -0.00176411       0.00254190       0.00750033      -5.73020858
Ni      10.52049257       3.42336937      -0.05717396       0.60000000      -0.00473954       0.00154342       0.00594969      -5.72928458
Ni      10.50652991       5.19579593       1.71131033       0.60000000      -0.00350846      -0.00082072       0.00194830      -5.72934699
Ni      12.30086487       3.43853312       1.68942497       0.60000000      -0.00509767       0.00011085       0.00695483      -5.72894430
Ni      12.28474330       5.19341784      -0.02900179       0.60000000      -0.00264404      -0.00075417       0.00380551      -5.72970355
Ni      10.51608390       3.44878530       3.43854825       0.60000000      -0.00429351      -0.00048553       0.00520875      -5.72908378
Ni      10.51001012       5.22149809       5.21229162       0.60000000      -0.00205652      -0.00052121       0.00259347      -5.72930294
Ni      12.29365317       3.47428849       5.19411751       0.60000000      -0.00081475      -0.00085092       0.00489607      -5.72894835
Ni      12.28653939       5.21341222       3.46064766       0.60000000      -0.00382955      -0.00288024       0.00614827      -5.72922856
Ni      10.51268586       3.48567891       6.95668290       0.60000000      -0.00226235      -0.00123413       0.00111310      -5.72929507
Ni      10.51554492       5.25268340       8.73616643       0.60000000      -0.00193734      -0.00207276       0.00053531      -5.72934335
Ni      12.28799502       3.51719584       8.72030285       0.60000000      -0.00234898      -0.00218593       0.00015271      -5.72916073
Ni      12.28793343       5.24588518       6.97205307       0.60000000      -0.00262952      -0.00044966       0.00224227      -5.72916669
Ni      10.51203120       3.51890289      10.49143052       0.60000000      -0.00259299      -0.00171639      -0.00024710      -5.72953206
Ni      10.52088526       5.27697522      12.27426710       0.60000000      -0.00240996      -0.00215606      -0.00082228      -5.72948468
Ni      12.28430744       3.55224725      12.25742827       0.60000000      -0.00284474      -0.00262785       0.00160618      -5.72912771
Ni      12.29073087       5.28250819      10.50339311       0.60000000      -0.00342565      -0.00210319       0.00270984      -5.72905940
Ni      10.51307956       3.53719660      14.03467811       0.60000000      -0.00280920      -0.00103501       0.00012067      -5.72962254
Ni      10.52144243       5.28484100      15.81748230       0.60000000      -0.00163823      -0.00079139      -0.00326480      -5.72991657
Ni      12.28057543       3.56814494      15.80007793       0.60000000      -0.00214992      -0.00430390       0.00136420      -5.72957051
Ni      12.29143646       5.30893090      14.04338688       0.60000000      -0.00218245      -0.00290398       0.00138259      -5.72921491
Ni      10.51461801       3.53418305      17.58196045       0.60000000       0.00015712      -0.00102269      -0.00072402      -5.73008466
Ni      10.51631432       5.27100465      19.36374338       0.60000000      -0.00059396      -0.00002390      -0.00282718      -5.73034495
Ni      12.28006568       3.55536430      19.34553053       0.60000000      -0.00053874      -0.00383776       0.00178524      -5.73036927
Ni      12.28519764       5.31130071      17.58459388       0.60000000      -0.00074260      -0.00317594       0.00094249      -5.72991723
Ni      10.51904451       3.50936400      21.12703572       0.60000000       0.00076222       0.00182637       0.00153491      -5.73076069
Ni      10.50991497       5.24036835      22.90879553       0.60000000       0.00247032       0.00167442      -0.00300825      -5.73112851
Ni      12.28811311       3.51821993      22.88672352       0.60000000       0.00075299      -0.00015937       0.00570948      -5.73079860
Ni      12.27824827       5.28662304      21.13041312       0.60000000      -0.00044455      -0.00026679       0.00013683      -5.73033690
Ni      10.52387371       3.47235553      24.65948700       0.60000000       0.00178496       0.00255153       0.00087769      -5.73123932
Ni      10.50632614       5.20747144      26.43674312       0.60000000       0.00191075       0.00428390      -0.00231801      -5.73161423
Ni      12.29856923       3.47276058      26.41236147       0.60000000       0.00119868       0.00276315       0.00405443      -5.73118699
Ni      12.27768856       5.24592367      24.66976154       0.60000000       0.00042729       0.00109146       0.00215480      -5.73100364
Ni      10.52554965       3.43816479      28.16928632       0.60000000       0.00046254       0.00444880       0.00345577      -5.73135710
Ni      10.50444787       5.18689335      29.94022190       0.60000000       0.00061593       0.00428715       0.00101747      -5.73104572
Ni      12.30333637       3.43721167      29.91538597       0.60000000      -0.00013502       0.00719410       0.00471287      -5.73117453
Ni      12.27979518       5.20928372      28.18997452       0.60000000       0.00202962       0.00316426       0.00018187      -5.73145992
Ni      10.52311536       3.41993281      31.65937420       0.60000000      -0.00070644       0.00386720       0.00419172      -5.73032779
Ni      10.50403835       5.18314005      33.42667585       0.60000000       0.00053770       0.00140257       0.00054423      -5.72999763
Ni      12.30367053       3.42564360      33.40240302       0.60000000      -0.00268051       0.00112928       0.00637430      -5.73003346
Ni      12.28197866       5.19066296      31.68608636       0.60000000       0.00068139       0.00397179       0.00350879      -5.73074812
Ni      10.49064124       6.95449311      -0.00591104       0.60000000       0.00145555      -0.00018962      -0.00346202      -5.72985363
Ni      10.48523340       8.73186114       1.75978739       0.60000000       0.00187871      -0.00219515      -0.00361713      -5.72973329
Ni      12.27154626       6.96646102       1.74085781       0.60000000      -0.00050738      -0.00253420       0.00050995      -5.72970116
Ni      12.25180511       8.72487596       0.02620644       0.60000000       0.00282506      -0.00053141      -0.00392213      -5.72993195
Ni      10.50040006       6.97137873       3.48132521       0.60000000      -0.00151989      -0.00094686      -0.00022149      -5.72951066
Ni      10.50360763       8.74806483       5.25181264       0.60000000      -0.00096697      -0.00129578      -0.00095799      -5.72946739
Ni      12.28083920       6.98775622       5.23543803       0.60000000      -0.00297948      -0.00120912       0.00230588      -5.72940445
Ni      12.26728397       8.74232752       3.51117279       0.60000000      -0.00104128      -0.00198218      -0.00206780      -5.72963101
Ni      10.51293247       6.99423858       6.98867577       0.60000000      -0.00239037      -0.00017969      -0.00018619      -5.72937840
Ni      10.52317555       8.76688441       8.76592922       0.60000000       0.00041473      -0.00019428      -0.00009932      -5.72925276
Ni      12.29040654       7.01723424       8.75311641       0.60000000      -0.00206822      -0.00070027       0.00243647      -5.72913176
Ni      12.28437786       8.76261134       7.01158099       0.60000000      -0.00284542       0.00051984       0.00127652      -5.72936881
Ni      10.52461312       7.01896908      10.51757593       0.60000000       0.00063772      -0.00103074      -0.00014368      -5.72925699
Ni      10.53792085       8.78590688      12.29840418       0.60000000       0.00233170       0.00113794       0.00042042      -5.72918117
Ni      12.29815356       7.04740500      12.28907278       0.60000000      -0.00087409      -0.00113610       0.00118913      -5.72902030
Ni      12.29974596       8.78836118      10.53625571       0.60000000       0.00091768       0.00049392       0.00230931      -5.72886670
Ni      10.53076543       7.03414016      14.05612069       0.60000000      -0.00106721      -0.00107782      -0.00271058      -5.72988027
Ni      10.53906150       8.79145150      15.83377550       0.60000000      -0.00238458      -0.00035282      -0.00307533      -5.73045075
Ni      12.29700558       7.06330644      15.82657564       0.60000000      -0.00124047      -0.00229923      -0.00055798      -5.72958899
Ni      12.30686545       8.81236267      14.07226861       0.60000000       0.00160353      -0.00076755      -0.00105494      -5.72935945
Ni      10.52393812       7.02951179      17.59705666       0.60000000       0.00000894      -0.00070837      -0.00322062      -5.73045361
Ni      10.51188248       8.76561223      19.38022948       0.60000000       0.00063368       0.00021585      -0.00489332      -5.73147732
Ni      12.27879920       7.04801722      19.36925410       0.60000000       0.00186989      -0.00087554      -0.00266839      -5.72994435
Ni      12.29052058       8.81088730      17.60690461       0.60000000       0.00230099      -0.00227981      -0.00165858      -5.73005271
Ni      10.50479235       7.00231669      21.14832724       0.60000000       0.00420808       0.00256759      -0.00594162      -5.73093772
Ni      10.48099180       8.72968747      22.94085128       0.60000000       0.00697238       0.00655720      -0.00959401      -5.73190176
Ni      12.26259087       7.01100238      22.92076747       0.60000000       0.00209989       0.00187737      -0.00488207      -5.73054534
Ni      12.25419701       8.77099007      21.16405271       0.60000000       0.00650816       0.00215773      -0.00565379      -5.73034275
Ni      10.49017919       6.97071554      24.69451622       0.60000000       0.00613753       0.00553765      -0.00685329      -5.73178118
Ni      10.46664341       8.70967887      26.48147491       0.60000000       0.00666545       0.00600118      -0.00789921      -5.73199183
Ni      12.25755761       6.97359818      26.45795729       0.60000000       0.00232572       0.00652122      -0.00499286      -5.73143584
Ni      12.23599989       8.73076564      24.72038964       0.60000000       0.00643324       0.00700475      -0.01223643      -5.73111707
Ni      10.48452496       6.95076243      28.21465819       0.60000000       0.00564170       0.00525432      -0.00125058      -5.73161262
Ni      10.46494062       8.70711198      29.99074623       0.60000000       0.00759271       0.00366450      -0.00551660      -5.73109049
Ni      12.25885565       6.95447407      29.96810087       0.60000000       0.00239922       0.00500685      -0.00452586      -5.73110145
Ni      12.23432608       8.71140632      28.24539126       0.60000000       0.00552135       0.00823718      -0.00809414      -5.73122400
Ni      10.48550017       6.94636974      31.71109273       0.60000000       0.00189905       0.00231799      -0.00412740      -5.73061854
Ni      10.47208607       8.71685653      33.47845632       0.60000000       0.00343795       0.00171282      -0.00656270      -5.73020923
Ni      12.26383389       6.95357519      33.45724153       0.60000000       0.00228396       0.00080765      -0.00193446      -5.73024184
Ni      12.24064986       8.71242014      31.74276401       0.60000000       0.00367480       0.00403487      -0.00791761      -5.73048675
Ni      10.46692891      10.49638062       0.04141811       0.60000000       0.00274092      -0.00334344      -0.00713582      -5.72975904
Ni      10.47030164      12.27945746       1.79986419       0.60000000       0.00220843      -0.00425522      -0.00590453      -5.72913396
Ni      12.24872920      10.50258022       1.79291827       0.60000000       0.00093605      -0.00125938      -0.00466357      -5.72958857
Ni      12.22565694      12.26289508       0.07605340       0.60000000       0.00312553      -0.00150146      -0.00931623      -5.72942150
Ni      10.48906691      10.51158133       3.52406347       0.60000000       0.00021634      -0.00353209      -0.00492043      -5.72942013
Ni      10.50133108      12.29017585       5.28690317       0.60000000       0.00099242      -0.00220414      -0.00283934      -5.72902215
Ni      12.27238868      10.52023501       5.28101862       0.60000000      -0.00074219      -0.00187036      -0.00197917      -5.72946131
Ni      12.25526257      12.28424623       3.55717736       0.60000000       0.00046423      -0.00442901      -0.00472397      -5.72911137
Ni      10.51538522      10.52438941       7.02260591       0.60000000       0.00022320      -0.00063250      -0.00116011      -5.72920811
Ni      10.53384793      12.29985173       8.79203114       0.60000000       0.00210193      -0.00053313      -0.00023257      -5.72892237
Ni      12.29628470      10.53749678       8.78935949       0.60000000       0.00014286       0.00197464      -0.00032544      -5.72910619
Ni      12.28724392      12.29743241       7.05169258       0.60000000       0.00009134       0.00129509      -0.00354169      -5.72900450
Ni      10.53965141      10.53971162      10.54250648       0.60000000       0.00309602       0.00134373       0.00136757      -5.72893459
Ni      10.56176983      12.31506758      12.31640119       0.60000000       0.00383299       0.00522055       0.00469271      -5.72857589
Ni      12.31446759      10.56112472      12.31784802       0.60000000       0.00323988       0.00559500       0.00360803      -5.72847819
Ni      12.31558054      12.31403730      10.56417110       0.60000000       0.00409044       0.00383777       0.00454315      -5.72854251
Ni      10.55467667      10.55707355      14.07676406       0.60000000       0.00182353       0.00101853       0.00009721      -5.72883654
Ni      10.57489680      12.33504490      15.85368367       0.60000000      -0.00143900       0.00060102      -0.00569736      -5.72720474
Ni      12.31181730      10.57908535      15.84985838       0.60000000       0.00197130      -0.00333116      -0.00221108      -5.72973001
Ni      12.33322716      12.34161258      14.09577575       0.60000000       0.00720369       0.00711480       0.00706169      -5.72889817
Ni      10.53360365      10.54074706      17.61215539       0.60000000      -0.00205612      -0.00208883      -0.00378949      -5.73195803
Ni      10.51644639      12.28245441      19.40373122       0.60000000       0.01001092       0.00863849      -0.00635768      -5.72885889
Ni      12.25770379      10.53592710      19.40149783       0.60000000       0.00429138      -0.00315254      -0.00684294      -5.73202026
Ni      12.28228034      12.31886396      17.63762278       0.60000000       0.00022459      -0.01569174      -0.01238427      -5.73054814
Ni      10.48275031      10.49249697      21.17595724       0.60000000       0.01021171       0.00758195      -0.01114737      -5.73267478
Ni      10.45087403      12.22837101      22.98232994       0.60000000       0.01355496       0.00676010      -0.01581555      -5.73366135
Ni      12.21684442      10.48356250      22.97631997       0.60000000       0.00919609       0.00881557      -0.01652432      -5.73095930
Ni      12.20566600      12.23978030      21.22429769       0.60000000       0.01744004       0.01328315      -0.01599886      -5.73332506
Ni      10.45248359      10.46559471      24.73776712       0.60000000       0.01086987       0.00797334      -0.01181339      -5.73230398
Ni      10.42802169      12.21997342      26.52966485       0.60000000       0.01590602       0.01371222      -0.01141206      -5.73267710
Ni      12.20844895      10.46191434      26.51914207       0.60000000       0.00818593       0.00895854      -0.01419386      -5.73105693
Ni      12.18090992      12.20921531      24.79121825       0.60000000       0.00964141       0.01387831      -0.01717102      -5.73308343
Ni      10.44512752      10.46417002      28.26426818       0.60000000       0.00936969       0.00606693      -0.00920824      -5.73138803
Ni      10.43143371      12.23767850      30.03595257       0.60000000       0.00908546       0.00514981      -0.00961989      -5.73022228
Ni      12.21470405      10.46610368      30.02499704       0.60000000       0.00543542       0.00657740      -0.00968161      -5.73046052
Ni      12.18594017      12.21479912      28.30466405       0.60000000       0.00980978       0.01155724      -0.01158435      -5.73001778
Ni      10.45145715      10.47800036      31.75948728       0.60000000       0.00685740       0.00234025      -0.00682945      -5.73039061
Ni      10.44618235      12.25982247      33.52125507       0.60000000       0.00510140       0.00139186      -0.00834214      -5.72963035
Ni      12.22874650      10.48245274      33.51216680       0.60000000       0.00328988       0.00183677      -0.00779000      -5.72997248
Ni      12.20164254      12.23601752      31.79632284       0.60000000       0.00577780       0.00663098      -0.01140547      -5.72979927
Ni      10.44969619      14.04812677       0.07505928       0.60000000       0.00260560      -0.00350716      -0.00761589      -5.72882986
Ni      10.46200061      15.83439235       1.82428584       0.60000000       0.00303243      -0.00662895      -0.00505162      -5.72820163
Ni      12.23274376      14.04877993       1.83422622       0.60000000       0.00172136      -0.00552679      -0.00601267      -5.72870183
Ni      12.20617346      15.81278508       0.10875050       0.60000000       0.00486048      -0.00276326      -0.00513159      -5.72790688
Ni      10.48291929      14.06128350       3.55570326       0.60000000       0.00074458      -0.00531654      -0.00382028      -5.72854245
Ni      10.50105536      15.83719281       5.30940004       0.60000000       0.00215335      -0.00455088      -0.00276873      -5.72804224
Ni      12.27247309      14.06404643       5.32109195       0.60000000      -0.00034130      -0.00397232      -0.00428149      -5.72839254
Ni      12.25106210      15.83149808       3.59187855       0.60000000       0.00067757      -0.00703917      -0.00636937      -5.72807884
Ni      10.52014473      14.06567732       7.04752789       0.60000000       0.00041536      -0.00180224      -0.00096459      -5.72872704
Ni      10.53990638      15.83729692       8.80225197       0.60000000      -0.00070341      -0.00222752      -0.00115527      -5.72884500
Ni      12.30971878      14.07519775       8.81786619       0.60000000       0.00138840       0.00063995      -0.00011631      -5.72835624
Ni      12.29708555      15.84136717       7.08006759       0.60000000      -0.00083120      -0.00330779      -0.00273456      -5.72721255
Ni      10.55744326      14.07517597      10.55744833       0.60000000       0.00078022      -0.00355832       0.00059354      -5.72891080
Ni      10.57960435      15.84867824      12.31464493       0.60000000      -0.00525967      -0.00647840       0.00198236      -5.72983253
Ni      12.34155003      14.09342523      12.33541612       0.60000000       0.00662013       0.00822756       0.00849986      -5.72896063
Ni      12.33490428      15.85120580      10.57702694       0.60000000       0.00085437      -0.00511263      -0.00105397      -5.72731930
Ni      10.58804812      14.09477734      14.08886771       0.60000000       0.00339316       0.00471763       0.00228433      -5.72833109
Ni      10.64525347      15.88744286      15.86426663       0.60000000      -0.00279056       0.00140747       0.00283040      -5.71781963
Ni      12.36264857      14.12991575      15.86859595       0.60000000       0.00456563       0.01058630       0.00055090      -5.71479678
Ni      12.36855015      15.87156040      14.09593735       0.60000000       0.00258705       0.00777630       0.00819493      -5.72224611
Ni      10.62063855      14.13169335      17.63183208       0.60000000      -0.00137690      -0.00754401      -0.00770707      -5.70856619
Ni      10.73207239      15.95786471      19.40032150       0.60000000      -0.03692399      -0.06679014       0.00270933      -5.69297075
Ni      12.24161943      14.03831032      19.46767161       0.60000000       0.03272875      -0.00468199      -0.02414164      -5.71758610
Ni      12.48747869      15.94330612      17.66177288       0.60000000       0.00186921       0.02428248       0.00156171      -5.69036585
Ni      10.50837456      14.03033434      21.21522413       0.60000000       0.01287920       0.01976036      -0.01659372      -5.71977866
Ni      10.42212523      13.98978204      24.78975220       0.60000000       0.02215994       0.01323594      -0.01490811      -5.73776454
Ni      10.43552115      15.77752174      26.56589495       0.60000000       0.02332514       0.01002313      -0.02521499      -5.69975722
Ni      12.15744194      13.96382114      26.58264882       0.60000000       0.01599642       0.01695382      -0.02109594      -5.73628765
Ni      12.14791618      13.96661392      23.07110156       0.60000000       0.01906094       0.01871421      -0.02648489      -5.74813956
Ni      10.41847353      14.00125781      28.30395114       0.60000000       0.01308987       0.00938793      -0.01345787      -5.73306757
Ni      10.41788522      15.79702609      30.06629712       0.60000000       0.01169077       0.00705479      -0.01592602      -5.73284459
Ni      12.17236716      13.98768775      30.07897441       0.60000000       0.01035601       0.01215247      -0.01306878      -5.72912031
Ni      12.14681247      15.74499276      28.36205811       0.60000000       0.01469696       0.01330386      -0.01961933      -5.73872864
Ni      10.42661585      14.02448874      31.79756634       0.60000000       0.00817703       0.00462003      -0.01191136      -5.72923237
Ni      10.43185143      15.82010514      33.54659781       0.60000000       0.00663747      -0.00295311      -0.01088250      -5.72881156
Ni      12.19871969      14.02041126      33.55711978       0.60000000       0.00318668       0.00259834      -0.00968359      -5.72884864
Ni      12.17074635      15.78023260      31.83694027       0.60000000       0.01073803       0.00404941      -0.01325206      -5.72896701
Ni      10.44655452      17.61140536       0.08713238       0.60000000       0.00540102      -0.00582396      -0.00710681      -5.72875601
Ni      10.46669817      19.38929870       1.82890303       0.60000000       0.00359463      -0.00581156      -0.00494135      -5.72864652
Ni      12.22598033      17.59903003       1.86005473       0.60000000       0.00241731      -0.00457377      -0.00630058      -5.72778338
Ni      12.20664201      19.37239468       0.12329248       0.60000000       0.00775983      -0.00528004      -0.00904530      -5.72945321
Ni      10.48112883      17.61166220       3.57216486       0.60000000       0.00141819      -0.00611619      -0.00432417      -5.72781867
Ni      10.50016386      19.38177291       5.31186888       0.60000000       0.00367893      -0.00218680      -0.00438869      -5.72696263
Ni      12.27717183      17.60983914       5.34355223       0.60000000      -0.00102737      -0.00622356      -0.00580339      -5.72686505
Ni      12.25438717      19.38017337       3.60269873       0.60000000       0.00103737      -0.00494026      -0.00620887      -5.72727352
Ni      10.51914596      17.60707102       7.05553443       0.60000000       0.00072244      -0.00179015      -0.00268974      -5.72751486
Ni      10.51224098      19.38159769       8.77412691       0.60000000       0.00641841      -0.00433466       0.00564211      -5.73050201
Ni      12.31848826      17.61264734       8.82924195       0.60000000      -0.00150558      -0.00182334       0.00087465      -5.72454029
Ni      12.30036194      19.38112961       7.08470881       0.60000000      -0.00317798      -0.00538230      -0.00596723      -5.72385228
Ni      10.54033269      17.60943461      10.53566896       0.60000000      -0.00052461      -0.00180078      -0.00196887      -5.73202527
Ni      10.53597400      19.39918068      12.26020007       0.60000000      -0.00398761      -0.00680621       0.00369116      -5.73209518
Ni      12.31818215      17.63537287      12.28447213       0.60000000      -0.01572356      -0.01268052      -0.00010837      -5.73087782
Ni      12.28406200      19.40021109      10.51994107       0.60000000       0.00724965      -0.00358347       0.00846620      -5.72890991
Ni      10.60303020      17.63240395      14.05578152       0.60000000      -0.00862990      -0.00912693       0.01309152      -5.72946811
Ni      10.62184718      19.42197882      15.78734922       0.60000000      -0.00710085      -0.00774822       0.02793409      -5.72925770
Ni      12.40893216      17.68232234      15.81278833       0.60000000      -0.01313030      -0.01045408       0.03319115      -5.70391726
Ni      12.30195116      19.45858750      13.98617572       0.60000000      -0.01431694      -0.02086212       0.01967009      -5.72923726
Ni      10.70838134      17.67597748      17.59481178       0.60000000      -0.04632954      -0.03630115       0.02268306      -5.71261007
Ni       8.96816466      17.67996398      22.90889622       0.60000000      -0.04797154      -0.02358059       0.02975823      -5.69612646
Ni      12.15138182      15.79730826      21.41689326       0.60000000       0.02301452       0.01983567      -0.02596065      -5.55227965
Ni      10.76642576      17.71339364      21.16882882       0.60000000       0.02386608       0.02143691      -0.08247112      -5.65949029
Ni      10.50135231      15.82653926      23.05960121       0.60000000       0.00819431       0.01740473      -0.01307286      -5.64371341
Ni       8.92882240      17.68939740      26.40102132       0.60000000      -0.00348492      -0.00653772      -0.00573128      -5.68231773
Ni      12.13470596      15.71440205      24.86483703       0.60000000       0.02795334       0.03335699      -0.03958709      -5.68040252
Ni      10.86366087      17.76375088      24.56739646       0.60000000      -0.04851969      -0.01828710       0.01823412      -5.63692272
Ni      10.45329619      17.59144683      28.32339229       0.60000000       0.01941749       0.01062048      -0.02480363      -5.71063387
Ni      10.49500268      19.41338822      30.04145269       0.60000000       0.01958967       0.00235549      -0.01997975      -5.69198328
Ni      12.15240552      17.55050462      30.11181161       0.60000000       0.01546821       0.00584942      -0.01507258      -5.73957026
Ni      12.14105568      17.51918124      26.65002224       0.60000000       0.02097631       0.02344985      -0.03820090      -5.67953366
Ni      10.42997769      17.60076620      31.80746642       0.60000000       0.01139526       0.00181815      -0.01091560      -5.73196518
Ni      10.45451277      19.39518580      33.53291489       0.60000000       0.00946737      -0.00446635      -0.00786405      -5.72775602
Ni      12.18375766      17.58338573      33.57782180       0.60000000       0.00733565      -0.00364258      -0.00614221      -5.72902948
Ni      12.18718467      19.35921485      31.83085466       0.60000000       0.01291799      -0.00096826      -0.00876214      -5.70776361
Ni      10.47392280      21.16896940       0.06824452       0.60000000       0.00895376      -0.00443320      -0.00669897      -5.72952312
Ni      10.49494199      22.93374451       1.79609596       0.60000000       0.00627836      -0.00753089      -0.00316507      -5.72912812
Ni      12.24085992      21.15571987       1.85503074       0.60000000       0.00250270      -0.00503307      -0.00477146      -5.72860664
Ni      12.25093283      22.93047594       0.08438527       0.60000000       0.00752689      -0.00154374      -0.00804065      -5.72863042
Ni      10.48938182      21.15906898       3.56162542       0.60000000       0.00156275      -0.00397990      -0.00280307      -5.72786605
Ni      10.49827335      22.92945600       5.27453495       0.60000000       0.00498612      -0.00404758       0.00413442      -5.72883081
Ni      12.28210994      21.15357748       5.33379028       0.60000000      -0.00033968      -0.00430869      -0.00594532      -5.72511464
Ni      12.27751289      22.92811062       3.57416574       0.60000000      -0.00092161      -0.00388125      -0.00356090      -5.72660649
Ni      10.49845399      21.15681864       7.02536622       0.60000000       0.00574581      -0.00601926       0.00133217      -5.72922093
Ni      10.48047869      22.94255480       8.72960771       0.60000000       0.00697397      -0.00686363       0.00589454      -5.73262352
Ni      12.27405533      21.16867350       8.77330269       0.60000000       0.00674386      -0.00985719       0.00603043      -5.72726965
Ni      12.27879349      22.93479963       7.03157721       0.60000000       0.00578731      -0.00554370       0.00442579      -5.72636998
Ni      10.49403781      21.17228815      10.48479879       0.60000000       0.00777603      -0.00935426       0.01231834      -5.73273194
Ni      10.48538026      22.97173725      12.21848981       0.60000000       0.00735179      -0.01278994       0.01389914      -5.73103380
Ni      12.24144623      21.22054628      12.20880323       0.60000000       0.01299168      -0.01758141       0.01677381      -5.73344296
Ni      12.23189265      22.97790129      10.45385866       0.60000000       0.00440974      -0.01527294       0.01505936      -5.73365033
Ni      10.53543590      21.19977098      13.99814068       0.60000000       0.00262070      -0.01038018       0.00865148      -5.72986954
Ni      10.54397570      22.97865882      15.76131173       0.60000000      -0.00177694      -0.00422062       0.00442554      -5.72948056
Ni      12.23144103      23.04012237      13.94630897       0.60000000       0.01768946      -0.02275347       0.00828235      -5.73335505
Ni      10.64327732      21.18396749      17.54326556       0.60000000      -0.00903228       0.00445603       0.00463785      -5.72720110
Ni      10.66597846      22.93646071      19.28657173       0.60000000      -0.01358975       0.00897249       0.01119524      -5.72874814
Ni      10.74067236      19.41269510      19.33767908       0.60000000      -0.02765745       0.02826284      -0.01600424      -5.71873933
Ni      12.35424642      23.02380245      17.48085790       0.60000000      -0.00872879      -0.01030515       0.01377827      -5.73000306
Ni      10.75757366      21.18073776      21.04338203       0.60000000      -0.01865217       0.00352277       0.01854396      -5.72872776
Ni      10.74516267      22.91312097      22.79652507       0.60000000      -0.01394683       0.00776601       0.01941343      -5.72703290
Ni      10.84258027      19.48183464      22.83376394       0.60000000      -0.04991435      -0.03606187       0.00335895      -5.68547112
Ni      12.51672514      22.97157542      20.97526750       0.60000000      -0.02181512       0.00913882       0.02924637      -5.72627854
Ni      10.78683233      21.19115567      24.58785863       0.60000000      -0.00830292      -0.01307963       0.00689449      -5.71037698
Ni      10.73789983      22.92033545      26.34535068       0.60000000      -0.01898746      -0.00386276       0.00416442      -5.72414368
Ni      10.77769403      19.48863671      26.37217633       0.60000000      -0.03015842      -0.01492468       0.01939595      -5.67699438
Ni      12.56679265      22.95003846      24.52885016       0.60000000      -0.00106718      -0.00040639       0.02153260      -5.71417046
Ni      10.70533901      21.22025780      28.15394028       0.60000000      -0.01512433      -0.00273592       0.00038475      -5.68906039
Ni      10.65448283      22.91674491      29.89300080       0.60000000      -0.00153354       0.00575314      -0.00223621      -5.70890892
Ni      12.19558767      19.35096666      28.38513726       0.60000000       0.02783903       0.01652636      -0.02304646      -5.62389135
Ni      12.56647145      22.97668522      28.08949071       0.60000000      -0.01995254      -0.01086544       0.00608106      -5.67793965
Ni      10.57848557      21.19817913      31.69444052       0.60000000       0.00807486      -0.00332691      -0.00691808      -5.70116425
Ni      10.54691263      22.93854495      33.44807737       0.60000000       0.00768246      -0.00136895      -0.00479376      -5.72651964
Ni      12.21490489      21.14941449      33.56471579       0.60000000       0.01296798      -0.00058557      -0.00932112      -5.72628862
Ni      12.37468884      22.93580493      31.68778086       0.60000000       0.00093417       0.00377638      -0.00564257      -5.69157004
Ni      10.53157933      24.68627572      -0.00679139       0.60000000       0.00414756      -0.00274200      -0.00191964      -5.72890806
Ni      10.53228336      26.43594699       1.72807987       0.60000000      -0.00104497      -0.00495539       0.00080743      -5.72985858
Ni      12.29673971      24.69314926       1.78670413       0.60000000       0.00345952      -0.00393292      -0.00197426      -5.72752994
Ni      12.32531198      26.42645534      -0.01891451       0.60000000      -0.00138099      -0.00088084       0.00082841      -5.72998184
Ni      10.51260592      24.69407763       3.51082208       0.60000000       0.00251038      -0.00832074       0.00045079      -5.72901827
Ni      10.50648579      26.45813056       5.22400824       0.60000000       0.00104691      -0.00665567       0.00607600      -5.73119450
Ni      12.29368356      24.69711386       5.27960594       0.60000000       0.00154741      -0.00637620       0.00227111      -5.72693479
Ni      12.31072802      26.44629856       3.50797818       0.60000000      -0.00444485      -0.00454524       0.00118645      -5.72893775
Ni      10.48722989      24.70613632       6.97867530       0.60000000       0.00778604      -0.00730077       0.00679666      -5.73171681
Ni      10.47313627      26.48652396       8.70060009       0.60000000       0.01009469      -0.00906417       0.01060206      -5.73263526
Ni      12.24598711      24.73065211       8.71266806       0.60000000       0.00870265      -0.01036385       0.01180776      -5.73157781
Ni      12.27410434      26.47787348       6.97280052       0.60000000       0.00396441      -0.01027938       0.00740051      -5.73057777
Ni      10.46849723      24.73368083      10.45555431       0.60000000       0.00619197      -0.01059627       0.01018396      -5.73236853
Ni      10.46505333      26.51405076      12.21086080       0.60000000       0.00522729      -0.01148033       0.00870994      -5.73115689
Ni      12.21263832      24.78529215      12.18391378       0.60000000       0.01019877      -0.01447078       0.01120582      -5.73316616
Ni      12.22401171      26.52508618      10.43207039       0.60000000       0.00969226      -0.00982787       0.01513436      -5.73277211
Ni      10.48505873      24.75559252      13.98174841       0.60000000       0.01201264      -0.01355137       0.00593538      -5.73044205
Ni      10.50381107      26.50947025      15.75670977       0.60000000       0.00583457      -0.00920309       0.00156241      -5.73105520
Ni      12.25809235      24.79795051      15.71629662       0.60000000       0.00875462      -0.01421419       0.00950217      -5.73091233
Ni      12.21862450      26.55625765      13.95042734       0.60000000       0.01108483      -0.01578678       0.01025869      -5.73039800
Ni      10.56923004      24.72763232      17.52691522       0.60000000      -0.00400182      -0.00126372       0.00525375      -5.73106003
Ni      10.59018386      26.46349761      19.29463667       0.60000000      -0.00731973       0.00061206       0.00547442      -5.73131037
Ni      12.38910902      24.75585300      19.24352389       0.60000000      -0.01107193      -0.00002191       0.01429622      -5.73131359
Ni      12.29263387      26.53675735      17.48979756       0.60000000       0.00070855      -0.00955181       0.00700154      -5.73150951
Ni      10.67283715      24.67419056      21.04362686       0.60000000      -0.01332550       0.00530872       0.01295329      -5.72937626
Ni      10.66878006      26.40504613      22.80687169       0.60000000      -0.00789118       0.00502633       0.00921553      -5.72936326
Ni      12.50848371      24.68175341      22.75329022       0.60000000      -0.01584889       0.00492860       0.02463119      -5.72372156
Ni      12.40416845      26.47271731      21.01979506       0.60000000      -0.00550660       0.00312906       0.01166786      -5.73102939
Ni      10.72014464      24.64356562      24.55503614       0.60000000      -0.00783970       0.01022610       0.01226306      -5.72706944
Ni      10.69195891      26.36789113      26.31582937       0.60000000      -0.00719349       0.00934019       0.01079788      -5.72687709
Ni      12.53948974      24.66280853      26.28037588       0.60000000      -0.01354101       0.00628548       0.02077969      -5.72224802
Ni      12.48961568      26.40061136      24.52343886       0.60000000      -0.00646919       0.00831468       0.01627802      -5.72508681
Ni      10.69484013      24.63335061      28.09307384       0.60000000      -0.00611310       0.00342936      -0.00005089      -5.72518188
Ni      10.64517833      26.37280472      29.84158335       0.60000000      -0.00442512       0.00151183       0.00166824      -5.72845173
Ni      12.44872851      24.64049330      29.86731152       0.60000000       0.00204010       0.00546044      -0.00134321      -5.71233100
Ni      12.48077489      26.36210754      28.05881523       0.60000000      -0.00829256       0.01881965       0.01134181      -5.72205848
Ni      10.59890993      24.65955871      31.63911524       0.60000000       0.00341907       0.00229987      -0.00107192      -5.72924793
Ni      10.56684452      26.40923478      33.38962916       0.60000000      -0.00121823       0.00101602       0.00250650      -5.73058236
Ni      12.32971740      24.68574142      33.43866814       0.60000000       0.00146825       0.00227054      -0.00380709      -5.72829473
Ni      12.38326149      26.39493744      31.61863227       0.60000000      -0.00043938       0.00116670       0.00027433      -5.73446351
Ni      10.55613103      28.15782087      -0.06461938       0.60000000      -0.00213360      -0.00165777       0.00262621      -5.73000264
Ni      10.54720083      29.91137930       1.67573445       0.60000000      -0.00504670      -0.00247320       0.00759684      -5.72991329
Ni      12.33100108      28.17410324       1.71592083       0.60000000      -0.00475913      -0.00022137       0.00341017      -5.72971183
Ni      12.35418049      29.88552199      -0.08090412       0.60000000      -0.00449454      -0.00163558       0.00474439      -5.72947520
Ni      10.52764385      28.19269215       3.45498587       0.60000000      -0.00219712      -0.00574946       0.00474269      -5.73064852
Ni      10.51602351      29.95615016       5.18654716       0.60000000      -0.00117964      -0.00765573       0.00606545      -5.73109883
Ni      12.30200621      28.21358165       5.21725162       0.60000000      -0.00210590      -0.00749249       0.00613702      -5.73055983
Ni      12.32417919      29.93409384       3.44407895       0.60000000      -0.00406180      -0.00341901       0.00628611      -5.73021275
Ni      10.49338084      28.22825042       6.94724693       0.60000000       0.00375391      -0.00857438       0.00724484      -5.73204714
Ni      10.48322533      29.99574294       8.69126814       0.60000000       0.00467152      -0.00914780       0.00656790      -5.73126096
Ni      12.25260500      28.26028721       8.68816124       0.60000000       0.00681171      -0.01014761       0.01120136      -5.73203814
Ni      12.28496792      29.98596677       6.93857570       0.60000000      -0.00194996      -0.00745889       0.00816178      -5.73120713
Ni      10.46671261      28.26049515      10.44885575       0.60000000       0.00670275      -0.01070521       0.00740667      -5.73140305
Ni      10.46847497      30.02081876      12.21774307       0.60000000       0.00611618      -0.00891993       0.00414354      -5.73058623
Ni      12.21794653      28.29987196      12.18903306       0.60000000       0.01061213      -0.01110732       0.01092732      -5.73017746
Ni      12.24097144      30.03164622      10.43545028       0.60000000       0.00462246      -0.00991153       0.00822267      -5.73018318
Ni      10.47394278      28.27289581      13.98495284       0.60000000       0.00313881      -0.00786314       0.00432647      -5.73081481
Ni      10.49011899      30.01665553      15.76467795       0.60000000       0.00361938      -0.00775316       0.00584431      -5.73076922
Ni      12.24215377      28.30289690      15.72753853       0.60000000       0.00476938      -0.01043634       0.00617570      -5.73061621
Ni      12.22741767      30.05548563      13.96449358       0.60000000       0.00592396      -0.01152538       0.00638054      -5.73007655
Ni      10.52592813      28.24830643      17.53306914       0.60000000       0.00148645      -0.00643175       0.00244236      -5.73123616
Ni      10.54427096      29.97883342      19.31059579       0.60000000      -0.00024268      -0.00338359       0.00222016      -5.73133224
Ni      12.31926138      28.26089514      19.26993461       0.60000000      -0.00244039      -0.00235049       0.00522989      -5.73165655
Ni      12.26610656      30.03687057      17.51051226       0.60000000       0.00217013      -0.00920165       0.00377142      -5.73090410
Ni      10.60137070      28.19347172      21.06439931       0.60000000      -0.00726110       0.00134699       0.00616337      -5.73127085
Ni      10.60502801      29.92090809      22.83543000       0.60000000      -0.00419163       0.00087098       0.00607696      -5.73073417
Ni      12.40854067      28.19135270      22.79396744       0.60000000      -0.00640436       0.00245582       0.00884421      -5.73115504
Ni      12.33753879      29.98243157      21.04992262       0.60000000      -0.00456864       0.00070904       0.00469260      -5.73169011
Ni      10.65814307      28.13297349      24.57345407       0.60000000      -0.00624002       0.00705422       0.00673020      -5.72905087
Ni      10.63962239      29.86443124      26.33615192       0.60000000      -0.00722735       0.00597229       0.00648056      -5.72921371
Ni      12.46526726      28.11388270      26.30456058       0.60000000      -0.00567230       0.01037417       0.01081460      -5.72564840
Ni      12.40580504      29.90916133      24.57296991       0.60000000      -0.00700453       0.00242670       0.00905264      -5.73029178
Ni      10.65739161      28.10276817      28.07291584       0.60000000      -0.00660267       0.00669067       0.00659244      -5.72847658
Ni      10.62298365      29.84483369      29.82978451       0.60000000      -0.00616882       0.00858228       0.00941402      -5.72973353
Ni      12.43219053      28.10029280      29.81860992       0.60000000      -0.00485291       0.01036071       0.01043329      -5.72742361
Ni      12.43681721      29.84123636      28.07179313       0.60000000      -0.00621476       0.00994548       0.00675154      -5.72630978
Ni      10.60270920      28.12208166      31.59579309       0.60000000      -0.00372720       0.00235999       0.00341808      -5.73013479
Ni      10.57970888      29.87066994      33.34985086       0.60000000      -0.00308817       0.00061307       0.00562957      -5.72961771
Ni      12.36323156      28.13753292      33.36968843       0.60000000      -0.00244874       0.00127381       0.00333536      -5.73060715
Ni      12.39892900      29.84213988      31.57953242       0.60000000      -0.00448889       0.00304350       0.00868713      -5.72810948
Ni      10.56246835      31.62445908      -0.09839015       0.60000000      -0.00474350      -0.00044465       0.00502162      -5.72926033
Ni      10.54507186      33.38504630       1.65478643       0.60000000      -0.00367762      -0.00033701       0.00471769      -5.72914600
Ni      12.34182993      31.64443020       1.66394010       0.60000000      -0.00656243      -0.00189142       0.00955810      -5.72943288
Ni      12.35071289      33.35806873      -0.10339989       0.60000000      -0.00410576       0.00093361       0.00974814      -5.72812045
Ni      10.53420116      31.67149705       3.41866336       0.60000000      -0.00392640      -0.00185025       0.00685990      -5.73001558
Ni      10.52111408      33.43496612       5.17169965       0.60000000      -0.00407074      -0.00288509       0.00312139      -5.72983098
Ni      12.30943262      31.70160431       5.17804837       0.60000000      -0.00421485      -0.00651981       0.00795598      -5.73035681
Ni      12.32400022      33.41102401       3.41315711       0.60000000      -0.00436529      -0.00080908       0.00596685      -5.72926325
Ni      10.50485691      31.71963312       6.93250661       0.60000000      -0.00314657      -0.00678199       0.00611506      -5.73060387
Ni      10.49799269      33.48005363       8.69486572       0.60000000      -0.00198761      -0.00685487       0.00361132      -5.72999746
Ni      12.26991860      31.75451115       8.68388726       0.60000000       0.00133064      -0.00936244       0.00616451      -5.73017156
Ni      12.29413679      33.46914178       6.92842191       0.60000000      -0.00521025      -0.00512787       0.00597683      -5.72978097
Ni      10.48055410      31.75508734      10.45483307       0.60000000       0.00121345      -0.00617818       0.00623168      -5.73033869
Ni      10.48402762      33.50812643      12.23144081       0.60000000       0.00144153      -0.00924229       0.00437832      -5.72999400
Ni      12.23857442      31.79234202      12.20534137       0.60000000       0.00611196      -0.01175469       0.00515607      -5.72977352
Ni      12.26262532      33.51685731      10.44983676       0.60000000      -0.00040300      -0.00823113       0.00353413      -5.72961277
Ni      10.47835321      31.76919124      13.99685681       0.60000000       0.00321722      -0.00659060       0.00479455      -5.73038250
Ni      10.49293128      33.50905934      15.78024169       0.60000000       0.00197853      -0.00687303       0.00366231      -5.73035562
Ni      12.24483149      31.79612667      15.74805948       0.60000000       0.00452100      -0.00968419       0.00341675      -5.73028898
Ni      12.24782221      33.54009726      13.98712925       0.60000000       0.00157750      -0.00679912       0.00256848      -5.72977650
Ni      10.50807747      31.75100066      17.54722006       0.60000000       0.00100084      -0.00293867       0.00202295      -5.73083901
Ni      10.52342485      33.48159348      19.32835667       0.60000000       0.00030262      -0.00295034       0.00305226      -5.73084599
Ni      12.28800178      31.76385814      19.29489944       0.60000000      -0.00043424      -0.00496553       0.00239451      -5.73110324
Ni      12.26400089      33.52966223      17.53365940       0.60000000      -0.00062815      -0.00446774       0.00535962      -5.73048377
Ni      10.55720248      31.70626322      21.08699169       0.60000000      -0.00372632      -0.00039995       0.00541126      -5.73110944
Ni      10.56109667      33.43341591      22.86190120       0.60000000      -0.00099454       0.00053175       0.00201188      -5.73114651
Ni      12.34800683      31.70363832      22.83116208       0.60000000      -0.00514165      -0.00320698       0.00779569      -5.73109663
Ni      12.30396682      33.48843171      21.07934264       0.60000000      -0.00384492      -0.00277863       0.00545994      -5.73111516
Ni      10.59983901      31.64872019      24.60387672       0.60000000      -0.00386544       0.00403073       0.00613943      -5.73071414
Ni      10.58660551      33.38041524      26.36872694       0.60000000      -0.00123634       0.00593771       0.00457015      -5.73077786
Ni      12.39512649      31.63184548      26.34501600       0.60000000      -0.00669978       0.00453459       0.00792835      -5.73001653
Ni      12.34905454      33.42532753      24.60908615       0.60000000      -0.00328676       0.00222873       0.00500509      -5.73096204
Ni      10.61547509      31.60031867      28.09565868       0.60000000      -0.00483496       0.00872232       0.00759397      -5.72952741
Ni      10.58986615      33.34428123      29.85424007       0.60000000      -0.00532258       0.00787931       0.00937012      -5.72923094
Ni      12.40548100      31.58132950      29.83340904       0.60000000      -0.00365892       0.00663101       0.01127526      -5.72736180
Ni      12.37582400      33.36504399      28.10965283       0.60000000      -0.00399778       0.00686989       0.00727951      -5.73015207
Ni      10.59483912      31.59276306      31.58746480       0.60000000      -0.00510674       0.00450052       0.00962430      -5.72906125
Ni      10.56991447      33.34713825      33.34518342       0.60000000      -0.00265568       0.00443819       0.00955526      -5.72873658
Ni      12.37447059      31.59416693      33.33887214       0.60000000      -0.00491687       0.00515976       0.00895653      -5.72780216
Ni      12.37486655      33.33473969      31.59483383       0.60000000      -0.00405875       0.00441087       0.01100586      -5.72757769
Ni      14.12455585      -0.09864526      -0.09859903       0.60000000      -0.00455953       0.00263886       0.00906914      -5.72726417
Ni      14.09832871       1.67984090       1.66777709       0.60000000      -0.00329418       0.00170560       0.00799151      -5.72833031
Ni      15.89622532      -0.08656396       1.65077599       0.60000000      -0.00399105       0.00147522       0.00922422      -5.72709513
Ni      15.87989762       1.66805819      -0.08161059       0.60000000      -0.00484092       0.00245697       0.00871843      -5.72934735
Ni      14.10445850      -0.04857637       3.41165438       0.60000000      -0.00580630      -0.00168470       0.00768374      -5.72844291
Ni      14.08334586       1.72935501       5.17847737       0.60000000      -0.00317606      -0.00317842       0.00286254      -5.72868395
Ni      15.87554389      -0.01941680       5.17103768       0.60000000      -0.00652963      -0.00318274       0.00654623      -5.72906554
Ni      15.87101202       1.70047070       3.41873737       0.60000000      -0.00297241      -0.00057978       0.00702366      -5.72840351
Ni      14.07905343       0.01553812       6.93033168       0.60000000      -0.00711609      -0.00449652       0.00441004      -5.72919732
Ni      14.06624675       1.78586792       8.70299626       0.60000000      -0.00501491      -0.00655590       0.00224718      -5.72879070
Ni      15.84686149       0.05075728       8.69017033       0.60000000      -0.00374961      -0.00700682       0.00499923      -5.72900420
Ni      15.85539081       1.76032690       6.93770043       0.60000000      -0.00454070      -0.00272605       0.00666020      -5.72883254
Ni      14.05042276       0.07062865      10.45355502       0.60000000      -0.00424360      -0.00615743       0.00307737      -5.72886580
Ni      14.04999636       1.82993260      12.23567421       0.60000000      -0.00644124      -0.00598352       0.00348161      -5.72867739
Ni      15.81487035       0.10501765      12.21052605       0.60000000      -0.00448336      -0.00624127       0.00372661      -5.72802424
Ni      15.83627461       1.82111051      10.46600142       0.60000000      -0.00761183      -0.00644699       0.00249409      -5.72830337
Ni      14.02868978       0.10431044      13.98644256       0.60000000      -0.00313682      -0.00701421       0.00224907      -5.72893679
Ni      14.03675374       1.85216291      15.77575286       0.60000000      -0.00394325      -0.00880904       0.00195731      -5.72965711
Ni      15.78832066       0.13627271      15.74257026       0.60000000      -0.00276707      -0.00854387       0.00024253      -5.72923625
Ni      15.81324883       1.86440791      13.99834483       0.60000000      -0.00519382      -0.00552871       0.00173386      -5.72864789
Ni      14.02653730       0.10562508      17.52888753       0.60000000      -0.00247528      -0.00426672       0.00409686      -5.73037428
Ni      14.03876977       1.83862197      19.31991526       0.60000000       0.00029858      -0.00768899       0.00285088      -5.73077565
Ni      15.79177005       0.12228710      19.28199904       0.60000000      -0.00346806      -0.00637793       0.00586077      -5.73121333
Ni      15.79968119       1.87568014      17.53658769       0.60000000      -0.00477948      -0.00639907       0.00389950      -5.73044062
Ni      14.05171939       0.06855931      21.07553970       0.60000000      -0.00078785      -0.00191199       0.00518751      -5.73109233
Ni      14.06086572       1.79253105      22.86251015       0.60000000       0.00064398      -0.00365498       0.00480925      -5.73106092
Ni      15.82817042       0.06517447      22.82947335       0.60000000      -0.00188126      -0.00408717       0.00701553      -5.73097998
Ni      15.80641619       1.84490036      21.07759694       0.60000000      -0.00105229      -0.00207217       0.00560635      -5.73144794
Ni      14.09352571       0.00459264      24.61382684       0.60000000      -0.00163194      -0.00063236       0.00582305      -5.73076510
Ni      14.08892555       1.73319960      26.38880721       0.60000000       0.00007201      -0.00064335       0.00371996      -5.73089570
Ni      15.87799506      -0.01457159      26.36431492       0.60000000      -0.00287353      -0.00004529       0.00526690      -5.72990149
Ni      15.83729838       1.78382650      24.61700363       0.60000000      -0.00070752       0.00022872       0.00617174      -5.73103601
Ni      14.12442381      -0.06006024      28.12399507       0.60000000      -0.00245559       0.00230536       0.00539242      -5.73059696
Ni      14.10381230       1.68545301      29.89052161       0.60000000      -0.00134758       0.00108880       0.00244187      -5.73091394
Ni      15.90302726      -0.07989138      29.86587501       0.60000000      -0.00069581       0.00292393       0.00485141      -5.73048556
Ni      15.86734110       1.71990964      28.13596800       0.60000000      -0.00052653      -0.00058120       0.00536703      -5.73086113
Ni      14.13171964      -0.09988691      31.61249422       0.60000000      -0.00314443       0.00483466       0.00768984      -5.72956544
Ni      14.10542965       1.66454234      33.37746034       0.60000000      -0.00312912       0.00238817       0.00609524      -5.72974342
Ni      15.90567635      -0.10828491      33.35204407       0.60000000      -0.00247209       0.00228776       0.00853035      -5.72865337
Ni      15.87917253       1.67685496      31.63105805       0.60000000      -0.00327001       0.00343727       0.00522423      -5.73088968
Ni      14.08289306       3.43377267      -0.05559858       0.60000000      -0.00503783       0.00242122       0.00518875      -5.72968280
Ni      14.06434523       5.20665203       1.71436323       0.60000000      -0.00392856      -0.00099694       0.00370305      -5.72963709
Ni      15.85781872       3.44546956       1.68659773       0.60000000      -0.00257924       0.00116138       0.00846411      -5.72951460
Ni      15.83923333       5.20748995      -0.03219478       0.60000000      -0.00171981      -0.00208473       0.00309694      -5.73045540
Ni      14.07781882       3.45792661       3.43812731       0.60000000      -0.00361906      -0.00007820       0.00535871      -5.72881567
Ni      14.06424844       5.23346261       5.21262814       0.60000000      -0.00296969      -0.00103967       0.00476149      -5.72917408
Ni      15.85203383       3.48114326       5.19104785       0.60000000      -0.00356016      -0.00155883       0.00329693      -5.72896475
Ni      15.84148572       5.22101916       3.45844985       0.60000000      -0.00421024       0.00080375       0.00473769      -5.72966671
Ni      14.06953259       3.50341329       6.95325981       0.60000000      -0.00321263      -0.00361568       0.00253297      -5.72887391
Ni      14.06364169       5.27346985       8.73526165       0.60000000      -0.00188042       0.00006619       0.00209479      -5.72894508
Ni      15.84308019       3.53485540       8.71608373       0.60000000      -0.00604120      -0.00463901       0.00337008      -5.72843874
Ni      15.83950591       5.25620941       6.96847556       0.60000000      -0.00287508      -0.00103567       0.00441283      -5.72917372
Ni      14.06171305       3.55120384      10.48599339       0.60000000      -0.00398012      -0.00200767       0.00039537      -5.72861409
Ni      14.06414434       5.31661781      12.27509295       0.60000000      -0.00325160      -0.00280437       0.00006620      -5.72839206
Ni      15.83220854       3.58833038      12.25460447       0.60000000      -0.00651370      -0.00646919       0.00013493      -5.72811258
Ni      15.83722517       5.30539004      10.50421597       0.60000000      -0.00303915      -0.00112523       0.00194579      -5.72810543
Ni      14.05390421       3.58723176      14.02457651       0.60000000      -0.00642730      -0.00457821       0.00192214      -5.72886556
Ni      14.05994311       5.34222963      15.81358015       0.60000000      -0.00268900      -0.00777608       0.00167276      -5.72906309
Ni      15.81834342       3.61771337      15.79183679       0.60000000      -0.00271683      -0.00879494       0.00218718      -5.72955501
Ni      15.83642710       5.35353311      14.05001566       0.60000000      -0.00679281      -0.00931653      -0.00282456      -5.72800040
Ni      14.04512767       3.59411559      17.56497495       0.60000000      -0.00243604      -0.00512403       0.00334310      -5.73012674
Ni      14.04741359       5.33193253      19.35175936       0.60000000       0.00191440      -0.00387986       0.00203459      -5.73007095
Ni      15.80951564       3.60967839      19.32824507       0.60000000       0.00074129      -0.00668700       0.00297565      -5.73078638
Ni      15.82389164       5.36653678      17.58227779       0.60000000      -0.00155000      -0.00931812       0.00142809      -5.72985357
Ni      14.04673763       3.56777266      21.10758109       0.60000000      -0.00179570      -0.00321476       0.00222408      -5.73082983
Ni      14.04470852       5.29514447      22.89296578       0.60000000       0.00009449      -0.00204104       0.00418026      -5.73046774
Ni      15.81565540       3.56922678      22.86596083       0.60000000       0.00193580      -0.00433704       0.00258861      -5.73116744
Ni      15.81216866       5.34210329      21.11468374       0.60000000       0.00163537      -0.00571918       0.00073938      -5.73028451
Ni      14.06121088       3.51915400      24.64391526       0.60000000      -0.00090508      -0.00164364       0.00310293      -5.73094618
Ni      14.05058544       5.24745625      26.42616513       0.60000000       0.00148110      -0.00199656       0.00098530      -5.73117936
Ni      15.83589606       3.51219245      26.39613923       0.60000000       0.00179444      -0.00052573       0.00378792      -5.73115754
Ni      15.81546556       5.29461481      24.65024578       0.60000000       0.00010835       0.00056167       0.00399832      -5.73073673
Ni      14.07519468       3.46903923      28.16191108       0.60000000       0.00192122       0.00270963       0.00115826      -5.73125768
Ni      14.05669870       5.21036106      29.93703398       0.60000000       0.00281140       0.00535206       0.00205955      -5.73140830
Ni      15.85182791       3.46373732      29.90658310       0.60000000      -0.00019840       0.00103739       0.00181984      -5.73134440
Ni      15.82569587       5.24550396      28.17544488       0.60000000       0.00186294      -0.00003822       0.00214028      -5.73149788
Ni      14.08164393       3.43782149      31.65871141       0.60000000       0.00032199       0.00449137       0.00213562      -5.73098999
Ni      14.06121747       5.19765295      33.42848493       0.60000000       0.00070167       0.00412471       0.00128350      -5.73052859
Ni      15.85820294       3.43996936      33.39798892       0.60000000      -0.00244916       0.00080310       0.00594612      -5.73074222
Ni      15.83431710       5.21403170      31.67846610       0.60000000       0.00065462       0.00287479       0.00214831      -5.73127496
Ni      14.04451241       6.96473617      -0.00064195       0.60000000       0.00069796      -0.00005711       0.00031313      -5.73016179
Ni      14.03393988       8.73637071       1.77056500       0.60000000       0.00224390      -0.00023744      -0.00192851      -5.72989178
Ni      15.82475648       6.97690075       1.73942396       0.60000000      -0.00157455      -0.00168923       0.00196776      -5.73020458
Ni      15.80308539       8.73581262       0.02517938       0.60000000       0.00261225       0.00106480      -0.00087509      -5.73033321
Ni      14.05272394       6.98020490       3.48692771       0.60000000      -0.00511064      -0.00085775       0.00115453      -5.72970384
Ni      14.04876934       8.75491455       5.26101781       0.60000000      -0.00390384      -0.00191535       0.00130218      -5.72979611
Ni      15.83093748       6.99485810       5.23324693       0.60000000      -0.00646390      -0.00166866       0.00413774      -5.72986776
Ni      15.81603329       8.74842754       3.51247118       0.60000000      -0.00199952      -0.00253623       0.00109909      -5.73001379
Ni      14.05919937       7.00672422       6.99188937       0.60000000      -0.00377994       0.00030649       0.00131486      -5.72936797
Ni      14.06243478       8.77998987       8.77458836       0.60000000      -0.00332096      -0.00038930       0.00099318      -5.72942215
Ni      15.83396677       7.02787643       8.75300475       0.60000000      -0.00268080      -0.00130450       0.00141920      -5.72930413
Ni      15.82663732       8.76658613       7.01235139       0.60000000      -0.00405454      -0.00080483       0.00133996      -5.73025787
Ni      14.06582905       7.04348741      10.52251511       0.60000000      -0.00140361       0.00044736       0.00100306      -5.72874951
Ni      14.07542732       8.81448927      12.31192605       0.60000000      -0.00031529      -0.00034781       0.00113361      -5.72832817
Ni      15.84104284       7.07642693      12.29964626       0.60000000      -0.00195768      -0.00182588      -0.00080702      -5.72718847
Ni      15.83747260       8.79874658      10.54241708       0.60000000      -0.00281074      -0.00060930       0.00061371      -5.72888547
Ni      14.07182895       7.08247038      14.06530641       0.60000000      -0.00280183      -0.00504760       0.00084607      -5.72813332
Ni      14.07539856       8.84904116      15.85019713       0.60000000       0.00257035      -0.00723619      -0.00049329      -5.72759718
Ni      15.84355587       7.12087637      15.84372973       0.60000000      -0.00471041      -0.01472132      -0.00515906      -5.72748363
Ni      15.85336956       8.85362462      14.09807704       0.60000000      -0.00419468      -0.00425767      -0.00031477      -5.72518915
Ni      14.05828142       7.09132602      17.59820955       0.60000000       0.00100491      -0.00629636       0.00158097      -5.72932845
Ni      14.03729427       8.82842063      19.38629211       0.60000000       0.01021774      -0.00219311      -0.00142136      -5.72909832
Ni      15.81656021       7.11206212      19.36699290       0.60000000       0.00615613      -0.00859948      -0.00102863      -5.72946566
Ni      15.82983443       8.88439435      17.62762482       0.60000000       0.00807444      -0.01601220      -0.00473146      -5.72835666
Ni      14.03757188       7.06280480      21.14021560       0.60000000       0.00442397      -0.00269617      -0.00048315      -5.72947007
Ni      14.01226607       8.77710814      22.94316871       0.60000000       0.00595626       0.00072486      -0.00532867      -5.72971290
Ni      15.80395922       7.06933024      22.90283632       0.60000000       0.00079242      -0.00453270       0.00213774      -5.72961789
Ni      15.79446271       8.84319445      21.15897674       0.60000000       0.00806163      -0.00738756      -0.00163928      -5.72869360
Ni      14.03063217       7.01596978      24.68531382       0.60000000       0.00016562       0.00039666       0.00041073      -5.73055941
Ni      14.00762138       8.73558517      26.48568184       0.60000000       0.00266408       0.00391921      -0.00861185      -5.73098576
Ni      15.80448920       7.01828871      26.44033713       0.60000000      -0.00052590       0.00093885       0.00251815      -5.73095489
Ni      15.78301333       8.78336996      24.70641777       0.60000000       0.00034759       0.00030397      -0.00057634      -5.73039186
Ni      14.03259258       6.97776665      28.21239540       0.60000000       0.00183848       0.00397396      -0.00223637      -5.73141670
Ni      14.01237521       8.72032943      29.99528660       0.60000000       0.00205305       0.00477594      -0.00387732      -5.73091257
Ni      15.81013798       6.98391169      29.95674351       0.60000000       0.00224034       0.00356839      -0.00160925      -5.73139668
Ni      15.78530392       8.74701341      28.23357181       0.60000000      -0.00029863       0.00361640      -0.00588144      -5.73107654
Ni      14.03747384       6.96130648      31.71231200       0.60000000       0.00306583       0.00496582       0.00059184      -5.73089653
Ni      14.02154338       8.72270957      33.48587722       0.60000000       0.00182218       0.00247781      -0.00090327      -5.73033518
Ni      15.81675211       6.97151770      33.45173960       0.60000000       0.00349321       0.00262253       0.00007564      -5.73083681
Ni      15.79250403       8.73290419      31.73607463       0.60000000       0.00232601       0.00499962      -0.00449632      -5.73090053
Ni      14.01128045      10.49344032       0.05695220       0.60000000       0.00321928      -0.00142582      -0.00338192      -5.72985053
Ni      14.01063152      12.27190369       1.82496212       0.60000000       0.00297988      -0.00472204      -0.00512729      -5.72938526
Ni      15.79554445      10.50578211       1.79813275       0.60000000       0.00248185      -0.00067068      -0.00282440      -5.72983450
Ni      15.76902112      12.26044944       0.08498231       0.60000000       0.00543498      -0.00032106      -0.00562963      -5.72985017
Ni      14.03260094      10.51313728       3.54119723       0.60000000       0.00000721      -0.00434116      -0.00125641      -5.72961056
Ni      14.04144927      12.29144092       5.31318630       0.60000000       0.00058003      -0.00288410      -0.00401637      -5.72927368
Ni      15.81502112      10.52151234       5.28825325       0.60000000      -0.00127714      -0.00077274      -0.00122927      -5.72998518
Ni      15.79773678      12.28102744       3.57135947       0.60000000       0.00024407      -0.00437246      -0.00314922      -5.72958225
Ni      14.05441696      10.53012152       7.03770566       0.60000000      -0.00431069      -0.00009360      -0.00049167      -5.72984815
Ni      14.07065227      12.30656036       8.81618157       0.60000000      -0.00183829       0.00279454      -0.00314975      -5.72935361
Ni      15.83171783      10.53844556       8.79454391       0.60000000      -0.00326863      -0.00076811       0.00003372      -5.73044878
Ni      15.82482422      12.29717101       7.06698217       0.60000000      -0.00123183      -0.00005988      -0.00259890      -5.72956079
Ni      14.07493168      10.55412971      10.55986955       0.60000000      -0.00166151       0.00210956       0.00090581      -5.72887498
Ni      14.09350946      12.33332218      12.34386846       0.60000000       0.00671691       0.00779013       0.00631660      -5.72897035
Ni      15.85071728      10.57396893      12.33718700       0.60000000      -0.00478282      -0.00021559       0.00020274      -5.72749525
Ni      15.84807507      12.31236662      10.58208719       0.60000000      -0.00443503       0.00253161      -0.00462850      -5.72973239
Ni      14.08659413      10.58810637      14.09755703       0.60000000       0.00025743       0.00159470       0.00186598      -5.72844589
Ni      14.09304642      12.36896741      15.87382391       0.60000000       0.00914361       0.00178494       0.00609656      -5.72252607
Ni      15.86089928      10.64519186      15.89021880       0.60000000       0.00082507      -0.00608403      -0.00137228      -5.71890056
Ni      15.86518940      12.36217590      14.13082056       0.60000000       0.00204467       0.00642063       0.01088192      -5.71621913
Ni      14.05256281      10.60355825      17.63434393       0.60000000       0.01352057      -0.00829576      -0.00820129      -5.72938335
Ni      13.98319064      12.30356219      19.46119569       0.60000000       0.02027339      -0.01831309      -0.02106259      -5.72872448
Ni      15.78352679      10.62312541      19.42533746       0.60000000       0.02910899      -0.01039344      -0.01321654      -5.72921067
Ni      15.81017219      12.40911791      17.68441011       0.60000000       0.03235571      -0.01037276      -0.00996938      -5.70343137
Ni      13.99441798      10.53599551      21.20241738       0.60000000       0.01320969      -0.00008471      -0.01107100      -5.72987127
Ni      13.94305099      12.23102553      23.04471182       0.60000000       0.00853932       0.01415387      -0.02134881      -5.73334098
Ni      15.75782982      10.54452984      22.98084041       0.60000000       0.00572094      -0.00275332      -0.00464632      -5.72943264
Ni      13.97913570      10.48430769      24.75986002       0.60000000       0.00800236       0.00889928      -0.01430297      -5.73044389
Ni      13.94798357      12.21676251      26.56160288       0.60000000       0.00739152       0.00985345      -0.01698886      -5.73030144
Ni      15.75482940      10.50288123      26.51262999       0.60000000       0.00056931       0.00605657      -0.00952169      -5.73086387
Ni      15.71314517      12.25781792      24.80184403       0.60000000       0.00889336       0.00780849      -0.01514387      -5.73084128
Ni      13.98308760      10.47191977      28.27775654       0.60000000       0.00398020       0.00485587      -0.01099001      -5.73062962
Ni      13.96185324      12.22579641      30.06016339       0.60000000       0.00545664       0.00526587      -0.01345077      -5.72998327
Ni      15.76322205      10.48943526      30.02065203       0.60000000       0.00362633       0.00317063      -0.00931095      -5.73075712
Ni      15.72506997      12.24133969      28.30743100       0.60000000       0.00473243       0.00356874      -0.01225347      -5.73053080
Ni      13.99445721      10.47689342      31.77278249       0.60000000       0.00450469       0.00364590      -0.00554409      -5.73034823
Ni      13.98345186      12.24651166      33.54349822       0.60000000       0.00377661       0.00041635      -0.00548906      -5.72978789
Ni      15.77759338      10.49214092      33.51242751       0.60000000       0.00353520       0.00371685      -0.00671003      -5.73030746
Ni      15.74547970      12.24450716      31.79995778       0.60000000       0.00272187       0.00259226      -0.00930807      -5.73026031
Ni      13.98261892      14.02716488       0.10788473       0.60000000       0.00252038      -0.00203432      -0.00746957      -5.72906059
Ni      13.99494342      15.81195199       1.86818661       0.60000000       0.00109093      -0.00321925      -0.00553092      -5.72857243
Ni      15.77212853      14.03627002       1.85492057       0.60000000       0.00387880      -0.00389537      -0.00609415      -5.72968304
Ni      15.73785858      15.78754974       0.13922429       0.60000000       0.00304431      -0.00200354      -0.00729657      -5.72926426
Ni      14.02200566      14.05355482       3.59147676       0.60000000       0.00143309      -0.00602516      -0.00615672      -5.72893167
Ni      14.04670517      15.83611296       5.35647272       0.60000000      -0.00173776      -0.00571789      -0.00860858      -5.72805285
Ni      15.81143615      14.06015026       5.34557024       0.60000000       0.00130100      -0.00247814      -0.00721416      -5.72910416
Ni      15.78944893      15.81816492       3.62084960       0.60000000      -0.00136552      -0.00302653      -0.00829852      -5.72951180
Ni      14.06327122      14.07144740       7.08611730       0.60000000      -0.00068257      -0.00008286      -0.00520837      -5.72816217
Ni      14.09548711      15.85382143       8.85666902       0.60000000       0.00062904      -0.00268718      -0.00320391      -5.72510391
Ni      15.84821518      14.07639610       8.85211256       0.60000000      -0.00060590       0.00332374      -0.00682612      -5.72750455
Ni      15.84041516      15.84411500       7.12303170       0.60000000      -0.00389235      -0.00509088      -0.01283002      -5.72753483
Ni      14.09549445      14.08691038      10.59085532       0.60000000       0.00314813       0.00179559       0.00237976      -5.72827142
Ni      14.12957241      15.86619404      12.36425607       0.60000000       0.00966413       0.00178820       0.00540951      -5.71537066
Ni      15.87244571      14.09450009      12.37143495       0.60000000       0.00596864       0.00788586       0.00270754      -5.72237629
Ni      15.88866467      15.86275047      10.64780767       0.60000000      -0.00272299       0.00227053      -0.00319032      -5.71802664
Ni      14.12388136      14.12456095      14.12613828       0.60000000       0.01088656       0.01082434       0.01229787      -5.71251947
Ni      14.19407344      15.93087511      15.91156866       0.60000000       0.01435920       0.02729317      -0.00122042      -5.69527024
Ni      15.90954699      14.19177505      15.92958020       0.60000000      -0.00328646       0.01955434       0.03100619      -5.69315326
Ni      15.92850361      15.90994865      14.19421941       0.60000000       0.02693576      -0.00655759       0.01551940      -5.69398260
Ni      14.02146027      14.05529445      17.68969107       0.60000000      -0.01126746      -0.01563470      -0.01395481      -5.69811910
Ni      13.87901337      13.99032669      21.36036698       0.60000000       0.02384262       0.02369264      -0.03955548      -5.75451106
Ni      15.71261888      12.30964257      21.28317004       0.60000000       0.00739159      -0.00421934      -0.00419227      -5.73383814
Ni      15.60363041      14.10161640      19.64978300       0.60000000       0.04862636      -0.03789038      -0.02329469      -5.74629080
Ni      13.90281929      13.96590571      24.85337413       0.60000000       0.01120959       0.01221093      -0.02998284      -5.73909789
Ni      13.86848020      15.72491235      26.64658927       0.60000000       0.01300832       0.00158774      -0.02707815      -5.74348944
Ni      15.67107384      13.99691176      26.60268967       0.60000000       0.01208278       0.00257823      -0.01212193      -5.73068541
Ni      15.64711418      14.02881256      23.11624265       0.60000000       0.02012704       0.00560546      -0.03540895      -5.74056363
Ni      13.92181741      13.97142895      28.34910922       0.60000000       0.01003811       0.00802470      -0.01527262      -5.72965503
Ni      13.90931592      15.74608533      30.12155572       0.60000000       0.00924856       0.00395433      -0.01428515      -5.73074383
Ni      15.70239504      13.99436108      30.08996902       0.60000000       0.00667727      -0.00027020      -0.01116729      -5.72978985
Ni      15.64483149      15.75008365      28.38772049       0.60000000       0.00814773       0.00203370      -0.00771814      -5.73274207
Ni      13.94875451      13.99588272      31.83106056       0.60000000       0.00683819       0.00298703      -0.01007755      -5.72913849
Ni      13.94758525      15.78134445      33.59111780       0.60000000       0.00719131      -0.00143456      -0.00979383      -5.72787189
Ni      15.73503995      14.01105675      33.57218654       0.60000000       0.00212219      -0.00020305      -0.00767088      -5.72970855
Ni      15.69050110      15.75972091      31.86182762       0.60000000       0.00967702      -0.00222797      -0.00730298      -5.72932649
Ni      13.96235959      17.57146088       0.14644946       0.60000000       0.00551028      -0.00565064      -0.00845878      -5.72741818
Ni      13.99317794      19.36357321       1.88970923       0.60000000       0.00048204      -0.00315596      -0.00874327      -5.72780782
Ni      15.75824705      17.57390287       1.89712909       0.60000000       0.00047673       0.00022817      -0.01039218      -5.72904348
Ni      15.72168275      19.33081733       0.17698574       0.60000000       0.00232378      -0.00018601      -0.01049728      -5.72841841
Ni      14.02098216      17.59815507       3.62280677       0.60000000      -0.00046297      -0.00475080      -0.00739350      -5.72827011
Ni      14.05536013      19.38046449       5.36977964       0.60000000      -0.00319020      -0.00436518      -0.00737955      -5.72666579
Ni      15.81874733      17.60404849       5.38203680       0.60000000      -0.00110242      -0.00217043      -0.00729645      -5.72902930
Ni      15.79203122      19.36725046       3.64055193       0.60000000      -0.00034575      -0.00396615      -0.00615593      -5.72897089
Ni      14.08081031      17.61664771       7.11818105       0.60000000      -0.00724710      -0.00518259      -0.01133139      -5.72527051
Ni      14.11010623      19.38617140       8.87461656       0.60000000      -0.00746097      -0.00404664      -0.01202426      -5.71165693
Ni      15.88598363      17.62896283       8.91095975       0.60000000      -0.01852283      -0.00771667      -0.02436237      -5.71940041
Ni      15.85672100      19.38342381       7.14789802       0.60000000      -0.00471300       0.00099955      -0.00773683      -5.72446400
Ni      14.13145646      17.62965821      10.62265405       0.60000000      -0.00712323      -0.00882535      -0.00101595      -5.70911932
Ni      14.04091688      19.46383284      12.24673835       0.60000000      -0.00656888      -0.02167431       0.02762485      -5.71804374
Ni      15.94360238      17.65978053      12.48821090       0.60000000       0.02294306       0.00214722       0.00194433      -5.68998677
Ni      15.95629128      19.39824259      10.73130174       0.60000000      -0.06486874       0.00338476      -0.03665389      -5.69379592
Ni      14.05402267      17.68806626      14.02151805       0.60000000      -0.01442270      -0.01695404      -0.00694495      -5.69920850
Ni      12.63229801      17.83578009      19.26165561       0.60000000      -0.08910897      -0.03983014       0.06540217      -5.61055130
Ni      15.30373214      15.96595868      18.24046839       0.60000000       0.05969634      -0.11482083      -0.09563202      -5.38648863
Ni      14.39411489      17.94528483      17.31108545       0.60000000      -0.05840512      -0.09678343       0.12444770      -5.68114328
Ni      13.75992391      15.84445345      19.82067639       0.60000000       0.03478265       0.04311627      -0.05679169      -5.43225753
Ni      12.75806332      17.84775022      22.72146883       0.60000000      -0.05746191      -0.02320012       0.03130330      -5.62580889
Ni      15.52618193      15.81591143      21.46885015       0.60000000       0.05291812       0.00322124      -0.06579736      -5.67076498
Ni      14.61453842      17.97156948      20.88857611       0.60000000      -0.04201869      -0.05990247      -0.05575356      -5.59265012
Ni      13.82880255      15.72025769      23.15957046       0.60000000       0.04414363       0.01789298      -0.04250598      -5.67932588
Ni      13.75916777      17.49414082      24.94028055       0.60000000       0.05618615       0.01418779      -0.01271040      -5.68608409
Ni      15.57802185      15.77633910      24.91893196       0.60000000       0.02923006      -0.01967251      -0.02139744      -5.74291492
Ni      15.39049587      17.56358393      23.23425206       0.60000000       0.08480518      -0.00760145       0.01604565      -5.70702577
Ni      13.86169653      17.50435909      28.41529848       0.60000000       0.01270739       0.00404045      -0.02278632      -5.75119221
Ni      13.89046298      19.29251639      30.14226801       0.60000000       0.01526194       0.00327370      -0.01516471      -5.68060213
Ni      15.63969124      17.51487667      30.15564868       0.60000000       0.01109419      -0.00220658      -0.00732888      -5.73895442
Ni      15.53997461      17.52006649      26.69001058       0.60000000       0.03578866      -0.01266199      -0.01016742      -5.75201458
Ni      13.91288904      17.53876177      31.87127095       0.60000000       0.01008286      -0.00016096      -0.00974176      -5.73279679
Ni      13.93440921      19.33466337      33.62248628       0.60000000       0.00552812       0.00144140      -0.01292831      -5.73260617
Ni      15.69436221      17.53692701      33.62699001       0.60000000       0.00694706      -0.00151181      -0.00834819      -5.72857219
Ni      15.64513010      19.29088382      31.91728762       0.60000000       0.01514295       0.00037382      -0.00902427      -5.74085367
Ni      13.97212308      21.13402877       0.14986938       0.60000000       0.00283357       0.00074739      -0.00753625      -5.73098493
Ni      14.02759121      22.92581324       1.85539776       0.60000000       0.00219199      -0.00116544      -0.00575174      -5.72681493
Ni      15.76580273      21.13558845       1.89686340       0.60000000      -0.00069686      -0.00189318      -0.00803632      -5.72900224
Ni      15.75271925      22.91086273       0.13854106       0.60000000       0.00054242       0.00245242      -0.00894638      -5.72848183
Ni      14.03397135      21.15072511       3.61944893       0.60000000       0.00082539      -0.00162791      -0.00570650      -5.72715193
Ni      14.07309558      22.92202446       5.34777418       0.60000000       0.00028119      -0.00329405      -0.00421857      -5.72324443
Ni      15.83435311      21.14802448       5.38562527       0.60000000      -0.00278759      -0.00150785      -0.00646737      -5.72642404
Ni      15.82065927      22.91802282       3.61515002       0.60000000      -0.00143145      -0.00041258      -0.00694953      -5.72758085
Ni      14.08531217      21.15140426       7.11112052       0.60000000      -0.00529312      -0.00166378      -0.00561047      -5.71995342
Ni      14.05855803      22.95536051       8.78356584       0.60000000       0.00330801      -0.00749253       0.01172241      -5.72508955
Ni      15.89252704      21.15009384       8.92511757       0.60000000       0.00349746       0.00142281      -0.01298554      -5.71336031
Ni      15.87729627      22.91330050       7.13995339       0.60000000      -0.01378413       0.00068024      -0.01515788      -5.72032857
Ni      14.03534815      21.21029325      10.51304677       0.60000000       0.01651289      -0.01378973       0.01163066      -5.72034729
Ni      12.30857879      21.28003668      15.71642145       0.60000000      -0.00775795      -0.00475596       0.01050726      -5.73368037
Ni      14.09712835      19.64425347      15.61035872       0.60000000      -0.03387669      -0.01844232       0.05009898      -5.74695611
Ni      13.99154995      21.35426675      13.88362357       0.60000000       0.02125904      -0.03743896       0.02659601      -5.75455946
Ni      12.46117049      19.49762284      17.47846878       0.60000000       0.00362716      -0.00019189       0.04529003      -5.72056681
Ni      12.50741007      21.22750394      19.22609714       0.60000000      -0.03034700       0.00733085       0.03115200      -5.72665668
Ni      14.43891907      19.58560543      19.10116041       0.60000000      -0.06886131       0.00359529       0.07169945      -5.67195714
Ni      14.16646584      21.36114742      17.39381609       0.60000000      -0.01675529      -0.01819982       0.02951024      -5.74457806
Ni      12.63937491      19.52665620      20.99618839       0.60000000      -0.00906284       0.00792539       0.02252642      -5.66973430
Ni      12.61918036      21.26245269      22.73543996       0.60000000      -0.02834971      -0.01031392       0.03843636      -5.70838225
Ni      14.56557835      19.72885634      22.69599992       0.60000000      -0.02067266      -0.04037710      -0.01107712      -5.69367564
Ni      14.41547856      21.30174635      20.86570182       0.60000000      -0.04456197       0.03373388       0.04153185      -5.71200705
Ni      12.71531204      19.61481892      24.53709446       0.60000000      -0.03417668      -0.03768317       0.01796003      -5.68777639
Ni      12.58663674      21.29369847      26.35925380       0.60000000      -0.02772682      -0.02309048       0.01914018      -5.64333630
Ni      15.37217534      19.32065555      25.03128849       0.60000000       0.08561336       0.01801633       0.01607144      -5.54071075
Ni      14.48632921      21.43864651      24.47517277       0.60000000      -0.02695513      -0.04924797       0.02696508      -5.62548631
Ni      13.82820958      19.30398211      26.73383561       0.60000000       0.03024663       0.00755978      -0.02634709      -5.56092697
Ni      12.54149815      21.29088958      29.85614747       0.60000000      -0.02931810      -0.02360578       0.01810754      -5.63377798
Ni      15.56243349      19.25756127      28.44162743       0.60000000       0.01913992      -0.00547160      -0.01233483      -5.66438377
Ni      14.49737830      21.37090771      27.99337816       0.60000000      -0.01999431      -0.01642782       0.01008130      -5.60420585
Ni      13.92902203      21.09536725      31.88737293       0.60000000       0.01214225       0.00449852      -0.01806040      -5.69122946
Ni      13.97857544      22.90849854      33.58602165       0.60000000       0.01138578       0.00630965      -0.01371565      -5.72271603
Ni      15.68758794      21.09534759      33.65802376       0.60000000       0.00417428       0.00376451      -0.01069668      -5.74344915
Ni      15.57044540      21.03947716      30.19270072       0.60000000       0.02612920       0.00224134      -0.01087387      -5.67766863
Ni      14.07528856      24.69415266       0.03692667       0.60000000       0.00275604       0.00278242      -0.00740442      -5.72733349
Ni      14.09707146      26.43364899       1.76765483       0.60000000      -0.00349833      -0.00002463      -0.00099392      -5.72949660
Ni      15.84725347      24.68614620       1.81052046       0.60000000      -0.00424393      -0.00040230      -0.00557267      -5.72833520
Ni      15.87971424      26.41746699      -0.00785938       0.60000000       0.00085836       0.00254908      -0.00509372      -5.74213946
Ni      14.07930914      24.68775575       3.56450523       0.60000000      -0.00121443      -0.00037959      -0.00113649      -5.72621238
Ni      14.09459149      26.45096021       5.28113018       0.60000000      -0.00412080      -0.00334369       0.00028542      -5.72735727
Ni      15.86704323      24.67824642       5.34493194       0.60000000      -0.00007574      -0.00391444      -0.00313950      -5.72540945
Ni      15.87507575      26.42961375       3.54574350       0.60000000      -0.00641162      -0.00073359       0.00001038      -5.72917438
Ni      14.08093766      24.70514629       7.04570781       0.60000000      -0.00065288      -0.00852669       0.00255969      -5.72495723
Ni      14.03493867      26.51209910       8.70660846       0.60000000       0.00797833      -0.01244454       0.01380888      -5.73153085
Ni      15.88558756      26.45834891       7.05855000       0.60000000      -0.01116318      -0.00200039      -0.00855187      -5.72064984
Ni      13.99351663      24.78432922      10.42691072       0.60000000       0.01219700      -0.01410209       0.02148052      -5.73777187
Ni      13.96747765      26.57692814      12.16236050       0.60000000       0.01413845      -0.02135880       0.01257443      -5.73637569
Ni      13.97021407      23.06412741      12.15214560       0.60000000       0.02034569      -0.02223632       0.01939496      -5.74782503
Ni      15.78044068      26.55968569      10.44158942       0.60000000       0.01310823      -0.02297682       0.01990137      -5.70079309
Ni      13.96746916      24.84719500      13.90702226       0.60000000       0.01333361      -0.02975600       0.00981883      -5.73908329
Ni      13.99779641      26.59777621      15.67519548       0.60000000       0.00162715      -0.00977437       0.01159146      -5.73061913
Ni      14.02786553      23.11081158      15.65128180       0.60000000       0.00593927      -0.03409486       0.02225592      -5.74062997
Ni      15.72637671      26.64039761      13.87395019       0.60000000       0.00339552      -0.02427441       0.01085572      -5.74336839
Ni      14.07454239      24.84923043      17.42209336       0.60000000      -0.00393389      -0.01976037       0.01580348      -5.73082936
Ni      14.10936123      26.56593249      19.20678141       0.60000000      -0.00734646      -0.00675240       0.01499143      -5.73158300
Ni      14.21914732      23.08291452      19.16246312       0.60000000      -0.01979246      -0.00443828       0.01838806      -5.73049557
Ni      15.80626299      26.64858729      17.37826288       0.60000000      -0.00611061      -0.01480490       0.01660933      -5.73269451
Ni      14.24060162      24.79366977      20.94210708       0.60000000      -0.00924606      -0.00962154       0.02289106      -5.72846878
Ni      14.24197566      26.48686448      22.73137616       0.60000000      -0.00612832       0.00031240       0.01367874      -5.72802782
Ni      14.40702236      23.01355988      22.64278232       0.60000000      -0.02853623       0.00440490       0.05439896      -5.71528131
Ni      15.95658970      26.60533385      20.91458583       0.60000000      -0.00985315      -0.01112660       0.01638208      -5.73005813
Ni      14.37057172      24.69537803      24.43959531       0.60000000      -0.01484504       0.01259755       0.02669757      -5.72018623
Ni      14.32721101      26.40835498      26.22080362       0.60000000      -0.00705759       0.00567355       0.01966917      -5.71825999
Ni      14.44136310      23.05179119      26.25685921       0.60000000      -0.01591012      -0.00859885       0.01190767      -5.65518272
Ni      16.10677660      26.52952996      24.41542522       0.60000000      -0.00609750      -0.00652468       0.01347372      -5.72455060
Ni      14.36268352      24.73679364      28.00843712       0.60000000      -0.01440924       0.00035480       0.02275328      -5.68977988
Ni      14.22422915      26.36713527      29.84168980       0.60000000       0.00201711       0.01915928       0.00249122      -5.70633548
Ni      14.40170081      23.09430894      29.81013134       0.60000000      -0.03100964      -0.02639966       0.01050348      -5.66025913
Ni      16.21035901      26.42639250      27.88809598       0.60000000      -0.01863162       0.00608389       0.03978752      -5.69069481
Ni      14.14713342      24.68399674      31.67389777       0.60000000       0.01035504       0.00822993      -0.01102167      -5.68376154
Ni      14.12589277      26.41586937      33.41190595       0.60000000       0.00232957      -0.00057731      -0.00273737      -5.73942709
Ni      15.65699591      22.84399137      31.92602737       0.60000000       0.01668186       0.00966965      -0.01818857      -5.61184114
Ni      15.95752353      26.36843158      31.65148377       0.60000000       0.00986925       0.01441578      -0.00374023      -5.66193920
Ni      14.12861173      28.15185577      -0.04900296       0.60000000      -0.00175949      -0.00015337       0.00174290      -5.73158145
Ni      14.12917736      29.90101066       1.69345120       0.60000000      -0.00669130      -0.00187543       0.00064352      -5.73014688
Ni      15.89820553      28.15827046       1.72775463       0.60000000      -0.00427538      -0.00214462       0.00342841      -5.73267728
Ni      15.93127753      29.85564765      -0.09377975       0.60000000      -0.00264425      -0.00021090       0.00491680      -5.72325665
Ni      14.11072980      28.18557496       3.49397576       0.60000000      -0.00793509      -0.00215168       0.00153823      -5.72915173
Ni      14.10031190      29.95686075       5.20674105       0.60000000      -0.00325073      -0.00604018       0.00854678      -5.73020089
Ni      15.89254860      28.18931903       5.27257358       0.60000000      -0.00830626       0.00045693      -0.00285690      -5.72688729
Ni      15.90400534      29.91121476       3.46823750       0.60000000      -0.00641110      -0.00042890       0.00285213      -5.72962135
Ni      14.07337546      28.23730441       6.96847900       0.60000000      -0.00101266      -0.00833479       0.00876667      -5.73005968
Ni      14.04712800      30.01828620       8.68397686       0.60000000       0.00145872      -0.00791867       0.01010887      -5.73111540
Ni      15.83850470      28.26603206       8.71861078       0.60000000       0.00131827      -0.01292196       0.01281087      -5.72244179
Ni      15.87347925      29.97747527       6.96880449       0.60000000      -0.00278625      -0.00413120       0.01009746      -5.72825450
Ni      14.00516275      28.29930229      10.42358017       0.60000000       0.00702643      -0.01396006       0.01072820      -5.73307759
Ni      13.99104707      30.07438498      12.17671000       0.60000000       0.00926679      -0.01310899       0.01023368      -5.72921556
Ni      15.74849675      28.35659064      12.15235141       0.60000000       0.01204135      -0.02056178       0.01267668      -5.73863977
Ni      15.80104640      30.06162266      10.42335189       0.60000000       0.00429910      -0.01597847       0.01053544      -5.73280770
Ni      13.97330538      28.34378137      13.92576834       0.60000000       0.00826504      -0.01349186       0.00927027      -5.72977775
Ni      13.99458954      30.08523591      15.70551322       0.60000000       0.00220724      -0.00768429       0.00874730      -5.72985637
Ni      15.75103579      28.38367879      15.64953456       0.60000000       0.00055908      -0.00859513       0.00842156      -5.73266214
Ni      15.74796560      30.11631957      13.91410868       0.60000000       0.00464908      -0.01102718       0.00920015      -5.73075932
Ni      14.02711001      28.33150583      17.45835732       0.60000000       0.00262511      -0.01322882       0.00944812      -5.73078549
Ni      14.05362121      30.05187796      19.24691092       0.60000000      -0.00336920      -0.00661209       0.00739816      -5.73156911
Ni      15.83440215      28.36004624      19.17831884       0.60000000      -0.00377929      -0.00712733       0.00974814      -5.73120528
Ni      15.77464564      30.11061179      17.43767127       0.60000000      -0.00101310      -0.00709167       0.00884304      -5.73061389
Ni      14.12903810      28.27249467      20.99551791       0.60000000      -0.00449097      -0.00113183       0.01104693      -5.73223698
Ni      14.13836536      29.98315481      22.78174904       0.60000000      -0.00315616       0.00320854       0.00908974      -5.73250896
Ni      15.96090995      28.29725642      22.70685313       0.60000000      -0.00974094       0.00062611       0.01178611      -5.73272920
Ni      15.85272018      30.06821907      20.97318962       0.60000000      -0.00209258      -0.00584699       0.00966794      -5.73286074
Ni      14.22679880      28.19383217      24.51297919       0.60000000      -0.00224904       0.00014443       0.00793371      -5.73067856
Ni      14.21286571      29.88409626      26.31305403       0.60000000      -0.00380692       0.00734921       0.00770047      -5.72780657
Ni      16.06940272      28.20409056      26.21841873       0.60000000      -0.00312314      -0.00208669       0.01346021      -5.72457528
Ni      15.95291028      29.98421815      24.50819019       0.60000000      -0.00240709      -0.00144409       0.01045105      -5.73284680
Ni      14.27915283      28.07572916      28.03813888       0.60000000      -0.00264597       0.01730528       0.00743652      -5.71340257
Ni      14.23560513      29.80372391      29.80572488       0.60000000      -0.00475546       0.01052280       0.00809659      -5.71597445
Ni      16.10969491      27.99264699      29.76629937       0.60000000      -0.00434808       0.02529734       0.01445979      -5.69856912
Ni      16.03116244      29.83921194      28.05539280       0.60000000      -0.00385238       0.00733258       0.00525929      -5.71912622
Ni      14.19560947      28.10105102      31.58237301       0.60000000      -0.00027193       0.00974978       0.00902767      -5.72387147
Ni      14.17062548      29.84207378      33.33806408       0.60000000      -0.00483190       0.00760634       0.00709439      -5.72491771
Ni      15.95598502      28.10800507      33.35507317       0.60000000      -0.00076725       0.00675560       0.00645758      -5.72154045
Ni      16.03017100      29.75655766      31.52825121       0.60000000      -0.00459749       0.01735298       0.01142517      -5.70601255
Ni      14.14886300      31.60260882      -0.10378662       0.60000000      -0.00388912       0.00109579       0.00676814      -5.72675127
Ni      14.12782792      33.37381064       1.65244765       0.60000000      -0.00490042      -0.00116209       0.00867692      -5.72783202
Ni      15.91969887      31.61604511       1.66310286       0.60000000      -0.00744205       0.00019328       0.00546722      -5.72711003
Ni      15.92765578      33.32320103      -0.11940456       0.60000000      -0.00367641       0.00283801       0.01152169      -5.72382772
Ni      14.11801544      31.66713580       3.42897467       0.60000000      -0.00551880      -0.00551859       0.00703246      -5.72984469
Ni      14.09856039      33.44099484       5.17217819       0.60000000      -0.00644837      -0.00562945       0.00781529      -5.72969955
Ni      15.89083940      31.68883119       5.19508407       0.60000000      -0.00607896      -0.00428038       0.01006472      -5.73007387
Ni      15.89901625      33.39585936       3.41544680       0.60000000      -0.00549532      -0.00361179       0.00745901      -5.72859180
Ni      14.07958897      31.73215772       6.93355639       0.60000000      -0.00267324      -0.00663183       0.00709323      -5.73036122
Ni      14.05994219      33.50585518       8.68330377       0.60000000      -0.00083612      -0.00842394       0.00544227      -5.72943240
Ni      15.84269352      31.76759647       8.68455683       0.60000000       0.00069292      -0.01084163       0.01139049      -5.73063242
Ni      15.86710681      33.47348223       6.93130181       0.60000000      -0.00470195      -0.00632016       0.00866789      -5.73000705
Ni      14.02805936      31.79309529      10.43118802       0.60000000       0.00261714      -0.01195202       0.00708195      -5.72926807
Ni      14.02296700      33.55303431      12.20320400       0.60000000       0.00172968      -0.00946703       0.00230543      -5.72883391
Ni      15.78307043      31.83233287      12.17624960       0.60000000       0.00350667      -0.01230115       0.00908210      -5.72903728
Ni      15.82277787      33.54211535      10.43687051       0.60000000      -0.00296246      -0.00983494       0.00548822      -5.72894365
Ni      13.99756580      31.82682276      13.95289751       0.60000000       0.00228014      -0.00920410       0.00621851      -5.72915900
Ni      14.01187778      33.56893144      15.73887650       0.60000000      -0.00057709      -0.00820520       0.00128817      -5.72970653
Ni      15.76018156      31.85738429      15.69470635       0.60000000      -0.00040859      -0.00389797       0.01004817      -5.72931123
Ni      15.78314720      33.58711540      13.95286968       0.60000000      -0.00242458      -0.00870385       0.00367205      -5.72789711
Ni      14.01740391      31.81692773      17.49262550       0.60000000      -0.00061151      -0.00744430       0.00623907      -5.73057497
Ni      14.03658588      33.54506162      19.28315475       0.60000000      -0.00181746      -0.00468127       0.00659285      -5.73096591
Ni      15.79420630      31.83536757      19.22997525       0.60000000      -0.00461862      -0.00584514       0.00821556      -5.73152101
Ni      15.77598008      33.59310641      17.48514113       0.60000000      -0.00398268      -0.00424747       0.00688421      -5.73044932
Ni      14.07341827      31.77072349      21.03677265       0.60000000      -0.00330254      -0.00336603       0.00606254      -5.73166764
Ni      14.08743617      33.48586577      22.82955486       0.60000000      -0.00127636      -0.00410873       0.00616449      -5.73089993
Ni      15.86577290      31.77083885      22.77519668       0.60000000      -0.00438069      -0.00162406       0.00739416      -5.73221755
Ni      15.81234014      33.55298052      21.02985227       0.60000000      -0.00515005      -0.00472499       0.00665928      -5.73159063
Ni      14.14347739      31.68918730      24.57584970       0.60000000      -0.00490771       0.00054197       0.00802490      -5.73044312
Ni      14.13976816      33.40618461      26.35571120       0.60000000      -0.00392269       0.00086373       0.00717930      -5.73010468
Ni      15.94700010      31.65873767      26.32291487       0.60000000      -0.00185851       0.00071396       0.00807776      -5.72810417
Ni      15.87636500      33.46916089      24.58051811       0.60000000      -0.00077968      -0.00297144       0.00586590      -5.72953343
Ni      14.19114657      31.60228567      28.08642221       0.60000000      -0.00469454       0.00750518       0.00556054      -5.72792757
Ni      14.16092162      33.34395704      29.84919746       0.60000000      -0.00297909       0.00544986       0.00895715      -5.72938031
Ni      15.98281540      31.56556136      29.82184565       0.60000000      -0.00246284       0.01002420       0.00748041      -5.72434562
Ni      15.92879666      33.37711500      28.09998086       0.60000000      -0.00242686       0.00287195       0.00609962      -5.72900403
Ni      14.19133466      31.55655110      31.57091942       0.60000000      -0.00286914       0.00812967       0.00693844      -5.72302496
Ni      14.15576644      33.32456679      33.33597413       0.60000000      -0.00357054       0.00446227       0.01019745      -5.72501230
Ni      15.97248855      31.53217761      33.30408330       0.60000000      -0.00304048       0.00794004       0.00957134      -5.71805990
Ni      15.93863282      33.32086237      31.58597022       0.60000000      -0.00080110       0.00738392       0.00775789      -5.72818154
Ni      17.67218708      -0.11007195      -0.10542408       0.60000000      -0.00353070       0.00271457       0.00911416      -5.72804844
Ni      17.64868119       1.67663679       1.66427837       0.60000000      -0.00386909       0.00275887       0.00883855      -5.72917318
Ni      19.43040613      -0.10154902       1.64930315       0.60000000      -0.00556605       0.00191118       0.00765229      -5.72855735
Ni      19.41306702       1.66787652      -0.09006347       0.60000000      -0.00452887       0.00146737       0.00944877      -5.73075044
Ni      17.66154014      -0.06520281       3.41078249       0.60000000      -0.00453195      -0.00212954       0.00834803      -5.72793716
Ni      17.64046138       1.72494739       5.17688911       0.60000000      -0.00370495      -0.00283357       0.00841140      -5.72895849
Ni      19.42436012      -0.04178145       5.18088935       0.60000000      -0.00788960      -0.00412106       0.00788299      -5.72861576
Ni      19.41330956       1.69008162       3.41912919       0.60000000      -0.00503487       0.00242698       0.00873320      -5.72965461
Ni      17.64333148       0.01131119       6.93569380       0.60000000      -0.00679408      -0.00646018       0.00686221      -5.72942150
Ni      17.62486864       1.79248782       8.70271232       0.60000000      -0.00500852      -0.00444864       0.00511024      -5.72855568
Ni      19.40907806       0.03739861       8.70697619       0.60000000      -0.00596774      -0.00433149       0.00713432      -5.72918886
Ni      19.40794679       1.74964968       6.94441720       0.60000000      -0.00688005      -0.00340732       0.00545823      -5.72903180
Ni      17.61330723       0.08349595      10.45149686       0.60000000      -0.00557159      -0.00720308       0.00450223      -5.72884637
Ni      17.60051727       1.85692675      12.22989728       0.60000000      -0.00542693      -0.00733000       0.00285820      -5.72797394
Ni      19.37389201       0.11926217      12.21135618       0.60000000      -0.00472903      -0.00724433       0.00729045      -5.72953737
Ni      19.39063727       1.82629536      10.47096263       0.60000000      -0.00542989      -0.00690701       0.00348414      -5.72869694
Ni      17.57273888       0.14219026      13.96668017       0.60000000      -0.00486474      -0.00647418       0.00464094      -5.72753686
Ni      17.57434588       1.89349863      15.76172442       0.60000000      -0.00124878      -0.00917530       0.00007008      -5.72919178
Ni      19.33181969       0.17387263      15.72533880       0.60000000      -0.00171750      -0.01104879       0.00312995      -5.72846740
Ni      19.36401958       1.88652240      13.99618521       0.60000000      -0.00186318      -0.00786502       0.00329183      -5.72797167
Ni      17.54961644       0.15974850      17.49631537       0.60000000      -0.00298869      -0.00801225       0.00009384      -5.73010075
Ni      17.56613819       1.88526375      19.29555324       0.60000000      -0.00246568      -0.00798233      -0.00004664      -5.73120481
Ni      19.32096760       0.16365756      19.24391400       0.60000000      -0.00355747      -0.00477499       0.00248441      -5.73228848
Ni      19.34317272       1.90437632      17.52513592       0.60000000       0.00051977      -0.00820921      -0.00014360      -5.72990298
Ni      17.56021960       0.12656370      21.03239001       0.60000000      -0.00391544      -0.00490015       0.00717498      -5.73191774
Ni      17.57760764       1.83825373      22.83294613       0.60000000       0.00064809      -0.00237768       0.00583012      -5.73150754
Ni      19.33376322       0.11504927      22.78035369       0.60000000      -0.00512216      -0.00161678       0.00899162      -5.73430210
Ni      19.33931714       1.87405959      21.04961470       0.60000000      -0.00234572      -0.00613991       0.00076536      -5.73157334
Ni      17.60835010       0.04702151      24.58286187       0.60000000      -0.00160318      -0.00151875       0.00462327      -5.72994173
Ni      17.61415831       1.76628235      26.36882326       0.60000000      -0.00089083      -0.00255888       0.00496052      -5.73069453
Ni      19.38865472       0.01611331      26.33717831       0.60000000       0.00188634      -0.00445393       0.00610568      -5.73067284
Ni      19.35034055       1.81844179      24.58681851       0.60000000      -0.00103431      -0.00434938       0.00795017      -5.73111337
Ni      17.65847646      -0.04122266      28.11307551       0.60000000      -0.00057121      -0.00246680       0.00192684      -5.72889417
Ni      17.64142549       1.70243409      29.88093892       0.60000000      -0.00122162      -0.00073989       0.00181712      -5.73091155
Ni      19.43315558      -0.07466906      29.86101843       0.60000000      -0.00027679       0.00173395       0.00403539      -5.72857678
Ni      19.38455375       1.74332069      28.12039752       0.60000000      -0.00131771      -0.00312459       0.00319601      -5.73116833
Ni      17.67382457      -0.09955000      31.60503386       0.60000000      -0.00411344       0.00402289       0.00503809      -5.73065650
Ni      17.64960232       1.66988028      33.36954469       0.60000000      -0.00361855       0.00155336       0.00734243      -5.73036206
Ni      19.43888646      -0.11589994      33.34197185       0.60000000      -0.00181352       0.00841132       0.00942803      -5.73270947
Ni      19.40984748       1.68397468      31.62124103       0.60000000      -0.00348054       0.00077593       0.00249096      -5.73087829
Ni      17.63008642       3.44285204      -0.06252988       0.60000000      -0.00389091       0.00347165       0.00420583      -5.73057902
Ni      17.61454629       5.21564687       1.70676607       0.60000000      -0.00316753       0.00123994       0.00332118      -5.73042834
Ni      19.39871309       3.44692620       1.67903303       0.60000000      -0.00529782       0.00218160       0.00680068      -5.73062623
Ni      19.38051040       5.22026984      -0.04732868       0.60000000      -0.00186991       0.00007375       0.00338430      -5.73116571
Ni      17.63013931       3.45967260       3.43356199       0.60000000      -0.00483807       0.00066731       0.00680848      -5.72963721
Ni      17.61555374       5.23640642       5.20636967       0.60000000      -0.00406677      -0.00052966       0.00396860      -5.72991949
Ni      19.39946729       3.47444095       5.18768679       0.60000000      -0.00598171       0.00160763       0.00677531      -5.73000127
Ni      19.38693449       5.22270274       3.44831612       0.60000000      -0.00415477       0.00052946       0.00642080      -5.73064363
Ni      17.62369847       3.50576230       6.94951796       0.60000000      -0.00406148       0.00006728       0.00679126      -5.72895128
Ni      17.61177903       5.28145614       8.73113413       0.60000000      -0.00347279      -0.00159070       0.00282409      -5.72864914
Ni      19.39223857       3.53401005       8.71682726       0.60000000      -0.00441975      -0.00155333       0.00403365      -5.72860044
Ni      19.38672240       5.25084080       6.95987208       0.60000000      -0.00392357       0.00159642       0.00516061      -5.73030716
Ni      17.61295369       3.56957998      10.48482469       0.60000000      -0.00711303      -0.00567196       0.00179626      -5.72785532
Ni      17.60977407       5.34091493      12.28079759       0.60000000      -0.00506183      -0.00731972      -0.00232238      -5.72683734
Ni      19.38075121       3.60043043      12.25757394       0.60000000      -0.00405694      -0.00664278       0.00350784      -5.72732121
Ni      19.38298367       5.30936779      10.50358618       0.60000000      -0.00509505      -0.00485519       0.00245690      -5.72700334
Ni      17.59847064       3.61992754      14.02461451       0.60000000      -0.00401050      -0.00772557      -0.00163208      -5.72837371
Ni      17.60385143       5.37985993      15.82271259       0.60000000      -0.00223554      -0.00742589      -0.00495791      -5.72896427
Ni      19.36676097       3.63725810      15.79469037       0.60000000      -0.00242426      -0.00375911       0.00081005      -5.72902012
Ni      19.37994162       5.36743724      14.05858140       0.60000000      -0.00280659      -0.00679976      -0.00237514      -5.72652596
Ni      17.58405157       3.63505446      17.55777704       0.60000000      -0.00228425      -0.00820557      -0.00010584      -5.73038214
Ni      17.58724282       5.37788423      19.34539272       0.60000000       0.00090347      -0.00864792       0.00234879      -5.73048180
Ni      19.35198324       3.63518553      19.32060461       0.60000000       0.00045319      -0.00815894      -0.00221930      -5.73099458
Ni      19.36822286       5.39458849      17.58904833       0.60000000       0.00151080      -0.00693264      -0.00116683      -5.72994864
Ni      17.57719756       3.60967020      21.08730397       0.60000000       0.00151219      -0.00466761       0.00385122      -5.73115075
Ni      17.57951995       5.33919550      22.87101685       0.60000000       0.00395265      -0.00316959       0.00268652      -5.73039371
Ni      19.34846396       3.59327561      22.84157027       0.60000000      -0.00001795      -0.00389209       0.00599317      -5.73060971
Ni      19.35051608       5.37465619      21.10337510       0.60000000       0.00222039      -0.00533817       0.00184005      -5.73060024
Ni      17.58759706       3.55947065      24.62017440       0.60000000       0.00029698      -0.00154353       0.00368123      -5.73125792
Ni      17.58734234       5.28800896      26.40198847       0.60000000       0.00222003      -0.00205664       0.00360777      -5.73106992
Ni      19.35967723       3.53860489      26.37225209       0.60000000       0.00168783      -0.00222608       0.00542640      -5.73092091
Ni      19.34414881       5.32870894      24.62418958       0.60000000       0.00335851      -0.00387317       0.00273541      -5.73064011
Ni      17.60953515       3.50075001      28.14452139       0.60000000      -0.00108739       0.00021336       0.00275435      -5.73159766
Ni      17.60057862       5.24265601      29.91817951       0.60000000       0.00049089       0.00062257       0.00356567      -5.73155546
Ni      19.38150477       3.48377965      29.88934573       0.60000000      -0.00091166      -0.00194972       0.00227677      -5.73119628
Ni      19.35665059       5.27764568      28.14857707       0.60000000       0.00016187       0.00135848       0.00325375      -5.73133653
Ni      17.62499052       3.45807730      31.64684132       0.60000000      -0.00214629      -0.00056311       0.00263671      -5.73133463
Ni      17.60890020       5.21798714      33.41677830       0.60000000       0.00056252       0.00109094       0.00019439      -5.73125613
Ni      19.39285338       3.45214240      33.38429762       0.60000000      -0.00307946       0.00050308       0.00547288      -5.73095864
Ni      19.37068736       5.23986766      31.65700593       0.60000000       0.00007986       0.00039642       0.00178974      -5.73174983
Ni      17.59474038       6.98166543      -0.01181587       0.60000000       0.00206750      -0.00058412       0.00024558      -5.73088574
Ni      17.58436372       8.74718276       1.76134629       0.60000000       0.00102519       0.00004091       0.00130560      -5.73043656
Ni      19.37083213       6.98738390       1.72307081       0.60000000      -0.00128772      -0.00081243       0.00432813      -5.73083067
Ni      19.35051295       8.75638254       0.00300978       0.60000000       0.00446442      -0.00007360       0.00191602      -5.73089564
Ni      17.60299572       6.98679989       3.47875369       0.60000000      -0.00612441       0.00026339       0.00305544      -5.73033214
Ni      17.59509837       8.75646587       5.25405871       0.60000000      -0.00441051      -0.00166979       0.00262781      -5.73043489
Ni      19.37717219       6.99319198       5.22036986       0.60000000      -0.00309654      -0.00058196       0.00493557      -5.73086327
Ni      19.36330737       8.75327578       3.49689464       0.60000000      -0.00152813      -0.00098128       0.00269002      -5.73063529
Ni      17.60504788       7.00785013       6.98320671       0.60000000      -0.00271882      -0.00193377       0.00260532      -5.73037708
Ni      17.60201720       8.77314861       8.76368049       0.60000000      -0.00346778      -0.00184454      -0.00006232      -5.73105538
Ni      19.37936856       7.01675216       8.73675306       0.60000000      -0.00282085       0.00028864       0.00624448      -5.73055023
Ni      19.37255930       8.75641732       6.99492166       0.60000000      -0.00387148       0.00030559       0.00282822      -5.73121041
Ni      17.60730351       7.05170508      10.52197359       0.60000000      -0.00178286       0.00023354       0.00131820      -5.72764313
Ni      17.61249418       8.82551185      12.32107778       0.60000000      -0.00418708       0.00167284      -0.00164156      -5.72459114
Ni      19.38074645       7.08206361      12.30348164       0.60000000      -0.00532662      -0.00570695      -0.00182376      -5.72375321
Ni      19.38127880       8.77166003      10.51489945       0.60000000      -0.00499921       0.00435462       0.00624354      -5.73074967
Ni      17.61600720       7.11586919      14.08481185       0.60000000      -0.00323758      -0.01142146      -0.01025052      -5.72507417
Ni      17.62809230       8.90979930      15.89008996       0.60000000      -0.00786713      -0.02531158      -0.02166097      -5.71928555
Ni      19.38286237       7.14729482      15.85989866       0.60000000       0.00187056      -0.00977960      -0.00510778      -5.72414136
Ni      19.38525955       8.87319912      14.11395494       0.60000000      -0.00212842      -0.01105575      -0.00991772      -5.71111715
Ni      17.60362194       7.14639533      17.61304762       0.60000000       0.00150818      -0.01427660      -0.00862694      -5.72932917
Ni      17.58072577       8.90973974      19.38901407       0.60000000       0.00910036      -0.01492654       0.00095618      -5.72874796
Ni      19.36037562       7.16020419      19.37081709       0.60000000      -0.00452265      -0.01053076      -0.00210403      -5.73024708
Ni      19.37776978       8.94755183      17.65212424       0.60000000      -0.00164721      -0.01055358      -0.01047986      -5.71880209
Ni      17.57763495       7.12047678      21.12484805       0.60000000       0.00225189      -0.00540654       0.00640308      -5.72979265
Ni      17.55671563       8.85235987      22.91644082       0.60000000       0.00206926      -0.00766003       0.00694621      -5.72972542
Ni      19.33549460       7.12025078      22.87872133       0.60000000       0.00726627      -0.00629629       0.00676773      -5.73015809
Ni      19.32633523       8.92312688      21.14280444       0.60000000       0.01304575      -0.01706745       0.00645024      -5.72935826
Ni      17.57167806       7.06957620      24.65678301       0.60000000       0.00154795      -0.00264050       0.00634068      -5.73034745
Ni      17.55472103       8.79548715      26.45229142       0.60000000       0.00089504      -0.00208283       0.00526236      -5.73094267
Ni      19.33642742       7.06734620      26.40542508       0.60000000       0.00463797      -0.00374932       0.00307099      -5.73067194
Ni      19.31636106       8.86056486      24.66394684       0.60000000       0.00556290      -0.00932030       0.00737608      -5.73020554
Ni      17.57779007       7.02173973      28.18597646       0.60000000      -0.00007583      -0.00047579       0.00183797      -5.73132539
Ni      17.56188454       8.76054520      29.97193835       0.60000000       0.00224832       0.00176079      -0.00185495      -5.73121393
Ni      19.34915187       7.02332026      29.92518161       0.60000000      -0.00060692       0.00091786       0.00277231      -5.73135757
Ni      19.32362802       8.80553532      28.19222944       0.60000000       0.00415936      -0.00188673       0.00219282      -5.73117620
Ni      17.58661395       6.99142190      31.69447038       0.60000000       0.00098081       0.00209441       0.00089394      -5.73140454
Ni      17.57221670       8.74638375      33.47076447       0.60000000       0.00330693       0.00125539      -0.00044831      -5.73090708
Ni      19.36045339       6.99645834      33.42901214       0.60000000       0.00214127       0.00264915       0.00154414      -5.73132026
Ni      19.33752594       8.77187354      31.70498512       0.60000000       0.00185524      -0.00009913      -0.00238949      -5.73121482
Ni      17.56128652      10.50710328       0.04678162       0.60000000       0.00236818       0.00185007      -0.00243338      -5.73038018
Ni      17.55667321      12.27304190       1.82231025       0.60000000       0.00235933      -0.00123815      -0.00279236      -5.73009688
Ni      19.34364860      10.51754772       1.77946311       0.60000000       0.00338259      -0.00052275      -0.00021176      -5.73055613
Ni      19.31782955      12.27904278       0.06316976       0.60000000       0.00241713       0.00036682      -0.00445498      -5.73072582
Ni      17.57887874      10.51497142       3.53679865       0.60000000       0.00162607       0.00060876      -0.00048075      -5.73013240
Ni      17.58211389      12.28588748       5.31435433       0.60000000       0.00090404      -0.00056844      -0.00266599      -5.72985649
Ni      19.36029851      10.51698508       5.27355546       0.60000000       0.00047449       0.00023057       0.00070565      -5.73040110
Ni      19.34223935      12.28058461       3.55769635       0.60000000       0.00244444       0.00009870      -0.00258510      -5.73029971
Ni      17.59446208      10.52424661       7.03251877       0.60000000      -0.00198881      -0.00062434       0.00048972      -5.73050070
Ni      17.60477222      12.29128672       8.81419992       0.60000000      -0.00301287       0.00209020      -0.00314183      -5.73001504
Ni      19.37661405      10.51215278       8.76887392       0.60000000      -0.00290055       0.00188608       0.00074121      -5.73151588
Ni      19.36622605      12.27996096       7.05105461       0.60000000      -0.00222370       0.00159002      -0.00059519      -5.72989768
Ni      17.60848483      10.53333051      10.54410796       0.60000000      -0.00093310       0.00024653      -0.00287142      -5.73200727
Ni      17.63391592      12.28398487      12.32207226       0.60000000      -0.01267913      -0.00042907      -0.01576336      -5.73101938
Ni      19.39924774      10.51665314      12.28549467       0.60000000      -0.00342980       0.00847007       0.00760723      -5.72911763
Ni      19.39813354      12.25823551      10.53914582       0.60000000      -0.00799399       0.00587222      -0.00344606      -5.73209941
Ni      17.62790670      10.61883693      14.13273826       0.60000000      -0.00796614      -0.00038352      -0.00535473      -5.70972818
Ni      17.65490214      12.48089790      15.94172064       0.60000000       0.00383309       0.00515242       0.02769738      -5.68998075
Ni      19.39711996      10.73209572      15.96063858       0.60000000       0.00568187      -0.03755827      -0.06527170      -5.69331878
Ni      19.46190284      12.24127586      14.03974309       0.60000000      -0.02055713       0.02920575      -0.00459655      -5.71776807
Ni      17.59125627      10.70830319      17.67991768       0.60000000       0.02096981      -0.04543926      -0.03917904      -5.71284932
Ni      17.53893342      10.64405186      21.18508227       0.60000000       0.00602989      -0.00520583       0.00493068      -5.72722352
Ni      17.47628074      12.35575007      23.02590689       0.60000000       0.01442773      -0.00745456      -0.00860567      -5.73000532
Ni      19.28293476      10.66810177      22.93680649       0.60000000       0.00961130      -0.01291277       0.01064997      -5.72885674
Ni      19.33246914      10.74400398      19.41349493       0.60000000      -0.01488814      -0.02902201       0.03052698      -5.71821398
Ni      17.52443053      10.56954697      24.72796884       0.60000000       0.00325401      -0.00294195       0.00312720      -5.73101753
Ni      17.48644124      12.29211624      26.53930377       0.60000000       0.00765320       0.00224989      -0.00883614      -5.73149663
Ni      19.29158426      10.59013402      26.46417755       0.60000000       0.00685333      -0.00359531       0.00110067      -5.73122311
Ni      19.23897024      12.39097710      24.75781956       0.60000000       0.01744566      -0.01274075      -0.00155883      -5.73119771
Ni      17.53090355      10.52555296      28.25081529       0.60000000       0.00237117       0.00161473      -0.00635953      -5.73119062
Ni      17.50801231      12.26633716      30.04029709       0.60000000       0.00305042      -0.00027897      -0.00942327      -5.73088723
Ni      19.30797923      10.54487819      29.98096006       0.60000000       0.00258728      -0.00215890      -0.00279622      -5.73123211
Ni      19.26682469      12.31887184      28.26257861       0.60000000       0.00616295      -0.00054009      -0.00226243      -5.73160112
Ni      17.54480195      10.50827917      31.75471839       0.60000000       0.00274018      -0.00025689      -0.00534720      -5.73085380
Ni      17.53113242      12.26401761      33.53327269       0.60000000       0.00312774      -0.00091400      -0.00575940      -5.73043144
Ni      19.32609880      10.52346699      33.48446437       0.60000000       0.00193144       0.00105725      -0.00337077      -5.73096400
Ni      19.29204880      12.28817110      31.76728537       0.60000000       0.00214971      -0.00013870      -0.00822073      -5.73110294
Ni      17.52486660      14.02655901       0.10860431       0.60000000       0.00594543      -0.00360124      -0.00502923      -5.73037511
Ni      17.53269751      15.79957277       1.87809402       0.60000000       0.00467884      -0.00415995      -0.00544021      -5.73043776
Ni      19.31649718      14.03895891       1.84044698       0.60000000       0.00279658       0.00036375      -0.00450324      -5.73078531
Ni      19.27829535      15.79187490       0.12530150       0.60000000       0.00525943      -0.00187055      -0.00769067      -5.73126596
Ni      17.56243796      14.04548302       3.59684537       0.60000000       0.00229102      -0.00274625      -0.00558265      -5.73009849
Ni      17.57974011      15.82481024       5.36914482       0.60000000       0.00069848      -0.00167944      -0.00819924      -5.72988933
Ni      19.34900828      14.04919674       5.33512650       0.60000000       0.00101549      -0.00099915      -0.00537768      -5.72996968
Ni      19.32462921      15.81044256       3.61159654       0.60000000       0.00504145       0.00051331      -0.00556631      -5.73078454
Ni      17.59626069      14.05974036       7.09465765       0.60000000      -0.00076639       0.00070861      -0.00649799      -5.72919106
Ni      17.62492865      15.83258581       8.88665259       0.60000000      -0.00417927       0.00522760      -0.01462438      -5.72815305
Ni      19.38408126      14.03945487       8.83132119       0.60000000      -0.00374980       0.00938540      -0.00155067      -5.72897691
Ni      19.36474291      15.81924735       7.11501701       0.60000000      -0.00095470       0.00213273      -0.00850301      -5.72943902
Ni      17.63249749      14.05416791      10.60566868       0.60000000      -0.01121025       0.01473098      -0.00767859      -5.72936291
Ni      17.68254919      15.81176912      12.41236594       0.60000000      -0.01239387       0.03305414      -0.01288378      -5.70398897
Ni      19.45651026      13.98465394      12.30651346       0.60000000      -0.01961285       0.02250372      -0.01674616      -5.72945333
Ni      19.42198148      15.78704422      10.62605522       0.60000000      -0.01301987       0.02708620      -0.01000896      -5.72916949
Ni      17.68760005      14.02368437      14.06207037       0.60000000      -0.01482037      -0.00985991      -0.01752029      -5.70012724
Ni      17.29919417      14.40117826      17.94731942       0.60000000       0.12868878      -0.05654725      -0.09395371      -5.67972773
Ni      19.24977529      12.63774217      17.83586522       0.60000000       0.07402539      -0.09232538      -0.03466110      -5.60916084
Ni      18.23902814      15.31439538      15.97139515       0.60000000      -0.09759717       0.05745359      -0.11857235      -5.38621800
Ni      17.47151098      12.46602172      19.50061672       0.60000000       0.04633203      -0.00100941      -0.00056841      -5.72006989
Ni      17.38712913      14.17100197      21.36488221       0.60000000       0.03201657      -0.01931387      -0.01821346      -5.74460506
Ni      19.21852720      12.51113157      21.22934718       0.60000000       0.03626665      -0.03310601       0.00751037      -5.72653842
Ni      19.09139265      14.44398891      19.58629933       0.60000000       0.07433802      -0.06958196       0.00756898      -5.67155963
Ni      17.41761006      14.07588755      24.85353642       0.60000000       0.01487436      -0.00671144      -0.02108902      -5.73097092
Ni      17.37350641      15.80625657      26.65305671       0.60000000       0.01605081      -0.00303728      -0.01618943      -5.73280364
Ni      19.20312851      14.10982782      26.56899372       0.60000000       0.01487947      -0.00707577      -0.00880367      -5.73164028
Ni      19.15579415      14.22247650      23.08574732       0.60000000       0.02270836      -0.02374416      -0.00429376      -5.73056477
Ni      17.45481779      14.02655978      28.33453192       0.60000000       0.00922209       0.00250904      -0.01163338      -5.73085654
Ni      17.43328909      15.77428700      30.11340686       0.60000000       0.00944491      -0.00050424      -0.00664154      -5.73059356
Ni      19.24368519      14.05306830      30.05416437       0.60000000       0.00649360      -0.00041525      -0.00698985      -5.73152429
Ni      19.17395461      15.83448735      28.36257621       0.60000000       0.01156854      -0.00372785      -0.00633412      -5.73120183
Ni      17.48989946      14.01773268      31.82070708       0.60000000       0.00430621      -0.00325860      -0.00878257      -5.73053616
Ni      17.48117035      15.77578245      33.59656531       0.60000000       0.00748305      -0.00346068      -0.00520758      -5.73046565
Ni      19.28046328      14.03720926      33.54874976       0.60000000       0.00299089      -0.00392526      -0.00854108      -5.73102832
Ni      19.22566925      15.79412891      31.83777582       0.60000000       0.00927000      -0.00404066      -0.00641192      -5.73154527
Ni      17.49152709      17.54956921       0.16261313       0.60000000       0.00312957      -0.00329960      -0.00921134      -5.73010784
Ni      17.52183964      19.34427369       1.90677717       0.60000000      -0.00046953      -0.00237198      -0.00771667      -5.72983277
Ni      19.29095914      17.56689223       1.88704003       0.60000000       0.00332371      -0.00332043      -0.00573030      -5.73113972
Ni      19.23920434      19.32155188       0.16488183       0.60000000       0.00504722      -0.00340060      -0.00265789      -5.73224187
Ni      17.55474845      17.58494653       3.63787492       0.60000000       0.00014929      -0.00358604      -0.00913850      -5.73035133
Ni      17.58743790      19.36867512       5.39671485       0.60000000      -0.00400233       0.00085950      -0.00832604      -5.72997695
Ni      19.34370189      17.58790036       5.37974010       0.60000000      -0.00014386       0.00205674      -0.00697925      -5.73055106
Ni      19.31773304      19.35323658       3.63676461       0.60000000      -0.00184262      -0.00089781      -0.00599445      -5.73092335
Ni      17.60955198      17.60455412       7.14776093       0.60000000      -0.00491629       0.00079427      -0.01214864      -5.72942907
Ni      17.64939162      19.37779409       8.94811134       0.60000000      -0.01044935       0.00068218      -0.01128355      -5.71929777
Ni      19.38747445      17.58266941       8.91239553       0.60000000      -0.00186071       0.01022284      -0.01574367      -5.72873944
Ni      19.36981350      19.35913891       7.16177979       0.60000000      -0.00300620       0.00083852      -0.00984208      -5.73034972
Ni      17.67629045      17.59470794      10.71094379       0.60000000      -0.03563278       0.02008685      -0.04667592      -5.71267772
Ni      15.95698457      18.22865419      15.31692906       0.60000000      -0.11193344      -0.09510963       0.06107076      -5.38682471
Ni      17.94091778      17.30868056      14.40135350       0.60000000      -0.09518169       0.12635797      -0.05608116      -5.67907667
Ni      17.83291158      19.26439237      12.63319916       0.60000000      -0.04004100       0.06196941      -0.08987793      -5.61028874
Ni      16.67806568      16.67678494      16.68765475       0.60000000       0.23572861       0.23540363       0.23282063      -5.52904004
Ni      16.51117979      18.08966288      18.81082865       0.60000000      -0.09958050      -0.05050708       0.21352686      -5.58213294
Ni      18.80559741      16.51670796      18.09401893       0.60000000       0.21238050      -0.09754632      -0.05197861      -5.58418500
Ni      18.08354429      18.80593857      16.51933807       0.60000000      -0.05027051       0.21696970      -0.10161886      -5.57959074
Ni      17.19975498      16.03973878      19.80328414       0.60000000       0.10270853      -0.07272163      -0.10056475      -5.64733595
Ni      17.09640452      17.71883107      21.62101351       0.60000000       0.01464319      -0.03145262      -0.11529614      -5.65657443
Ni      19.00511290      16.10237986      21.47926162       0.60000000       0.04916732      -0.04010873      -0.03139171      -5.73731548
Ni      18.77753747      18.06915774      20.01306278       0.60000000       0.11094662      -0.08007757      -0.06754349      -5.65966696
Ni      17.29996384      15.88514769      23.20982307       0.60000000       0.03057755      -0.00548941      -0.03969530      -5.74288619
Ni      17.23174853      17.59796425      24.99452592       0.60000000       0.03515916      -0.00545162      -0.02015505      -5.74157465
Ni      19.10389025      15.93151080      24.91893856       0.60000000       0.01874613      -0.01183972      -0.01641500      -5.73289698
Ni      18.94157815      17.78327051      23.31762761       0.60000000       0.01475642      -0.03452604      -0.04824619      -5.74232095
Ni      17.35031984      17.55463022      28.42017063       0.60000000       0.01910998      -0.00822113      -0.00571837      -5.73867917
Ni      17.34276700      19.30246091      30.19746436       0.60000000       0.01306281      -0.00539440      -0.00777383      -5.74259788
Ni      19.14895461      17.56710618      30.14428703       0.60000000       0.01248794       0.00095476      -0.00415160      -5.73116612
Ni      19.06881651      17.64858340      26.71286708       0.60000000       0.01837280      -0.00615118      -0.01240007      -5.73602837
Ni      17.42315657      17.52753705      31.89035856       0.60000000       0.00985947      -0.00372430      -0.00612439      -5.73092300
Ni      17.43475814      19.30121545      33.65198046       0.60000000       0.00545508      -0.00236613      -0.00490795      -5.73253542
Ni      19.22145419      17.54175459      33.61433846       0.60000000       0.00905582      -0.00380043      -0.00463483      -5.73164475
Ni      19.14227539      19.30584773      31.91965639       0.60000000       0.01059131       0.00133395      -0.00377218      -5.73731118
Ni      17.48205928      21.11167794       0.17740703       0.60000000      -0.00196593      -0.00112252      -0.00695475      -5.73663151
Ni      17.55113395      22.90949624       1.87451015       0.60000000      -0.00416095       0.00281527      -0.00914006      -5.73084348
Ni      19.28681244      21.12365250       1.88844143       0.60000000      -0.00293416      -0.00190370      -0.00780779      -5.73356652
Ni      19.25119495      22.90380247       0.13548681       0.60000000       0.00122560      -0.00104684      -0.00440109      -5.67539072
Ni      17.56472852      21.13533206       3.63903229       0.60000000      -0.00244143      -0.00070038      -0.00738453      -5.73047465
Ni      17.60964238      22.90571696       5.38419401       0.60000000       0.00302933      -0.00299144      -0.00443021      -5.72866386
Ni      19.34898792      21.12848464       5.39561259       0.60000000       0.00123832      -0.00184389      -0.01017552      -5.73089236
Ni      19.34240304      22.89849822       3.61450084       0.60000000      -0.00374115       0.00242987      -0.00966036      -5.73096937
Ni      17.62586205      21.13965327       7.17404227       0.60000000      -0.00356783       0.00392478      -0.01355905      -5.72551483
Ni      19.41139771      21.11632885       8.96819802       0.60000000      -0.03302273       0.01340019      -0.01302308      -5.72614408
Ni      19.38283772      22.88694766       7.17565274       0.60000000       0.01222974      -0.00464338      -0.01595486      -5.72974730
Ni      15.80314970      21.40967546      12.16058927       0.60000000       0.01240591      -0.03230193       0.02274877      -5.55640113
Ni      17.71124380      21.16665780      10.76553497       0.60000000       0.03041385      -0.07594380       0.02177290      -5.66022670
Ni      17.68191024      22.90723592       8.96504135       0.60000000      -0.02818575       0.02106255      -0.03190064      -5.69727409
Ni      15.84427546      19.81109534      13.77177420       0.60000000       0.04157511      -0.06008280       0.03429217      -5.43624139
Ni      15.81427983      21.46278507      15.53335874       0.60000000       0.00185844      -0.06381847       0.05120135      -5.67023325
Ni      17.96933339      20.88973251      14.61337920       0.60000000      -0.06012556      -0.05210578      -0.03566059      -5.59150881
Ni      17.85023234      22.72102514      12.75921787       0.60000000      -0.03000683       0.03081629      -0.05988747      -5.62631041
Ni      16.03304357      19.79846967      17.20810973       0.60000000      -0.06892064      -0.09728364       0.09790518      -5.64628392
Ni      16.09858980      21.47599337      19.01185681       0.60000000      -0.03992100      -0.03177511       0.05017734      -5.73737890
Ni      18.06469822      20.00772457      18.78533199       0.60000000      -0.08188002      -0.06131290       0.10778759      -5.65944713
Ni      17.71427402      21.61245598      17.10174889       0.60000000      -0.02996128      -0.11291520       0.01603690      -5.65598965
Ni      16.40651967      19.77823499      20.70646707       0.60000000      -0.07346476       0.01139723       0.13075680      -5.65919656
Ni      16.37147678      21.47642183      22.50616092       0.60000000      -0.04531144       0.02029949       0.07393997      -5.62762558
Ni      18.68546393      19.72684882      21.90912151       0.60000000       0.02720322      -0.06937397      -0.04381548      -5.60504836
Ni      18.09899476      21.63802102      20.63014199       0.60000000      -0.03824128      -0.02479096       0.06078727      -5.70075619
Ni      17.03826031      19.43199689      23.46604621       0.60000000      -0.01072108      -0.02901778      -0.09511841      -5.52601773
Ni      16.39013798      21.48102764      26.10877604       0.60000000      -0.02122810      -0.01474191       0.03027570      -5.56827772
Ni      18.92628346      19.45132747      25.10402792       0.60000000      -0.00152550      -0.02070691      -0.05570646      -5.63516504
Ni      18.31496957      21.53568851      24.14997405       0.60000000      -0.03680308      -0.00325084       0.04539346      -5.59193337
Ni      17.20136149      19.32301784      26.71535957       0.60000000       0.03847285      -0.01286842       0.00140294      -5.64937860
Ni      17.17215080      21.05975315      28.47745586       0.60000000       0.02583648      -0.00272493      -0.00729372      -5.69687921
Ni      19.03603800      19.38125277      28.49232606       0.60000000       0.01340290      -0.00354082      -0.00978119      -5.73425347
Ni      18.86311135      21.15588820      26.85373456       0.60000000       0.00909046      -0.01483537      -0.04132951      -5.65216470
Ni      17.35660363      21.06956078      31.94573571       0.60000000       0.01847713      -0.00276878      -0.00164032      -5.75629157
Ni      17.44376412      22.88170049      33.64052621       0.60000000       0.00732686       0.00156681      -0.00817103      -5.59413660
Ni      19.15974679      21.09238554      33.64818047       0.60000000       0.00975227      -0.00271877       0.00377140      -5.75685084
Ni      19.02782148      21.11689712      30.26834404       0.60000000       0.01457958      -0.00394093      -0.01012287      -5.74578220
Ni      17.60991506      24.67579318       0.02997204       0.60000000       0.00475257       0.00378693      -0.00630284      -5.67879772
Ni      17.64250335      26.41314287       1.76553505       0.60000000      -0.00272111       0.00297261      -0.00028825      -5.74110025
Ni      19.37891258      24.67257570       1.78354777       0.60000000      -0.00553082       0.00419565      -0.00277945      -5.73251516
Ni      19.39898822      26.37302836      -0.04790046       0.60000000       0.00984149       0.00505625      -0.00632052      -5.66222137
Ni      17.62131342      24.67044414       3.58224765       0.60000000      -0.00548628       0.00260776      -0.00284324      -5.72894764
Ni      17.65184455      26.41704448       5.33070437       0.60000000      -0.00357613       0.00268396      -0.00400596      -5.72756141
Ni      19.38465694      24.64859112       5.36789570       0.60000000      -0.00020267       0.00157725      -0.00825427      -5.73091424
Ni      19.40368162      26.40052520       3.54165616       0.60000000      -0.00599342       0.00564991      -0.00208680      -5.73272502
Ni      17.65322676      24.66339687       7.14560837       0.60000000       0.00028281       0.00543440      -0.01823003      -5.71996546
Ni      15.86867596      24.73830138       8.80917232       0.60000000       0.00332209      -0.00519106      -0.00241804      -5.69103396
Ni      19.41361752      24.62823339       8.98632903       0.60000000       0.01318313      -0.00214225      -0.01398445      -5.70397466
Ni      19.41405069      26.39152353       7.14045486       0.60000000      -0.00744906       0.00525201      -0.01116731      -5.72285110
Ni      15.83165433      23.05263541      10.50558696       0.60000000       0.01117294      -0.01643156       0.00981328      -5.64579719
Ni      15.71830978      24.85713048      12.14041279       0.60000000       0.03174654      -0.03622528       0.02734196      -5.68078023
Ni      17.76338600      24.56584133      10.86065815       0.60000000      -0.01732794       0.01856706      -0.04644522      -5.63702106
Ni      17.68792666      26.39906065       8.92870814       0.60000000      -0.00053293      -0.00882241      -0.00189320      -5.68404871
Ni      15.72246255      23.15273226      13.83530573       0.60000000       0.01850736      -0.03835422       0.04317642      -5.67953247
Ni      15.77583669      24.91275889      15.58318073       0.60000000      -0.02022707      -0.01732544       0.03260091      -5.74305010
Ni      17.56363819      23.23006148      15.39894934       0.60000000      -0.01097348       0.00631763       0.08091079      -5.70728636
Ni      17.49622642      24.93438371      13.76724392       0.60000000       0.01362612      -0.00837678       0.05862119      -5.68468142
Ni      15.88198207      23.20399839      17.30585592       0.60000000      -0.00217107      -0.03528214       0.02950943      -5.74302578
Ni      15.93045008      24.91425493      19.10886071       0.60000000      -0.01574512      -0.01396137       0.01773163      -5.73280871
Ni      17.78061371      23.31149618      18.94590495       0.60000000      -0.03515041      -0.04679112       0.01763585      -5.74198216
Ni      17.59634289      24.98866612      17.23722260       0.60000000      -0.00308142      -0.01974034       0.03733548      -5.74243349
Ni      16.13013089      23.16611373      20.81107504       0.60000000      -0.02148404      -0.01591748       0.02934602      -5.72571772
Ni      16.13668874      24.83847421      22.62550063       0.60000000      -0.01772583      -0.00786925       0.02440985      -5.72561032
Ni      18.11456652      23.25786621      22.47240533       0.60000000      -0.02342006      -0.00678421       0.03911767      -5.69860643
Ni      17.82802836      24.99516917      20.79715454       0.60000000      -0.01412817      -0.02248002       0.01185992      -5.73643780
Ni      16.34527305      23.09606161      24.31292438       0.60000000      -0.03458409       0.00539677       0.05668435      -5.65801018
Ni      16.26443193      24.76885569      26.09204500       0.60000000      -0.01897623       0.01572138       0.04093632      -5.69726747
Ni      18.25405613      23.25449137      26.00150052       0.60000000      -0.01467713       0.00465237       0.02956105      -5.66129673
Ni      18.07244422      24.93030012      24.27681795       0.60000000      -0.01936123      -0.00667165       0.02420446      -5.70984268
Ni      16.34177018      23.22237721      27.94525745       0.60000000      -0.02163710      -0.00941890       0.02745194      -5.68315089
Ni      16.17316143      24.91005333      29.74308929       0.60000000      -0.02157864      -0.02610777       0.03255956      -5.61423838
Ni      18.84719259      22.87269569      28.63910224       0.60000000       0.00123187      -0.01217805      -0.03787884      -5.52739346
Ni      18.19376660      24.94543924      27.74981752       0.60000000      -0.02353930      -0.00012243       0.03041971      -5.61191136
Ni      17.23007607      22.84803947      30.25272067       0.60000000       0.03916638      -0.00229939       0.00456122      -5.54270828
Ni      15.86236911      24.68453452      33.46210407       0.60000000       0.00670394       0.00476899      -0.00647987      -5.67650515
Ni      19.02735547      22.88859098      31.96256914       0.60000000       0.02523156      -0.00658935       0.00859652      -5.45369273
Ni      17.94440317      24.93520520      31.44699259       0.60000000      -0.01482604      -0.02366970       0.02516870      -5.51569420
Ni      17.69051903      28.11683303      -0.07991298       0.60000000      -0.00348939       0.00377076       0.00115141      -5.71164262
Ni      17.69194136      29.86265591       1.67735329       0.60000000      -0.00577956       0.00151314       0.00490979      -5.72528696
Ni      19.43856278      28.11805310       1.69143183       0.60000000      -0.00150219       0.00338401       0.00254539      -5.73147631
Ni      19.51877981      29.75430231      -0.18574834       0.60000000       0.00348610       0.00007636      -0.00736791      -5.69954550
Ni      17.66495390      28.15521034       3.50898458       0.60000000      -0.00823063       0.00125408      -0.00015997      -5.73062479
Ni      17.67278642      29.91043361       5.25776075       0.60000000      -0.00764501       0.00453070      -0.00187012      -5.72731936
Ni      19.42032124      28.14344798       5.30229497       0.60000000      -0.00530426       0.00504112      -0.00190687      -5.72841215
Ni      19.43791978      29.86896906       3.46543815       0.60000000      -0.00445137       0.00221109      -0.00102507      -5.72838527
Ni      17.67578103      28.16666625       7.08582269       0.60000000      -0.01371373       0.00809678      -0.01481625      -5.71744770
Ni      17.64265232      30.00892594       8.72950716       0.60000000       0.00183630      -0.01407961       0.01655179      -5.72576070
Ni      19.45064623      28.15539072       8.89326769       0.60000000      -0.01335999       0.00817668      -0.01943303      -5.71116912
Ni      19.43510696      29.91236773       7.04564177       0.60000000      -0.00507965       0.00094034       0.00137678      -5.72572219
Ni      17.59498101      28.31687697      10.45929645       0.60000000       0.00841779      -0.02252378       0.01953615      -5.71159041
Ni      17.55361901      30.10648481      12.15825485       0.60000000       0.00439467      -0.01335383       0.01379440      -5.73934680
Ni      17.52233275      26.64290910      12.14870152       0.60000000       0.02556763      -0.03516124       0.01772599      -5.68029642
Ni      19.41628778      30.03543440      10.50130050       0.60000000       0.00141217      -0.01625649       0.01742093      -5.69425523
Ni      17.50665576      28.41019577      13.86771124       0.60000000       0.00264522      -0.02393617       0.01232275      -5.75086254
Ni      17.51591279      30.15193959      15.64532812       0.60000000      -0.00232892      -0.00664478       0.00841053      -5.73879176
Ni      17.51948010      26.68544226      15.54616282       0.60000000      -0.01106535      -0.00947756       0.03560578      -5.75223315
Ni      19.29544794      30.13676535      13.89636613       0.60000000       0.00401544      -0.01208897       0.01645009      -5.68148357
Ni      17.55392250      28.41730988      17.35617317       0.60000000      -0.00803617      -0.00746796       0.01869295      -5.73870265
Ni      17.56751911      30.14271007      19.15427152       0.60000000      -0.00163948      -0.00525252       0.01102278      -5.73119080
Ni      17.64742645      26.70860921      19.07357591       0.60000000      -0.00562354      -0.01328279       0.01867774      -5.73633057
Ni      19.30243753      30.19535905      17.34956552       0.60000000      -0.00648311      -0.01008902       0.01056404      -5.74273103
Ni      17.67072831      28.40752132      20.88351090       0.60000000      -0.00319771      -0.00994369       0.01118782      -5.73009664
Ni      17.67528035      30.09289244      22.68866116       0.60000000      -0.00443453      -0.00097036       0.01064203      -5.73384291
Ni      17.84800266      26.67853573      22.60478286       0.60000000      -0.01469277      -0.01202153       0.00953731      -5.72575647
Ni      19.38814303      30.19172864      20.86022052       0.60000000       0.00166261      -0.00606661       0.00969450      -5.73318458
Ni      17.82993383      28.35146748      24.39826547       0.60000000      -0.00757225      -0.00642759       0.01134451      -5.72589940
Ni      17.79871510      29.97824347      26.23401406       0.60000000      -0.00427649      -0.00114919       0.01251587      -5.72766852
Ni      18.02916911      26.61399942      26.05925881       0.60000000      -0.01045024       0.00315155       0.02057394      -5.71183640
Ni      19.54249580      30.13406208      24.39916951       0.60000000      -0.00486104      -0.00863221       0.00345573      -5.72174740
Ni      17.95448606      28.20412682      27.92213765       0.60000000      -0.00501518      -0.00227317       0.01933773      -5.71208471
Ni      17.85088050      29.78653224      29.78640024       0.60000000      -0.00000542       0.00978307       0.00703345      -5.70973325
Ni      18.16699702      26.44390472      29.58217018       0.60000000      -0.02568543      -0.00743151       0.03384393      -5.59001750
Ni      19.67761247      29.98533466      27.95400721       0.60000000      -0.00006654      -0.00734087       0.01826005      -5.70479643
Ni      17.90467061      27.92976468      31.49761646       0.60000000       0.00274500       0.01894420       0.01151610      -5.66991675
Ni      17.80761445      29.72808192      33.25669971       0.60000000       0.00245812       0.00637292       0.00495620      -5.69050705
Ni      17.68998958      26.34181286      33.40684450       0.60000000       0.00818308       0.01399499       0.00169135      -5.63607711
Ni      19.63882883      29.75522953      31.52439810       0.60000000       0.00246071       0.01205645       0.00545690      -5.68706691
Ni      17.72732756      31.53832712      -0.14449043       0.60000000      -0.00464035      -0.00016254       0.00507742      -5.71819830
Ni      17.68741828      33.33749834       1.64167047       0.60000000      -0.00601065      -0.00181445       0.00671259      -5.72474420
Ni      19.46269150      31.56243972       1.63193261       0.60000000      -0.00276818       0.00084254       0.00099648      -5.72231483
Ni      19.46145963      33.30551694      -0.13125124       0.60000000      -0.00556856       0.00493988       0.00831782      -5.72993577
Ni      17.68162892      31.62908273       3.44012339       0.60000000      -0.00685694       0.00097041       0.00445458      -5.72813684
Ni      17.66561389      33.42144011       5.18350407       0.60000000      -0.00606850      -0.00521617       0.00898528      -5.72939897
Ni      19.43626971      31.64354757       5.22327123       0.60000000      -0.00530945       0.00085898       0.00437917      -5.72934282
Ni      19.44084584      33.35906946       3.41335783       0.60000000      -0.00435448       0.00008655       0.00693647      -5.72599721
Ni      17.65844790      31.71420574       6.96328800       0.60000000      -0.00381240      -0.00897390       0.01476716      -5.73028994
Ni      17.63253906      33.50531274       8.69299981       0.60000000      -0.00480869      -0.00660647       0.00787528      -5.73035133
Ni      19.42750779      31.73280622       8.74080337       0.60000000      -0.00169038      -0.00998252       0.01543989      -5.72727013
Ni      19.42881583      33.44367619       6.96118202       0.60000000      -0.00605307      -0.00590543       0.01214504      -5.72956502
Ni      17.60363909      31.80305143      10.43544323       0.60000000       0.00102797      -0.01228800       0.01153287      -5.73185629
Ni      17.58520984      33.57348449      12.18906735       0.60000000      -0.00290257      -0.00542840       0.00679817      -5.72911847
Ni      19.36147506      31.82648041      12.19270592       0.60000000      -0.00087658      -0.00999418       0.01441478      -5.70892638
Ni      19.39713806      33.52886972      10.45982286       0.60000000      -0.00479849      -0.00704101       0.00863006      -5.72779596
Ni      17.54080183      31.86653649      13.91857647       0.60000000       0.00101721      -0.00833821       0.00762167      -5.73256320
Ni      17.53804491      33.62351281      15.69941141       0.60000000      -0.00114951      -0.00850450       0.00456310      -5.72843593
Ni      19.29263829      31.91323372      15.65080804       0.60000000      -0.00049967      -0.00566593       0.01325720      -5.74049705
Ni      19.33687235      33.61781152      13.93945830       0.60000000       0.00000142      -0.01070304       0.00554745      -5.73241293
Ni      17.52795262      31.88754400      17.42784418       0.60000000      -0.00263585      -0.00461656       0.01055530      -5.73084992
Ni      17.54173214      33.61166272      19.22611433       0.60000000      -0.00324274      -0.00259792       0.00786127      -5.73157704
Ni      19.30682344      31.91873329      19.14761558       0.60000000      -0.00196076      -0.00491839       0.01017807      -5.73725355
Ni      19.30183849      33.65004707      17.43942316       0.60000000      -0.00235227      -0.00649249       0.00527119      -5.73234367
Ni      17.57914439      31.85131954      20.95973345       0.60000000      -0.00054145      -0.00415540       0.00741511      -5.73305672
Ni      17.59429584      33.54800647      22.77475862       0.60000000      -0.00432192      -0.00273281       0.00617481      -5.73190093
Ni      19.38712953      31.86457058      22.68482184       0.60000000      -0.00224642      -0.00220077       0.00638319      -5.74027830
Ni      19.31395020      33.62127809      20.96044846       0.60000000      -0.00106200      -0.00262431       0.00672333      -5.73763436
Ni      17.67218205      31.76067074      24.51310858       0.60000000       0.00053684      -0.00194135       0.01060310      -5.73224479
Ni      17.67208852      33.43706777      26.33208946       0.60000000      -0.00031954       0.00019043       0.00545061      -5.72693837
Ni      19.50680776      31.74471338      26.24974932       0.60000000       0.00209181      -0.00746523       0.01022507      -5.73251235
Ni      19.38711576      33.52969532      24.51791942       0.60000000      -0.00061386      -0.00373197       0.00933656      -5.73813492
Ni      17.75671997      31.61860884      28.06774578       0.60000000      -0.00039554       0.00039453       0.00396026      -5.72534627
Ni      17.71237386      33.34266731      29.83986105       0.60000000      -0.00098983       0.00593132       0.00577889      -5.72736537
Ni      19.57450763      31.57405333      29.80692206       0.60000000      -0.00065546       0.00735203       0.00530906      -5.72439724
Ni      19.47102098      33.39698572      28.08737782       0.60000000       0.00253380      -0.00128019       0.00268874      -5.72990751
Ni      17.76503453      31.53101803      31.54817055       0.60000000      -0.00062418       0.01288964       0.00818165      -5.72418082
Ni      17.70801718      33.30325776      33.32028890       0.60000000      -0.00376816       0.00931238       0.01217424      -5.72703648
Ni      19.52857586      31.51715225      33.28116846       0.60000000       0.00173551       0.00834480       0.00595956      -5.72912991
Ni      19.48675681      33.31440131      31.57469217       0.60000000      -0.00101100       0.00753100       0.00765357      -5.73408407
Ni      21.18909289      -0.11601604      -0.11116483       0.60000000      -0.00409134       0.00430320       0.00586147      -5.74434328
Ni      21.17205382       1.66971914       1.65900946       0.60000000      -0.00278627       0.00333364       0.00793392      -5.73175615
Ni      22.93594705      -0.11462225       1.64235553       0.60000000      -0.00356378       0.00505050       0.00770744      -5.74386042
Ni      22.92376189       1.66432274      -0.10202859       0.60000000      -0.00327012       0.00482016       0.00486309      -5.74643356
Ni      21.18375178      -0.08720265       3.41417592       0.60000000      -0.00597023      -0.00047111       0.00739136      -5.72894937
Ni      21.17574030       1.70320725       5.18510467       0.60000000      -0.00785475       0.00069116       0.00900436      -5.72951210
Ni      22.93358814      -0.07312874       5.19223005       0.60000000      -0.00817660       0.00020640       0.00539163      -5.72951150
Ni      22.92878628       1.67304122       3.41623193       0.60000000      -0.00620533       0.00196742       0.00752510      -5.73079634
Ni      21.18333170      -0.02627116       6.96513920       0.60000000      -0.00668682      -0.00270399       0.00821373      -5.72830403
Ni      21.17129290       1.77521189       8.71792737       0.60000000      -0.00637760      -0.00324687       0.00565679      -5.72942162
Ni      22.93645613      -0.01271819       8.74865278       0.60000000      -0.00499325      -0.00272639       0.00848502      -5.72867030
Ni      22.93276383       1.71754124       6.96043361       0.60000000      -0.00720742      -0.00160717       0.00760612      -5.72988510
Ni      21.17007438       0.06536894      10.47861205       0.60000000      -0.00500416      -0.00838574       0.00781230      -5.72964323
Ni      21.15641567       1.85256263      12.24471857       0.60000000      -0.00461266      -0.00578209       0.00361520      -5.72873271
Ni      22.93063154       0.08165283      12.25542110       0.60000000      -0.00007812      -0.00780323       0.00625608      -5.72879779
Ni      22.93378933       1.79390601      10.49840011       0.60000000      -0.00478730      -0.00363105       0.00603225      -5.72932452
Ni      21.13512412       0.14702314      13.97714922       0.60000000       0.00267627      -0.00913828       0.00124514      -5.73090738
Ni      21.13596574       1.89447941      15.76920705       0.60000000      -0.00113538      -0.00744029      -0.00032633      -5.72893631
Ni      22.91302029       0.13500555      15.75784460       0.60000000      -0.00028872      -0.00742421      -0.00082190      -5.72767878
Ni      22.92634148       1.85313947      14.03222878       0.60000000      -0.00112678      -0.00649069      -0.00068071      -5.72684866
Ni      21.11137474       0.17569366      17.48530814       0.60000000       0.00115072      -0.00958483      -0.00134109      -5.73641628
Ni      21.12197994       1.88729082      19.28919768       0.60000000       0.00189694      -0.00864519      -0.00184316      -5.73358816
Ni      22.90271995       0.13566546      19.25329156       0.60000000       0.00148821      -0.00477912       0.00251992      -5.67743427
Ni      22.91025110       1.87265576      17.55338353       0.60000000       0.00183428      -0.00806344      -0.00236751      -5.73025417
Ni      21.10519053       0.13495169      20.98387270       0.60000000      -0.00388785       0.00414483       0.00570356      -5.74841899
Ni      21.11860992       1.83506620      22.79924247       0.60000000      -0.00491556      -0.00246408       0.00556747      -5.73550135
Ni      22.88828938       0.05845208      22.72480255       0.60000000      -0.00422069       0.00818451       0.00846699      -5.66251564
Ni      22.90229819       1.83209219      21.06173143       0.60000000       0.00068926      -0.00148838      -0.00099762      -5.73489380
Ni      21.10691530       0.08795721      24.53338718       0.60000000      -0.00288413      -0.00587164       0.00506833      -5.75415021
Ni      21.12715640       1.77399882      26.34656350       0.60000000       0.00118678      -0.00076091       0.00388583      -5.73506778
Ni      22.88951331       0.01793970      26.29924194       0.60000000      -0.00101810      -0.01247066       0.00282592      -5.69838703
Ni      22.86966571       1.79478284      24.56015022       0.60000000      -0.00251850      -0.00438412       0.00634943      -5.75380242
Ni      21.15641780      -0.01987001      28.10029381       0.60000000       0.00311577      -0.00433302       0.00207377      -5.75111955
Ni      21.15968005       1.70136284      29.87141470       0.60000000      -0.00158868       0.00005018       0.00300013      -5.73320681
Ni      22.95575805      -0.10963081      29.86954670       0.60000000      -0.00110331       0.00369395       0.00019792      -5.68339342
Ni      22.88537813       1.72482380      28.11019829       0.60000000      -0.00109582       0.00040481       0.00280400      -5.75280762
Ni      21.20568958      -0.11103755      31.60225008       0.60000000      -0.00303705       0.00653826       0.00603149      -5.74943167
Ni      21.17278985       1.66630317      33.35733590       0.60000000      -0.00152117       0.00465422       0.00554089      -5.73951817
Ni      22.94788702      -0.11585996      33.34535242       0.60000000      -0.00193448       0.00688481       0.00315428      -5.63046837
Ni      22.91662338       1.67418742      31.60527784       0.60000000      -0.00045242       0.00195216       0.00357208      -5.75578362
Ni      21.15635730       3.44690011      -0.07867031       0.60000000      -0.00458814       0.00163332       0.00718771      -5.73157537
Ni      21.14954998       5.21806752       1.69054012       0.60000000      -0.00328665       0.00295888       0.00494797      -5.73107898
Ni      22.91768873       3.44052279       1.66539361       0.60000000      -0.00132515       0.00277773       0.00677947      -5.73144299
Ni      22.90212865       5.22332826      -0.07289825       0.60000000      -0.00104421       0.00020361       0.00504361      -5.73110521
Ni      21.16349091       3.45049959       3.42834197       0.60000000      -0.00204528       0.00405998       0.00704903      -5.73076802
Ni      21.15630200       5.22710821       5.19609419       0.60000000      -0.00445861       0.00372091       0.00591602      -5.73128456
Ni      22.92555697       3.45514431       5.18673976       0.60000000      -0.00507219       0.00252174       0.00548869      -5.73113406
Ni      22.91476233       5.21439877       3.43429775       0.60000000      -0.00300483       0.00363603       0.00581431      -5.73144084
Ni      21.16543614       3.49090041       6.95109108       0.60000000      -0.00397358       0.00017008       0.00511587      -5.73031849
Ni      21.15792815       5.26465059       8.72357490       0.60000000      -0.00463241      -0.00067603       0.00461431      -5.73011303
Ni      22.93104121       3.50511141       8.72510361       0.60000000      -0.00626624       0.00068064       0.00318574      -5.73028755
Ni      22.92488744       5.22924227       6.95310627       0.60000000      -0.00340946       0.00422900       0.00619288      -5.73193610
Ni      21.16044559       3.55963595      10.49252635       0.60000000      -0.00604631      -0.00342702       0.00307013      -5.72790736
Ni      21.15412075       5.33179044      12.28534542       0.60000000      -0.00544142      -0.00578962       0.00033278      -5.72509879
Ni      22.92880592       3.57181515      12.28055681       0.60000000      -0.00441532      -0.00296239      -0.00022361      -5.72674984
Ni      22.93044924       5.27332896      10.50130872       0.60000000      -0.00714334       0.00250726       0.00550501      -5.72889543
Ni      21.15104408       3.61703875      14.03676915       0.60000000      -0.00270931      -0.00584299       0.00246520      -5.72719181
Ni      21.14721207       5.38299633      15.83632148       0.60000000      -0.00049060      -0.00538728      -0.00222380      -5.72658914
Ni      22.91800707       3.61408930      15.82381403       0.60000000      -0.00144226      -0.00946949      -0.00294478      -5.72762114
Ni      22.92232819       5.34570096      14.07468137       0.60000000      -0.00518997      -0.00369263       0.00380533      -5.72347516
Ni      21.13461724       3.63701975      17.56759510       0.60000000       0.00049193      -0.00792486      -0.00359690      -5.73042792
Ni      21.12723398       5.39438035      19.35082797       0.60000000       0.00124363      -0.01187031       0.00262653      -5.73085696
Ni      22.89838354       3.61214633      19.34481654       0.60000000       0.00251383      -0.00617553      -0.00626175      -5.73078305
Ni      22.90442027       5.38270982      17.61272002       0.60000000      -0.00079351      -0.00524007      -0.00110483      -5.72882354
Ni      21.12100565       3.61517538      21.08042219       0.60000000      -0.00106888      -0.01068604       0.00085994      -5.73095369
Ni      21.10828904       5.35972194      22.86042476       0.60000000       0.00080207      -0.00393969      -0.00238191      -5.73069769
Ni      22.87710098       3.58136606      22.84019830       0.60000000       0.00029985      -0.00705805       0.00696266      -5.73095500
Ni      22.87601707       5.38098301      21.11289873       0.60000000       0.00423155      -0.01654672       0.00233986      -5.73116207
Ni      21.11004397       3.56757096      24.59682958       0.60000000      -0.00111916      -0.00169818       0.00666046      -5.73060614
Ni      21.10548419       5.31015577      26.37466084       0.60000000       0.00363036      -0.00098979       0.00493438      -5.73027986
Ni      22.86657999       3.52874875      26.35606582       0.60000000       0.00235901       0.00122215       0.00221404      -5.73134232
Ni      22.85866865       5.33667800      24.61508948       0.60000000      -0.00068133      -0.00378321      -0.00142449      -5.72997481
Ni      21.12460967       3.51256124      28.12366221       0.60000000      -0.00217175      -0.00084510       0.00482782      -5.73075914
Ni      21.12289510       5.26472054      29.89005018       0.60000000      -0.00218409       0.00094843       0.00494459      -5.73132151
Ni      22.88681538       3.48083654      29.86808890       0.60000000       0.00012361       0.00160049       0.00130418      -5.73155499
Ni      22.86334369       5.28749752      28.12103710       0.60000000       0.00177218      -0.00040544       0.00785080      -5.72999877
Ni      21.14449529       3.46929861      31.62828349       0.60000000      -0.00100973      -0.00257077       0.00316203      -5.73190743
Ni      21.13844919       5.23319910      33.39232988       0.60000000      -0.00102646       0.00040576       0.00331246      -5.73138225
Ni      22.90764166       3.44933241      33.36109898       0.60000000      -0.00166064      -0.00050722       0.00525154      -5.73297787
Ni      22.88457373       5.25021999      31.62688847       0.60000000       0.00160756      -0.00477323       0.00289845      -5.73101157
Ni      21.13176554       6.99692296      -0.03756025       0.60000000       0.00054248       0.00090134       0.00208684      -5.73121059
Ni      21.12647830       8.75973071       1.73521934       0.60000000       0.00095592      -0.00008257       0.00314697      -5.73099124
Ni      22.89973127       6.99121362       1.69743565       0.60000000      -0.00096301       0.00111903       0.00550760      -5.73132521
Ni      22.88130227       8.77618718      -0.03326183       0.60000000       0.00188240      -0.00081314       0.00169479      -5.73131484
Ni      21.14354980       6.98761445       3.46058619       0.60000000      -0.00271642       0.00093894       0.00426288      -5.73109508
Ni      21.14075576       8.75050932       5.23293526       0.60000000      -0.00294503       0.00072214       0.00259698      -5.73119903
Ni      22.91539913       6.98180661       5.20251454       0.60000000      -0.00397495       0.00291220       0.00472883      -5.73192525
Ni      22.90026264       8.75449980       3.46942061       0.60000000      -0.00112189       0.00121139       0.00414361      -5.73134857
Ni      21.15169783       6.99292754       6.96564046       0.60000000      -0.00337683       0.00129981       0.00721956      -5.73174638
Ni      21.15458016       8.74492423       8.73521149       0.60000000      -0.00580134       0.00408191       0.00397654      -5.73227555
Ni      22.92896350       6.98656319       8.72114499       0.60000000      -0.00633797       0.00460807       0.00404445      -5.73223245
Ni      22.92091694       8.73718687       6.97061378       0.60000000      -0.00471177       0.00449397       0.00417888      -5.73218894
Ni      21.15659550       7.02306577      10.50151865       0.60000000      -0.00494164       0.00215461       0.00566826      -5.72935528
Ni      21.16742017       8.77066960      12.27672485       0.60000000      -0.00645477       0.00781746       0.00622576      -5.72725987
Ni      22.93473875       7.03025211      12.28140446       0.60000000      -0.00593739       0.00304719       0.00701347      -5.72645563
Ni      22.94207728       8.72756912      10.48354296       0.60000000      -0.00750900       0.00681328       0.00470656      -5.73267764
Ni      21.15052726       7.10966149      14.08875334       0.60000000      -0.00087815      -0.00565124      -0.00682560      -5.71964353
Ni      21.15066430       8.92724875      15.89573501       0.60000000      -0.00098294      -0.01848234       0.00079584      -5.71284831
Ni      22.91280042       7.13696878      15.87793725       0.60000000       0.00099596      -0.00875792      -0.00838289      -5.72014719
Ni      22.95510103       8.78171910      14.06109594       0.60000000      -0.00652832       0.01184526       0.00130758      -5.72508234
Ni      21.14041369       7.17311447      17.62488793       0.60000000      -0.00095226      -0.01356375       0.00747242      -5.72528672
Ni      21.11544236       8.96774371      19.41359529       0.60000000       0.01231842      -0.01135146      -0.03460048      -5.72585571
Ni      22.88367571       7.17580069      19.38431168       0.60000000       0.00190994      -0.01604817       0.01256135      -5.72952116
Ni      21.10922082       7.15882515      21.12721898       0.60000000      -0.00367453      -0.00367154      -0.00697773      -5.73052317
Ni      21.07390250       8.92454529      22.89048851       0.60000000       0.00713989      -0.01089856       0.01170859      -5.72939050
Ni      22.85280492       7.14965486      22.87843358       0.60000000       0.00058972      -0.00496608      -0.00960489      -5.72956955
Ni      22.85005483       8.97606279      21.14922014       0.60000000      -0.00333532      -0.01338913      -0.00621777      -5.72665733
Ni      21.08994021       7.11223095      24.62991002       0.60000000       0.00588667      -0.00474358       0.00571926      -5.73018736
Ni      21.07475564       8.86144122      26.40689744       0.60000000       0.00782414      -0.00784987       0.00577323      -5.73042047
Ni      22.84307434       7.09746540      26.37697692       0.60000000       0.00786492      -0.00634876       0.00491524      -5.72995132
Ni      22.82262793       8.91378734      24.63548238       0.60000000       0.01144599      -0.00859305       0.01023072      -5.72926140
Ni      21.09944502       7.06123402      28.14826044       0.60000000       0.00422390      -0.00269208       0.00312748      -5.73075104
Ni      21.09288870       8.81108391      29.92595280       0.60000000       0.00339812      -0.00410039       0.00321227      -5.73100698
Ni      22.86127406       7.05067024      29.88547321       0.60000000       0.00275233      -0.00220736       0.00679465      -5.73067760
Ni      22.83610977       8.85692105      28.14358026       0.60000000       0.00772319      -0.00855482       0.00478785      -5.73020971
Ni      21.11750409       7.02213796      31.66040673       0.60000000      -0.00085742      -0.00114118       0.00218302      -5.73134208
Ni      21.11122853       8.77736018      33.43534174       0.60000000       0.00150779       0.00002350       0.00142780      -5.73118007
Ni      22.88304046       7.01491166      33.39395769       0.60000000       0.00046540      -0.00101872       0.00343737      -5.73127466
Ni      22.86069063       8.80889969      31.65765990       0.60000000       0.00113551      -0.00207668       0.00302705      -5.73098415
Ni      21.10551583      10.53343631       0.01212376       0.60000000       0.00174332      -0.00316385       0.00301379      -5.73104048
Ni      21.10208116      12.28868246       1.79147332       0.60000000       0.00432779      -0.00100218      -0.00029865      -5.73090672
Ni      22.88095304      10.53422146       1.74214898       0.60000000       0.00388130      -0.00117981       0.00348504      -5.73119181
Ni      22.85838237      12.31225363       0.01398593       0.60000000       0.00390930      -0.00176947       0.00231183      -5.73115516
Ni      21.12394517      10.51982869       3.51142072       0.60000000       0.00145933       0.00058925       0.00319341      -5.73073518
Ni      21.12654909      12.27901769       5.28929654       0.60000000       0.00101183       0.00095433      -0.00007868      -5.73028255
Ni      22.90473005      10.51114040       5.24274303       0.60000000      -0.00097743       0.00130520       0.00357035      -5.73117745
Ni      22.88284774      12.28934435       3.52044901       0.60000000       0.00565777      -0.00150550       0.00078759      -5.73091990
Ni      21.14459038      10.50593941       7.00533611       0.60000000      -0.00463689       0.00271932       0.00299619      -5.73101604
Ni      21.16011803      12.25483194       8.77419486       0.60000000      -0.00567160       0.00885714       0.00316857      -5.73039281
Ni      22.93666512      10.48193450       8.73370334       0.60000000      -0.00878564       0.00734976       0.00647667      -5.73203152
Ni      22.91659347      12.26316964       7.01399536       0.60000000      -0.00467968       0.00458386       0.00345530      -5.73058385
Ni      21.17196881      10.48348929      10.49677301       0.60000000      -0.01113732       0.01030070       0.00690644      -5.73278213
Ni      21.21983921      12.20729733      12.24387926       0.60000000      -0.01763996       0.01463156       0.01284893      -5.73354501
Ni      22.97674852      10.45179525      12.23390976       0.60000000      -0.01247222       0.01643882       0.00587549      -5.73375338
Ni      22.97106835      12.21787367      10.48769981       0.60000000      -0.01453548       0.01090118       0.00998612      -5.73100793
Ni      21.21021810      10.51087009      14.03641795       0.60000000      -0.01301017       0.01295887       0.01847525      -5.71990436
Ni      21.16555519      10.76646152      17.71661037       0.60000000      -0.08164389       0.02692198       0.02438662      -5.65841669
Ni      22.90627164       8.96750715      17.68333005       0.60000000       0.02374981      -0.04004352      -0.02560794      -5.69616807
Ni      21.41154729      12.15618928      15.80551126       0.60000000      -0.02906686       0.02485401       0.01098498      -5.55248517
Ni      21.03868054      10.76165627      21.18114240       0.60000000       0.01737611      -0.02231240       0.00436837      -5.72877133
Ni      20.96972762      12.51985766      22.97243341       0.60000000       0.02984639      -0.02116273       0.00852001      -5.72617465
Ni      22.79240141      10.74902533      22.91340503       0.60000000       0.02058556      -0.01644876       0.00567531      -5.72667348
Ni      22.83069169      10.84497305      19.48373700       0.60000000       0.00344984      -0.04911957      -0.03323705      -5.68449426
Ni      21.04013933      10.67493228      24.67459754       0.60000000       0.01219324      -0.01250312       0.00523573      -5.72932458
Ni      21.01664401      12.40603417      26.47340706       0.60000000       0.01229834      -0.00876322       0.00109096      -5.73082310
Ni      22.80404184      10.66994739      26.40357421       0.60000000       0.00768874      -0.00577176       0.00979875      -5.72921032
Ni      22.74978182      12.51154829      24.68046987       0.60000000       0.02512600      -0.01585687       0.00794749      -5.72348839
Ni      21.06179570      10.60219096      28.19306990       0.60000000       0.00447057      -0.00731874       0.00541287      -5.73118269
Ni      21.04667653      12.33754838      29.98427419       0.60000000       0.00419356      -0.00400136      -0.00095774      -5.73167294
Ni      22.83251872      10.60614644      29.92138220       0.60000000       0.00620554      -0.00533150       0.00144811      -5.73077172
Ni      22.79050664      12.40901541      28.19207115       0.60000000       0.00950635      -0.00463087       0.00181207      -5.73109365
Ni      21.08435119      10.55737333      31.70810019       0.60000000       0.00543152      -0.00221282       0.00029503      -5.73115581
Ni      21.07643347      12.30430338      33.49037955       0.60000000       0.00596934      -0.00261017      -0.00198098      -5.73112774
Ni      22.85922845      10.56170577      33.43478552       0.60000000       0.00200070      -0.00040101       0.00175555      -5.73115462
Ni      22.82794692      12.34846579      31.70475862       0.60000000       0.00836047      -0.00443294      -0.00165541      -5.73104471
Ni      21.07273114      14.05245187       0.07119731       0.60000000       0.00295192      -0.00231773      -0.00315042      -5.73118830
Ni      21.07401499      15.80711461       1.84790258       0.60000000       0.00463934      -0.00051179      -0.00466733      -5.73140007
Ni      22.85899842      14.06164955       1.79500317       0.60000000       0.00410154       0.00074371      -0.00348951      -5.73108625
Ni      22.82528396      15.82850503       0.06758255       0.60000000       0.00800542      -0.00220094      -0.00392443      -5.73102880
Ni      21.10339096      14.04757391       3.57032824       0.60000000       0.00467034      -0.00175138      -0.00363406      -5.73081809
Ni      21.11188355      15.81368744       5.34440025       0.60000000       0.00094141       0.00062861      -0.00527698      -5.73034424
Ni      22.88904331      14.04540213       5.29721747       0.60000000       0.00520664      -0.00013060       0.00036805      -5.73048466
Ni      22.86210915      15.81681199       3.57211016       0.60000000       0.00457738       0.00007838      -0.00573269      -5.73110139
Ni      21.13734756      14.03952273       7.06574601       0.60000000      -0.00210247       0.00180589      -0.00264223      -5.72936803
Ni      21.15698607      15.79687677       8.84677601       0.60000000      -0.00421162       0.00649261      -0.00748813      -5.72865582
Ni      22.93846068      14.01320191       8.78075534       0.60000000      -0.00176385       0.00738528       0.00170834      -5.72967386
Ni      22.90079338      15.80449204       7.07177285       0.60000000      -0.00025772       0.00205615      -0.00260087      -5.72968012
Ni      21.19769135      13.99613165      10.53976428       0.60000000      -0.00906280       0.01420701      -0.00102647      -5.72989696
Ni      23.03853979      13.94571165      12.23483806       0.60000000      -0.01972647       0.00809924       0.01565627      -5.73329616
Ni      22.97610839      15.76023825      10.54867734       0.60000000      -0.00213112       0.00482594      -0.00253519      -5.72931528
Ni      19.64173411      15.60951629      14.10218370       0.60000000      -0.01975922       0.05043546      -0.03695567      -5.74668616
Ni      21.35288962      13.88161931      13.99401273       0.60000000      -0.03764692       0.02493427       0.02011413      -5.75462443
Ni      21.27640561      15.71603818      12.31309308       0.60000000       0.00096103       0.00983690      -0.00732593      -5.73367107
Ni      19.80821938      13.76020341      15.84180498       0.60000000      -0.05473756       0.03614422       0.04443514      -5.43275970
Ni      20.87801347      14.61846810      17.97142989       0.60000000      -0.05135618      -0.04467147      -0.05722195      -5.59166116
Ni      22.71579556      12.76394421      17.85480571       0.60000000       0.03346869      -0.06269043      -0.03179788      -5.62502992
Ni      21.45867809      15.52968363      15.81707527       0.60000000      -0.06745996       0.05133387       0.00533248      -5.67163616
Ni      20.98602236      12.64231166      19.52611266       0.60000000       0.02702112      -0.00582365       0.01080333      -5.66849107
Ni      20.85719964      14.41799013      21.30203897       0.60000000       0.04441334      -0.04228679       0.03609397      -5.71180731
Ni      22.72829919      12.62264107      21.26058687       0.60000000       0.04249396      -0.02614416      -0.00360758      -5.70764083
Ni      22.68823782      14.57048392      19.73020996       0.60000000      -0.01169398      -0.02301798      -0.03933842      -5.69371998
Ni      20.93771012      14.24292346      24.79471421       0.60000000       0.02249181      -0.01091924      -0.00780179      -5.72844380
Ni      20.91130688      15.95761570      26.60794624       0.60000000       0.01395511      -0.01122523      -0.01257198      -5.72999066
Ni      22.72852091      14.24358329      26.48667946       0.60000000       0.01085797      -0.00669507       0.00264906      -5.72802144
Ni      22.63666722      14.41086015      23.01229292       0.60000000       0.05649482      -0.03334754       0.00837353      -5.71509916
Ni      20.99237933      14.12926739      28.27405331       0.60000000       0.01076114      -0.00371032      -0.00053073      -5.73216718
Ni      20.96912983      15.85273365      30.07007717       0.60000000       0.01007154      -0.00156843      -0.00625579      -5.73280948
Ni      22.77804650      14.13836753      29.98496298       0.60000000       0.00912796      -0.00333927       0.00165444      -5.73256904
Ni      22.70333692      15.96108823      28.29900564       0.60000000       0.01268232      -0.00749814      -0.00018973      -5.73273498
Ni      21.03299030      14.07383616      31.77275941       0.60000000       0.00626198      -0.00465560      -0.00287497      -5.73168904
Ni      21.02535466      15.81272009      33.55522202       0.60000000       0.00821641      -0.00642155      -0.00546407      -5.73172289
Ni      22.82584761      14.08815085      33.48764153       0.60000000       0.00694585      -0.00242720      -0.00479074      -5.73084593
Ni      22.77111450      15.86539308      31.77249021       0.60000000       0.00565459      -0.00231429      -0.00059422      -5.73229730
Ni      21.02799145      17.56036443       0.12884496       0.60000000       0.00575526      -0.00456352      -0.00449386      -5.73198581
Ni      21.04489208      19.33996963       1.87504465       0.60000000       0.00340736      -0.00368092      -0.00313664      -5.73152530
Ni      22.82931198      17.57789596       1.84061181       0.60000000       0.00410868      -0.00004707      -0.00232275      -5.73149490
Ni      22.77482852      19.33294016       0.11688705       0.60000000       0.00861106      -0.00475666      -0.00087417      -5.73445302
Ni      21.08408633      17.57881862       3.61152692       0.60000000       0.00321522      -0.00089283      -0.00434366      -5.73106354
Ni      21.10137407      19.35146405       5.37709152       0.60000000       0.00118541       0.00129434      -0.00634826      -5.73053730
Ni      22.86853261      17.58116960       5.34206210       0.60000000       0.00283301       0.00020039      -0.00477589      -5.73036355
Ni      22.83904586      19.34853812       3.59509742       0.60000000       0.00215785       0.00029486      -0.00195780      -5.73055619
Ni      21.12460712      17.57817567       7.12361611       0.60000000       0.00215160       0.00471727      -0.00833051      -5.72992611
Ni      21.14334550      19.32814387       8.92390272       0.60000000       0.00145418       0.01271494      -0.01319771      -5.72946888
Ni      22.91573024      17.55811533       8.85574856       0.60000000       0.00313708       0.00295610      -0.00787394      -5.72967964
Ni      22.87774680      19.33779770       7.12290937       0.60000000       0.00531908       0.00285366      -0.00746371      -5.73023146
Ni      21.18211928      17.54340807      10.64768317       0.60000000       0.00486666       0.00040088      -0.00879092      -5.72709262
Ni      19.41211827      19.33770806      10.74250991       0.60000000       0.03235436      -0.02051307      -0.02452896      -5.71901095
Ni      23.02114458      17.47890951      12.35980618       0.60000000      -0.00719143       0.01629693      -0.01061265      -5.72999561
Ni      22.93682383      19.28420872      10.67128055       0.60000000       0.00481372       0.01360994      -0.01673078      -5.72872293
Ni      19.49422490      17.47972645      12.46730178       0.60000000      -0.00032517       0.04244267      -0.00052020      -5.71985370
Ni      19.57941018      19.10046562      14.44548268       0.60000000       0.01236038       0.06608242      -0.07228622      -5.66970956
Ni      21.35704410      17.39292919      14.17255555       0.60000000      -0.01333320       0.03128517      -0.01862097      -5.74444669
Ni      21.22549094      19.22421861      12.51257895       0.60000000       0.00893496       0.03210687      -0.03245767      -5.72630489
Ni      19.79705057      17.20798987      16.04108763       0.60000000      -0.09765581       0.10167145      -0.07146053      -5.64705646
Ni      20.00470678      18.78258805      18.07187655       0.60000000      -0.06391948       0.11293262      -0.08101183      -5.65994287
Ni      21.61238220      17.10194226      17.72009551       0.60000000      -0.11513630       0.00985102      -0.02825032      -5.65700316
Ni      21.47344170      19.01031399      16.10501764       0.60000000      -0.02886541       0.05218898      -0.04358403      -5.73727971
Ni      20.70073738      16.41010116      19.78112675       0.60000000       0.13033468      -0.07250342       0.01003906      -5.65951979
Ni      20.62431773      18.10169155      21.64119284       0.60000000       0.05986726      -0.03647655      -0.02626414      -5.70057291
Ni      22.50044565      16.37483621      21.47955581       0.60000000       0.07313103      -0.04373588       0.01940944      -5.62815219
Ni      21.90180646      18.69097502      19.72897997       0.60000000      -0.04341713       0.02673560      -0.06955678      -5.60423636
Ni      20.80422673      16.13257744      23.16841614       0.60000000       0.03379983      -0.02154758      -0.01456955      -5.72580385
Ni      20.79298091      17.82963018      24.99988505       0.60000000       0.01187863      -0.01443796      -0.02391499      -5.73643827
Ni      22.62133451      16.13826551      24.83884698       0.60000000       0.02375924      -0.01553755      -0.00916396      -5.72577268
Ni      22.46739276      18.11668570      23.26135862       0.60000000       0.03791031      -0.02383300      -0.01134269      -5.69893610
Ni      20.87963655      17.67101087      28.41007878       0.60000000       0.01042078      -0.00276664      -0.01011181      -5.72986847
Ni      20.85545608      19.38817726      30.19290869       0.60000000       0.01047389       0.00089791      -0.00360950      -5.73282558
Ni      22.68513297      17.67535791      30.09475341       0.60000000       0.00902930      -0.00455634      -0.00243828      -5.73363286
Ni      22.60143546      17.84911426      26.68099570       0.60000000       0.00896026      -0.01435240      -0.01148931      -5.72581393
Ni      20.95472336      17.57889894      31.85266080       0.60000000       0.00931019       0.00039860      -0.00413880      -5.73304313
Ni      20.95537310      19.31394572      33.62244487       0.60000000       0.00825395      -0.00249121      -0.00168711      -5.73758471
Ni      22.76904496      17.59337749      33.54992034       0.60000000       0.00838399      -0.00390273      -0.00214232      -5.73207337
Ni      22.68044416      19.38620579      31.86621112       0.60000000       0.00697405       0.00013135      -0.00440563      -5.73998475
Ni      20.97960189      21.10615825       0.13443322       0.60000000       0.00554900      -0.00558841       0.00656637      -5.74817854
Ni      21.06029782      22.90258122       1.83325708       0.60000000      -0.00400858       0.00034128      -0.00349592      -5.73446178
Ni      22.79391898      21.11750975       1.83674740       0.60000000       0.00798858      -0.00274580       0.00068222      -5.73543531
Ni      22.72093314      22.88807289       0.05736297       0.60000000       0.00777500      -0.00513290       0.01272788      -5.66184032
Ni      21.07810994      21.12121138       3.61718363       0.60000000      -0.00101026      -0.00119189      -0.01043548      -5.73097527
Ni      21.11106038      22.87720612       5.38207807       0.60000000       0.00357419       0.00198582      -0.01337001      -5.73139298
Ni      22.85834267      21.10868313       5.36214832       0.60000000      -0.00212926       0.00065699      -0.00479780      -5.73063701
Ni      22.83769984      22.87665550       3.58363808       0.60000000       0.00474526       0.00086269      -0.00485704      -5.73105502
Ni      21.12376242      21.11089380       7.16030885       0.60000000       0.00000235      -0.00581993      -0.00344921      -5.73051018
Ni      21.14675940      22.85180919       8.97597815       0.60000000      -0.00086088      -0.00416520      -0.01276524      -5.72671801
Ni      22.89060480      21.07610830       8.92557845       0.60000000       0.01019429       0.00536450      -0.01074456      -5.72946811
Ni      22.87741744      22.85268695       7.15114207       0.60000000      -0.01094749       0.00349640      -0.00542272      -5.72947788
Ni      21.18317866      21.04168382      10.76031360       0.60000000      -0.00314982       0.01820244      -0.01729342      -5.72892118
Ni      19.48123369      22.83051810      10.84319140       0.60000000      -0.03307640       0.00990891      -0.04908228      -5.68563151
Ni      22.96980786      20.97378539      12.52198362       0.60000000       0.00819298       0.02936208      -0.02330504      -5.72606987
Ni      22.91389959      22.79625084      10.74844695       0.60000000       0.00449052       0.01747493      -0.01488245      -5.72704095
Ni      19.52750847      20.99508944      12.63969257       0.60000000       0.00599915       0.02285595      -0.00198955      -5.66972113
Ni      19.72907893      22.69459381      14.56808178       0.60000000      -0.04366304      -0.00610876      -0.02232076      -5.69302720
Ni      21.29859697      20.86259637      14.41948571       0.60000000       0.03548985       0.04390011      -0.04239210      -5.71128380
Ni      21.26154856      22.73608725      12.62050589       0.60000000      -0.01079999       0.03611165      -0.02439111      -5.70785469
Ni      19.77482283      20.70346920      16.41219071       0.60000000       0.01293411       0.13271791      -0.07757477      -5.65840006
Ni      19.72404029      21.90329022      18.69242907       0.60000000      -0.06963427      -0.04443415       0.02856170      -5.60391504
Ni      21.63707063      20.62798927      18.10411080       0.60000000      -0.02780200       0.05898195      -0.03711203      -5.70072818
Ni      21.47562474      22.50244839      16.37580495       0.60000000       0.01768880       0.07604142      -0.04520075      -5.62683880
Ni      20.19162344      20.19508846      20.19889557       0.60000000       0.01475921       0.01305127       0.01681451      -5.70013380
Ni      20.13007525      21.73120543      22.22164598       0.60000000      -0.02664351      -0.02145735       0.04406682      -5.65641236
Ni      22.21712591      20.13258217      21.73410288       0.60000000       0.04007683      -0.02780475      -0.02194464      -5.65643799
Ni      21.73068940      22.21852389      20.13420593       0.60000000      -0.02219499       0.04243675      -0.02761437      -5.65624124
Ni      20.60983049      19.75528817      23.48186071       0.60000000       0.02744564      -0.03592768      -0.03143296      -5.66993332
Ni      20.58499880      21.43025031      25.31013559       0.60000000       0.01166455      -0.02175513      -0.03594822      -5.64826918
Ni      22.45609347      19.79564474      25.13901805       0.60000000       0.01818953      -0.02235226      -0.01509021      -5.72369641
Ni      22.22896390      21.74381164      23.64286713       0.60000000       0.03140612      -0.03275447      -0.01707232      -5.69152093
Ni      20.76226729      19.53852595      26.82512578       0.60000000       0.00708629      -0.01398813      -0.02572720      -5.73042935
Ni      20.73180506      21.26536890      28.62887487       0.60000000       0.00508094      -0.01251928      -0.02414936      -5.72704649
Ni      22.57539423      19.56725289      28.50380023       0.60000000       0.00010037      -0.01382505      -0.01326215      -5.72040999
Ni      22.43891844      21.51969420      27.00284196       0.60000000       0.00941447      -0.01127313      -0.01434765      -5.71224743
Ni      20.85476845      21.10420276      31.96198214       0.60000000       0.00918763       0.00094094      -0.00321593      -5.76068968
Ni      20.83764483      22.88444306      33.60171080       0.60000000       0.01866224      -0.00739580       0.01397933      -5.48690516
Ni      22.68617431      21.10175538      33.61958669       0.60000000       0.00587148      -0.00211676       0.00198566      -5.76682937
Ni      22.56069483      21.29328118      30.30250200       0.60000000       0.00225701      -0.00975751      -0.01139949      -5.73604697
Ni      21.13276648      24.71088517      -0.06750408       0.60000000       0.00118282      -0.00124838       0.00362089      -5.53145128
Ni      21.16370771      26.38466962       1.71357574       0.60000000      -0.00474154       0.00297224      -0.00178111      -5.73590386
Ni      22.85231938      24.64812367       1.74066386       0.60000000      -0.00049973      -0.00063505       0.00296400      -5.74614024
Ni      22.98888631      26.31601527      -0.19982561       0.60000000      -0.00057770      -0.00216253      -0.00001716      -5.50814509
Ni      21.12157683      24.64318196       3.57123009       0.60000000      -0.00299811       0.00254430      -0.00468833      -5.73146176
Ni      21.14848540      26.37937273       5.33803492       0.60000000      -0.00280199       0.00372479      -0.00714633      -5.73015660
Ni      22.87086323      24.61591828       5.35320928       0.60000000       0.00360938       0.00540396      -0.00830563      -5.73001611
Ni      22.89086598      26.36658437       3.51849700       0.60000000      -0.00016211       0.00315004      -0.00227292      -5.73154026
Ni      21.13740265      24.61859739       7.16834668       0.60000000      -0.00317023       0.00643349      -0.01321084      -5.72898138
Ni      21.16654176      26.36816925       8.94615305       0.60000000      -0.00124785       0.00283676      -0.01245857      -5.72192872
Ni      22.89517867      24.59117605       8.94988721       0.60000000      -0.00773942       0.00058307      -0.01023971      -5.72780955
Ni      22.89056791      26.35684055       7.12786655       0.60000000       0.00083398       0.00751423      -0.00654536      -5.72935355
Ni      21.19124707      24.58701500      10.78877273       0.60000000      -0.01359726       0.00682998      -0.01152332      -5.71073049
Ni      19.48681686      26.37053892      10.77596640       0.60000000      -0.01320642       0.02028969      -0.02919550      -5.67829359
Ni      22.94901636      24.52997554      12.56839535       0.60000000      -0.00157861       0.01976528       0.00082271      -5.71401793
Ni      22.92227415      26.34433188      10.73864527       0.60000000      -0.00687211       0.00276359      -0.01736936      -5.72443014
Ni      19.61372279      24.53865598      12.71433508       0.60000000      -0.04008057       0.01201428      -0.03479434      -5.68648571
Ni      19.32035580      25.02693544      15.38236667       0.60000000       0.01980054       0.01261516       0.08450750      -5.54022491
Ni      21.43519202      24.47788333      14.48606138       0.60000000      -0.04452688       0.02299898      -0.02497568      -5.62387329
Ni      21.29176033      26.36187623      12.58508215       0.60000000      -0.02401141       0.01472949      -0.02382760      -5.64504325
Ni      19.42871379      23.45509651      17.04211165       0.60000000      -0.02865125      -0.09076361      -0.00590492      -5.52555037
Ni      19.44906472      25.09700219      18.92917237       0.60000000      -0.02190271      -0.05535199      -0.00058760      -5.63443345
Ni      21.53415934      24.14552896      18.31889454       0.60000000      -0.00322235       0.04600058      -0.03682755      -5.59044528
Ni      21.47949718      26.10880550      16.39311545       0.60000000      -0.01422495       0.02762183      -0.02444348      -5.56815618
Ni      19.75456212      23.47838037      20.61468501       0.60000000      -0.03851727      -0.03266690       0.02826616      -5.66927689
Ni      19.79440236      25.13553621      22.46043154       0.60000000      -0.02154715      -0.01434316       0.02002516      -5.72335875
Ni      21.74271220      23.63899304      22.23319182       0.60000000      -0.03104924      -0.01741016       0.03019661      -5.69113815
Ni      21.43042423      25.30638399      20.58988152       0.60000000      -0.02409943      -0.03539257       0.01135136      -5.64783239
Ni      20.07305931      23.40296144      24.11072360       0.60000000      -0.02974037      -0.00069345       0.03773680      -5.66842222
Ni      20.03598272      25.09949103      25.91872254       0.60000000      -0.01428046       0.00482601       0.02522140      -5.67028868
Ni      22.20178713      23.44069650      25.52340452       0.60000000       0.01335180      -0.02010047      -0.01176335      -5.67270690
Ni      21.78860257      25.29928199      24.09426516       0.60000000      -0.01076367      -0.00812212       0.02088283      -5.70529020
Ni      20.56166534      23.15817193      27.15201320       0.60000000       0.01079638      -0.01412357      -0.02128730      -5.62017840
Ni      20.22949954      24.88958760      29.21834128       0.60000000      -0.00087222      -0.00671278      -0.01508085      -5.55563617
Ni      22.41958462      23.27625082      28.88085014       0.60000000       0.00784050      -0.00225243      -0.00590919      -5.66128522
Ni      22.04636050      25.15917631      27.47594196       0.60000000       0.00054172      -0.00338655      -0.00333336      -5.68249667
Ni      20.74008829      22.96641002      30.45548934       0.60000000      -0.00502795      -0.01516371      -0.02765302      -5.46937984
Ni      19.73645138      24.98792976      33.14226215       0.60000000      -0.00702519      -0.01662087       0.01518273      -5.51396698
Ni      22.58548260      22.98893917      32.11329841       0.60000000      -0.00263225      -0.01104721      -0.01634727      -5.44101602
Ni      22.16290750      24.99595100      30.96571260       0.60000000       0.00800396      -0.00740763      -0.01269343      -5.54252088
Ni      21.26139193      27.99892426      -0.18594817       0.60000000       0.00716094       0.00499386      -0.00967084      -5.64894724
Ni      21.21475738      29.80260215       1.62901851       0.60000000       0.00152317       0.00048101       0.00135715      -5.73138785
Ni      22.94351433      28.05890997       1.63462692       0.60000000      -0.00078572       0.00156364       0.00063573      -5.74671865
Ni      23.01412368      29.75437886      -0.17076716       0.60000000       0.00552942       0.00543048      -0.00223783      -5.65679443
Ni      21.17244539      28.11596733       3.49209542       0.60000000      -0.00213577       0.00520625      -0.00114793      -5.72972745
Ni      21.18061151      29.87296428       5.25695062       0.60000000      -0.00502681       0.00467761       0.00299830      -5.72996235
Ni      22.90746343      28.10902717       5.28842294       0.60000000      -0.00425560       0.00572714      -0.00041810      -5.72949761
Ni      22.93005676      29.83021547       3.43762115       0.60000000       0.00028372       0.00357014      -0.00000869      -5.72721267
Ni      21.16876635      28.13132112       7.09627732       0.60000000      -0.00463165       0.00440870      -0.00253669      -5.72813505
Ni      21.19332835      29.91012947       8.83696721       0.60000000      -0.00523498      -0.00417305       0.00391557      -5.72163498
Ni      22.90825453      28.11521644       8.89118146       0.60000000       0.00216272       0.00507422      -0.00406766      -5.72917372
Ni      22.92071748      29.87092188       7.04967167       0.60000000      -0.00799944       0.00300227       0.00374215      -5.73092920
Ni      21.22041631      28.15003392      10.70654142       0.60000000      -0.00219549       0.00408120      -0.01841173      -5.69131136
Ni      19.35336233      28.37738077      12.20251155       0.60000000       0.01958424      -0.02211778       0.02539127      -5.62662435
Ni      22.97585942      28.09016647      12.56619965       0.60000000      -0.01224559       0.00705647      -0.02028554      -5.67887604
Ni      22.91798813      29.89022514      10.65536182       0.60000000       0.00698431      -0.00177039      -0.00181489      -5.71025240
Ni      19.30721435      26.72872943      13.83831043       0.60000000       0.00440127      -0.02595836       0.03020668      -5.56142229
Ni      19.25755121      28.43857429      15.57014538       0.60000000      -0.00318084      -0.01407509       0.01594389      -5.66451764
Ni      21.36978459      27.99459762      14.49853118       0.60000000      -0.01709455       0.01100970      -0.02098681      -5.60431832
Ni      21.28653698      29.85774323      12.53483842       0.60000000      -0.02114811       0.01894949      -0.02542691      -5.63607252
Ni      19.32052905      26.71095099      17.20730336       0.60000000      -0.00864905       0.00586556       0.03989162      -5.64998680
Ni      19.37965766      28.48858063      19.04131629       0.60000000      -0.00191003      -0.00912080       0.01416866      -5.73485464
Ni      21.15257058      26.84700509      18.86677099       0.60000000      -0.01502560      -0.04105865       0.01071062      -5.65185785
Ni      21.05782697      28.47344094      17.17904795       0.60000000      -0.00149197      -0.00567660       0.02406820      -5.69630080
Ni      19.53633981      26.81918927      20.76566299       0.60000000      -0.01353068      -0.02457532       0.00822255      -5.73031616
Ni      19.56611137      28.50077279      22.57815298       0.60000000      -0.01258884      -0.01502615       0.00299000      -5.72033858
Ni      21.51930742      26.99974898      22.44413894       0.60000000      -0.01121686      -0.01396710       0.00959634      -5.71173924
Ni      21.26148000      28.62210530      20.73509036       0.60000000      -0.00993576      -0.02170843       0.00629233      -5.72703147
Ni      19.80478170      26.80777931      24.26266013       0.60000000      -0.01266667      -0.00457440       0.01528812      -5.70760775
Ni      19.77961698      28.43941824      26.08145685       0.60000000      -0.00583844       0.00050253       0.00812212      -5.70195448
Ni      21.80911966      26.95830667      25.92368614       0.60000000      -0.00428608       0.00290382       0.01249185      -5.69628632
Ni      21.55757078      28.66289273      24.26893741       0.60000000      -0.00446490      -0.00342315       0.00696628      -5.69915545
Ni      20.00381072      26.73071710      27.73473070       0.60000000      -0.01032004       0.00291289       0.01293004      -5.69465375
Ni      19.88044445      28.25124980      29.63712399       0.60000000      -0.01420197      -0.01099330       0.02447083      -5.68456328
Ni      21.95676611      26.77036003      29.37146782       0.60000000       0.00122617      -0.00247334       0.00408992      -5.69506407
Ni      21.75968449      28.56511610      27.78461775       0.60000000       0.00580050      -0.00235460       0.00550275      -5.69456482
Ni      20.05383050      26.35737730      31.17317572       0.60000000      -0.00481870      -0.03530435       0.00138515      -5.56311619
Ni      19.69837631      27.84347788      33.16085277       0.60000000       0.02409222      -0.00330146      -0.01317028      -5.65861136
Ni      21.79489503      26.41264119      32.95642813       0.60000000      -0.00503908      -0.04140832      -0.00111288      -5.45003343
Ni      21.74170535      28.25443790      31.32167290       0.60000000      -0.01610348      -0.02359711       0.01781178      -5.65716398
Ni      21.24951042      31.52566472      -0.16210162       0.60000000       0.00300773       0.00566580      -0.00012355      -5.75232768
Ni      21.21080543      33.31812506       1.62383457       0.60000000      -0.00332976       0.00203170       0.00512859      -5.73386413
Ni      22.95775709      31.54908674       1.61834039       0.60000000      -0.00004451       0.00283064       0.00431337      -5.75433308
Ni      22.98578448      33.30836445      -0.15820452       0.60000000      -0.00269015       0.00564606       0.00847623      -5.61717892
Ni      21.19385020      31.59117478       3.42558975       0.60000000      -0.00397136       0.00010774       0.00336837      -5.72689706
Ni      21.18867171      33.38056988       5.19929189       0.60000000      -0.00865158      -0.00104183       0.00651074      -5.72873461
Ni      22.93019061      31.60597031       5.21975827       0.60000000      -0.00399223       0.00318133       0.00550423      -5.72931981
Ni      22.93847841      33.33674455       3.41266595       0.60000000      -0.00453406       0.00158086       0.00503945      -5.73083538
Ni      21.18871227      31.65241729       7.00983605       0.60000000      -0.00696763       0.00184499       0.00802775      -5.72957271
Ni      21.18966249      33.44223356       8.76209656       0.60000000      -0.00328715      -0.00432426       0.01128824      -5.72584969
Ni      22.92900638      31.64945023       8.80719847       0.60000000      -0.00385433       0.00000209       0.00794952      -5.72820884
Ni      22.93329910      33.39197210       6.98991743       0.60000000      -0.00714022       0.00043924       0.00598920      -5.72913247
Ni      21.19946115      31.69106895      10.58251745       0.60000000      -0.00519133      -0.00473981       0.00414615      -5.70271921
Ni      21.15139087      33.56071836      12.22041138       0.60000000      -0.00168321      -0.00798711       0.01189611      -5.72651410
Ni      22.93729462      31.68539936      12.37738855       0.60000000       0.00355672      -0.00693513       0.00155738      -5.69352502
Ni      22.93869737      33.44545936      10.54961669       0.60000000      -0.00180681      -0.00248310       0.00792513      -5.72654766
Ni      21.09812588      31.88167614      13.93477306       0.60000000       0.00771013      -0.01643218       0.01326874      -5.69258952
Ni      21.09702830      33.65432763      15.69246729       0.60000000       0.00471631      -0.01134346       0.00377599      -5.74288988
Ni      21.04091794      30.18961298      15.57935231       0.60000000       0.00245550      -0.00924413       0.02491888      -5.67651176
Ni      22.91012481      33.58231863      13.98411089       0.60000000       0.00616052      -0.01464503       0.01113057      -5.72262567
Ni      21.07039047      31.94397479      17.36352849       0.60000000      -0.00353821      -0.00201296       0.01592128      -5.75617212
Ni      21.09244385      33.64822303      19.16519971       0.60000000      -0.00387716       0.00074540       0.00813993      -5.75676268
Ni      21.11538386      30.26503637      19.03396877       0.60000000      -0.00352896      -0.01160831       0.01296115      -5.74681020
Ni      22.88297132      33.63756608      17.44993150       0.60000000       0.00449920      -0.00824211       0.00625239      -5.59919161
Ni      21.10539942      31.96119197      20.85989894       0.60000000      -0.00170698      -0.00429035       0.00792697      -5.76165271
Ni      21.10205973      33.61933978      22.69020407       0.60000000      -0.00161362       0.00038446       0.00512728      -5.76731092
Ni      21.29243449      30.29894399      22.56396876       0.60000000      -0.01030825      -0.01255443      -0.00021792      -5.73560941
Ni      22.88407834      33.60478904      20.84312309       0.60000000      -0.00942776       0.01043161       0.01759522      -5.48693943
Ni      21.23549952      31.88782196      24.40380083       0.60000000      -0.00228870      -0.00907059      -0.00076859      -5.74707669
Ni      21.19410672      33.50161857      26.26420370       0.60000000       0.00345581      -0.01166344       0.00473427      -5.77391785
Ni      21.53391200      30.25724573      26.11049637       0.60000000      -0.00009000      -0.00168276       0.00689926      -5.69839483
Ni      22.86771038      33.61135108      24.43188980       0.60000000      -0.00284036      -0.00754281      -0.00460577      -5.51654786
Ni      21.37038208      31.75146172      27.98737549       0.60000000       0.00165240      -0.00720385       0.01451936      -5.72373247
Ni      21.29043990      33.34518981      29.85295106       0.60000000       0.00196696       0.00387879       0.00316486      -5.75494653
Ni      21.65113210      30.07589325      29.68764649       0.60000000      -0.00911471      -0.01347456       0.01871167      -5.67880785
Ni      22.95895766      33.51318477      28.01208079       0.60000000       0.00409355      -0.01249665       0.01339283      -5.51927483
Ni      21.36462274      31.55867887      31.55655031       0.60000000       0.00103369       0.00961656       0.00236228      -5.73159659
Ni      21.25632338      33.29510553      33.31733409       0.60000000      -0.00013166       0.00700042       0.00385709      -5.75437832
Ni      21.39357622      29.73685836      33.23898288       0.60000000       0.00820062       0.01207256      -0.00393461      -5.67846829
Ni      23.07917898      33.30068221      31.65534954       0.60000000       0.00103107       0.01399314       0.00188364      -5.46167082
Ni      24.67136882      -0.13831089      -0.13913045       0.60000000      -0.00023370       0.00652756       0.00827181      -5.61683232
Ni      24.67320214       1.64603156       1.63762922       0.60000000      -0.00322816       0.00457080       0.00561834      -5.73882574
Ni      26.40740145      -0.14447921       1.61463998       0.60000000      -0.00360833       0.00309447       0.00329251      -5.75371414
Ni      26.40261664       1.62045885      -0.14252793       0.60000000       0.00060788       0.00272458       0.00393821      -5.75156444
Ni      24.67688566      -0.10947423       3.40977064       0.60000000      -0.00627597       0.00315520       0.00496352      -5.73241836
Ni      24.67866981       1.67768956       5.18629543       0.60000000      -0.00537274       0.00279215       0.00714753      -5.73074967
Ni      26.41461689      -0.10238341       5.19078014       0.60000000      -0.00375680       0.00355526       0.00367606      -5.73014963
Ni      26.41481262       1.65043855       3.40670783       0.60000000      -0.00538120       0.00294867       0.00359506      -5.73117709
Ni      24.67930641      -0.06308740       6.97607088       0.60000000      -0.00788496       0.00020415       0.00573089      -5.72988641
Ni      24.68725056       1.72702688       8.74260376       0.60000000      -0.00609807      -0.00137885       0.00529707      -5.73000360
Ni      26.42157429      -0.05940229       8.76438682       0.60000000      -0.00463585       0.00101080       0.00021968      -5.73027480
Ni      26.42757332       1.68224522       6.96585460       0.60000000      -0.00680957       0.00227151       0.00319232      -5.73085898
Ni      24.68556294      -0.00850612      10.53384922       0.60000000      -0.00121109      -0.00201833       0.00561450      -5.72898299
Ni      24.69287784       1.78475572      12.29965511       0.60000000      -0.00320995      -0.00195915       0.00300155      -5.72751629
Ni      26.42609163      -0.02080454      12.32658856       0.60000000      -0.00010513       0.00251907      -0.00034510      -5.73001814
Ni      26.43542182       1.72649512      10.53425033       0.60000000      -0.00325351       0.00189640      -0.00082355      -5.72990245
Ni      24.69435915       0.03493262      14.07818594       0.60000000       0.00256177      -0.00829558       0.00356413      -5.72715467
Ni      24.68703961       1.80838032      15.85044706       0.60000000      -0.00095575      -0.00586084      -0.00321442      -5.72797054
Ni      26.41749390      -0.00934339      15.88135275       0.60000000       0.00348287      -0.00375495       0.00123075      -5.74213505
Ni      26.43396009       1.76611099      14.09883405       0.60000000      -0.00102418      -0.00123841      -0.00381145      -5.72944635
Ni      24.67897082       0.02568776      17.61608633       0.60000000       0.00313402      -0.00471596       0.00193718      -5.68088740
Ni      24.67438871       1.78224638      19.38047805       0.60000000       0.00168282      -0.00242587      -0.00335960      -5.73258388
Ni      26.37987515      -0.04946978      19.40249508       0.60000000       0.00394914      -0.00353972       0.00946684      -5.66309839
Ni      26.41423737       1.76392584      17.64474221       0.60000000       0.00317852       0.00040222      -0.00379982      -5.74079520
Ni      24.71017588      -0.06489479      21.13175338       0.60000000      -0.00147239      -0.00161394       0.00397276      -5.53622007
Ni      24.64754460       1.74012008      22.85404458       0.60000000       0.00195521       0.00234811       0.00104022      -5.74657267
Ni      26.31273380      -0.20062827      22.98824647       0.60000000       0.00282814      -0.00244796       0.00447902      -5.51382780
Ni      26.38727243       1.71189144      21.16551768       0.60000000      -0.00007347      -0.00042990      -0.00347536      -5.73558003
Ni      24.58141663      -0.00801833      24.56649618       0.60000000      -0.00452448      -0.00150012      -0.00272116      -5.50776273
Ni      24.61245479       1.71624351      26.34577020       0.60000000      -0.00426927      -0.00335971      -0.00047016      -5.76556456
Ni      26.20167456      -0.25406721      26.31971177       0.60000000      -0.01102432      -0.00107159      -0.00511080      -5.42504925
Ni      26.34570481       1.67259757      24.64715007       0.60000000      -0.00229159      -0.00047864      -0.00051193      -5.76716214
Ni      24.62060367      -0.07039230      28.06719873       0.60000000      -0.00573121      -0.00039662       0.00358841      -5.50380355
Ni      24.64374063       1.63835743      29.85118862       0.60000000       0.00262467      -0.00086674      -0.00044854      -5.76144159
Ni      26.24270818      -0.34740400      29.79760518       0.60000000      -0.00502464       0.00162290      -0.00181480      -5.49276805
Ni      26.33959202       1.60396498      28.08792564       0.60000000      -0.00379341      -0.00151624      -0.00348082      -5.74855405
Ni      24.67177444      -0.15751158      31.59977740       0.60000000      -0.00008539       0.00127627      -0.00043694      -5.47358865
Ni      24.67195241       1.62463063      33.32536448       0.60000000      -0.00257652       0.00423342       0.00526531      -5.75854683
Ni      26.36830693      -0.23843662      33.28139348       0.60000000       0.00069609       0.00634459       0.00342959      -5.48324615
Ni      26.37847202       1.57520185      31.55158994       0.60000000       0.00397364       0.00430094       0.00070693      -5.75238448
Ni      24.66225359       3.43208246      -0.10535879       0.60000000      -0.00359577       0.00038066       0.00615605      -5.73238003
Ni      24.66132818       5.21072907       1.66726711       0.60000000      -0.00045194       0.00326891       0.00351214      -5.73107314
Ni      26.40786276       3.42009163       1.64300911       0.60000000      -0.00132259       0.00265899       0.00403023      -5.73090959
Ni      26.39510661       5.21081380      -0.10421817       0.60000000       0.00055231      -0.00175564       0.00274276      -5.73028058
Ni      24.67306853       3.43373853       3.41662693       0.60000000      -0.00471460       0.00363090       0.00514689      -5.73075312
Ni      24.67815641       5.20858536       5.18641405       0.60000000      -0.00232687       0.00286742       0.00493865      -5.73200166
Ni      26.42611619       3.43161235       5.18207637       0.60000000      -0.00378677       0.00328899       0.00295194      -5.73171729
Ni      26.41824498       5.19990552       3.41708708       0.60000000      -0.00206343       0.00250705       0.00463705      -5.73153853
Ni      24.68531027       3.45887821       6.95569827       0.60000000      -0.00655641       0.00222575       0.00663295      -5.73148310
Ni      24.69393832       5.22712285       8.72380162       0.60000000      -0.00642980       0.00459933       0.00554655      -5.73183042
Ni      26.44230834       3.45927778       8.73741353       0.60000000      -0.00783420       0.00202744       0.00197103      -5.73124444
Ni      26.44150072       5.20171913       6.95127384       0.60000000      -0.00545458       0.00450019       0.00446394      -5.73232108
Ni      24.69397704       3.50954607      10.51495201       0.60000000      -0.00633671      -0.00062726       0.00343668      -5.72912681
Ni      24.69781908       5.27807982      12.29599426       0.60000000      -0.00772613       0.00115205       0.00191055      -5.72708786
Ni      26.44607322       3.50624196      12.31225289       0.60000000      -0.00376563       0.00145890      -0.00341733      -5.72886932
Ni      26.45871628       5.22311871      10.50825296       0.60000000      -0.00921939       0.00466386       0.00212989      -5.73120421
Ni      24.68800525       3.56270479      14.08251324       0.60000000      -0.00056621      -0.00128539      -0.00393338      -5.72622484
Ni      24.67760431       5.34371189      15.86918777       0.60000000      -0.00130205      -0.00356966      -0.00009313      -5.72547483
Ni      26.43021331       3.54445230      15.87663395       0.60000000      -0.00237815      -0.00188028      -0.00487582      -5.72900981
Ni      26.45142551       5.27930621      14.09614771       0.60000000      -0.00458244       0.00085027      -0.00294005      -5.72732192
Ni      24.67067419       3.58116195      17.62312669       0.60000000       0.00200490      -0.00373367      -0.00459420      -5.72883105
Ni      24.64697875       5.36687654      19.38661087       0.60000000       0.00421689      -0.00918508      -0.00097819      -5.73078495
Ni      26.40106931       3.54084881      19.40466785       0.60000000       0.00541583      -0.00394243      -0.00365883      -5.73256093
Ni      26.41632177       5.32993814      17.65383476       0.60000000       0.00387676      -0.00522035      -0.00690779      -5.72749841
Ni      24.64398038       3.56949736      21.12315897       0.60000000      -0.00110772      -0.00445450      -0.00341561      -5.73126882
Ni      24.61552446       5.35211389      22.87194518       0.60000000       0.00557351      -0.00895868       0.00351543      -5.72988564
Ni      26.36690733       3.51771005      22.89213953       0.60000000       0.00193867      -0.00520428       0.00122199      -5.73148894
Ni      26.37846248       5.33688367      21.14944902       0.60000000       0.00646166      -0.00569212      -0.00342264      -5.73014015
Ni      24.61647868       3.53548355      24.60715864       0.60000000      -0.00142331      -0.00584690       0.00529664      -5.73357314
Ni      24.60511770       5.30176613      26.36827822       0.60000000       0.00314824       0.00215602      -0.00124600      -5.72924232
Ni      26.35071496       3.47526286      26.37155016       0.60000000      -0.00259975      -0.00117247      -0.00018818      -5.73301941
Ni      26.35237665       5.30688918      24.63082086       0.60000000       0.00717062      -0.00330680      -0.00058925      -5.72920525
Ni      24.61800601       3.48144056      28.11067858       0.60000000      -0.00012599       0.00235212       0.00094497      -5.73316067
Ni      24.61862834       5.26025106      29.86118815       0.60000000       0.00336852      -0.00076007       0.00478242      -5.72977036
Ni      26.36160370       3.42300209      29.83852355       0.60000000       0.00404359      -0.00126242       0.00143543      -5.72877884
Ni      26.35093943       5.26341104      28.11185858       0.60000000       0.00116563       0.00093619      -0.00031192      -5.72933751
Ni      24.64380237       3.44429378      31.59751629       0.60000000       0.00098385       0.00144227       0.00270286      -5.73397064
Ni      24.64325481       5.22945875      33.35886824       0.60000000       0.00171524      -0.00202956       0.00351615      -5.73022175
Ni      26.39060543       3.41218951      33.32111178       0.60000000       0.00094213       0.00002788       0.00423827      -5.73159063
Ni      26.36940024       5.23035884      31.59164873       0.60000000       0.00463439      -0.00335494       0.00402968      -5.72946918
Ni      24.64441048       7.00232743      -0.07106094       0.60000000       0.00215982      -0.00022074       0.00225390      -5.73117238
Ni      24.64846724       8.76699706       1.70078228       0.60000000       0.00366447       0.00027815       0.00373699      -5.73144156
Ni      26.40412944       6.98663092       1.66874208       0.60000000       0.00148915      -0.00033929       0.00414848      -5.73113310
Ni      26.38564132       8.78513802      -0.07317321       0.60000000       0.00437664      -0.00307048       0.00435354      -5.73103023
Ni      24.66601059       6.98094410       3.43759125       0.60000000      -0.00162298       0.00098557       0.00568473      -5.73164558
Ni      24.67492387       8.74111836       5.20734464       0.60000000      -0.00276455       0.00215113       0.00455699      -5.73190325
Ni      26.43232663       6.96719775       5.18682929       0.60000000      -0.00203804       0.00361153       0.00469705      -5.73201615
Ni      26.41644774       8.75170780       3.43981735       0.60000000       0.00010351       0.00020475       0.00596503      -5.73154771
Ni      24.68813283       6.97038502       6.95321841       0.60000000      -0.00512394       0.00556935       0.00507146      -5.73259151
Ni      24.70426819       8.71772800       8.71574892       0.60000000      -0.00637325       0.00845039       0.00791174      -5.73283350
Ni      26.46085782       6.95769263       8.71640989       0.60000000      -0.00683721       0.00665491       0.00654307      -5.73265940
Ni      26.45161513       8.72297538       6.95292066       0.60000000      -0.00589556       0.00316650       0.00641555      -5.73229420
Ni      24.70673318       6.97784287      10.49057050       0.60000000      -0.00900265       0.00498179       0.00365365      -5.73179269
Ni      24.73072577       8.71143552      12.24841438       0.60000000      -0.01048746       0.01168296       0.00885741      -5.73161936
Ni      26.47865216       6.97181977      12.27626960       0.60000000      -0.01145551       0.00562456       0.00372777      -5.73077941
Ni      26.48698717       8.69928848      10.47547428       0.60000000      -0.01043762       0.01101394       0.00952708      -5.73262477
Ni      24.70548446       7.04403521      14.08227547       0.60000000      -0.00900763       0.00223052       0.00188327      -5.72519690
Ni      26.45775247       7.05689319      15.88733769       0.60000000       0.00082794      -0.00815177      -0.01091545      -5.72035152
Ni      26.51226518       8.70507359      14.03733905       0.60000000      -0.01283946       0.01428034       0.00545966      -5.73156220
Ni      24.66121373       7.14432325      17.65558860       0.60000000       0.00722899      -0.01459330       0.00138145      -5.71955121
Ni      24.62584115       8.98764092      19.41478002       0.60000000       0.00082692      -0.01538174       0.01423480      -5.70325238
Ni      26.39067632       7.13930427      19.41514853       0.60000000       0.00546465      -0.01032908      -0.00591803      -5.72268564
Ni      24.73776933       8.80659041      15.87111566       0.60000000      -0.00254145      -0.00191569       0.00110229      -5.69010687
Ni      24.61676528       7.16832725      21.13676345       0.60000000       0.01017120      -0.01539034       0.00201000      -5.72885209
Ni      24.59098504       8.94799920      22.89598098       0.60000000      -0.00314742      -0.00467993      -0.00663461      -5.72763377
Ni      26.35585656       7.12673286      22.89101781       0.60000000       0.00685575      -0.00625076       0.00070154      -5.72933912
Ni      26.36753233       8.94544143      21.16737015       0.60000000       0.00393418      -0.01030932      -0.00144727      -5.72155863
Ni      24.59717204       7.12189970      24.62909950       0.60000000      -0.00171949      -0.00232290      -0.00903056      -5.72949880
Ni      24.57748545       8.89376199      26.37467796       0.60000000       0.00700818      -0.00464747       0.00857876      -5.72934020
Ni      26.34286323       7.08779804      26.37352735       0.60000000      -0.00003898      -0.00091699      -0.00485871      -5.72948307
Ni      26.33804470       8.90972589      24.63587300       0.60000000       0.00153980      -0.00722467      -0.00439052      -5.72835636
Ni      24.59707687       7.07554552      28.11784662       0.60000000       0.00596756      -0.00318040       0.00807338      -5.72988510
Ni      24.59692725       8.84399279      29.87701703       0.60000000       0.00702677      -0.00432084       0.00878946      -5.73016995
Ni      26.34990962       7.05052493      29.85445659       0.60000000       0.00484387      -0.00379818       0.00928104      -5.73021907
Ni      26.33229094       8.86937110      28.11086545       0.60000000       0.00650429      -0.00493248       0.00829146      -5.72936237
Ni      24.62089225       7.03504549      31.62058811       0.60000000       0.00131712      -0.00254522       0.00577085      -5.73079115
Ni      24.62469057       8.79986604      33.39037004       0.60000000       0.00193435      -0.00086761       0.00435392      -5.73110521
Ni      26.37594971       7.01491779      33.35631651       0.60000000       0.00551649      -0.00264436       0.00467561      -5.73059827
Ni      26.35500207       8.82574582      31.61242342       0.60000000       0.00736119      -0.00354260       0.00931783      -5.73040932
Ni      24.62920781      10.55781015      -0.03519522       0.60000000       0.00258781      -0.00086083       0.00275138      -5.73132080
Ni      24.63413000      12.31060478       1.74233475       0.60000000       0.00438678       0.00041990       0.00257109      -5.73117644
Ni      26.39622473      10.54529585       1.69975123       0.60000000       0.00567677      -0.00016499       0.00448421      -5.73132700
Ni      26.37572423      12.34152454      -0.04355682       0.60000000       0.00418453      -0.00007965       0.00242559      -5.73103738
Ni      24.65545443      10.52515091       3.47447040       0.60000000       0.00169691       0.00028073       0.00375799      -5.73137462
Ni      24.66539245      12.27813877       5.24858722       0.60000000       0.00304320       0.00153955       0.00203038      -5.73112011
Ni      26.43192629      10.50754140       5.21043472       0.60000000       0.00002385       0.00299961       0.00456379      -5.73171967
Ni      26.40817813      12.29916679       3.47548492       0.60000000       0.00460930       0.00191557       0.00018817      -5.73131460
Ni      24.68994349      10.49165375       6.97498720       0.60000000      -0.00481176       0.00604436       0.00233388      -5.73182529
Ni      24.71544506      12.23713002       8.73577528       0.60000000      -0.01149307       0.00673651       0.00354767      -5.73110843
Ni      26.47753791      10.46847932       8.71435614       0.60000000      -0.00982358       0.00569199       0.00465942      -5.73200977
Ni      26.45293971      12.25825164       6.97772987       0.60000000      -0.00342909       0.00355519       0.00414420      -5.73146451
Ni      24.73260591      10.45298532      10.47038040       0.60000000      -0.00846362       0.01429750       0.00834952      -5.73234761
Ni      24.78406445      12.18182926      12.21395954       0.60000000      -0.01221610       0.01365459       0.01362133      -5.73313648
Ni      26.52555620      10.43027008      12.22569490       0.60000000      -0.01272350       0.01672264       0.01060439      -5.73267460
Ni      26.51289161      12.20910774      10.46710075       0.60000000      -0.00956147       0.01027965       0.00799872      -5.73106432
Ni      24.78442064      10.42531670      13.99516371       0.60000000      -0.01340561       0.01968247       0.01208862      -5.73806167
Ni      23.06422355      12.15099390      13.97178779       0.60000000      -0.02364075       0.01770821       0.01808260      -5.74815601
Ni      26.55925571      10.43908090      15.78294874       0.60000000      -0.02283978       0.02162130       0.01111355      -5.70039487
Ni      26.57667440      12.16020686      13.96837348       0.60000000      -0.01877179       0.01553208       0.01839580      -5.73643464
Ni      23.05607838      10.50520815      15.83170028       0.60000000      -0.02120874       0.00389963       0.01456706      -5.64428055
Ni      24.56397534      10.86562888      17.76546900       0.60000000       0.01692681      -0.05023686      -0.01052374      -5.63583148
Ni      26.39798505       8.92758347      17.69155854       0.60000000      -0.01043237       0.00107539      -0.00714642      -5.68294597
Ni      24.85936041      12.14011267      15.71846719       0.60000000      -0.04064918       0.02575378       0.03315760      -5.68057162
Ni      24.58578516      10.78851505      21.19426428       0.60000000       0.00570756      -0.00833330      -0.01885099      -5.70977068
Ni      24.52493349      12.57146361      22.94684611       0.60000000       0.02358644      -0.00778344       0.00310482      -5.71350724
Ni      26.34314484      10.73863936      22.92417410       0.60000000       0.00325141      -0.01640367      -0.00884297      -5.72374266
Ni      26.36933020      10.77600169      19.48944047       0.60000000       0.02037212      -0.02861313      -0.01407257      -5.67708367
Ni      24.55147638      10.72286834      24.64198454       0.60000000       0.01294602      -0.00918104       0.01612177      -5.72660363
Ni      24.51888699      12.49163403      26.40094274       0.60000000       0.01805256      -0.00807533       0.00775273      -5.72488928
Ni      26.31263882      10.69390707      26.36737440       0.60000000       0.00951314      -0.00839889       0.00891135      -5.72655839
Ni      26.27470219      12.54278449      24.66366619       0.60000000       0.02237719      -0.01248067       0.00695104      -5.72176689
Ni      24.57031091      10.65895846      28.13234519       0.60000000       0.00620657      -0.00406803       0.00817947      -5.72896659
Ni      24.57053562      12.40653365      29.90933692       0.60000000       0.00632831      -0.00429563       0.00306547      -5.73020661
Ni      26.33259403      10.64117079      29.86409649       0.60000000       0.00864188      -0.00766957       0.00806090      -5.72922307
Ni      26.30193271      12.46659784      28.11318812       0.60000000       0.00861326      -0.00322458       0.01046122      -5.72541791
Ni      24.60107952      10.60139295      31.64901957       0.60000000       0.00546414      -0.00543240       0.00587192      -5.73071992
Ni      24.60582266      12.34974215      33.42658652       0.60000000       0.00465189      -0.00175412       0.00214083      -5.73094064
Ni      26.36541503      10.58819972      33.38154866       0.60000000       0.00454946      -0.00245028       0.00643297      -5.73083210
Ni      26.34230181      12.39675985      31.63292475       0.60000000       0.00623448      -0.00763286       0.00309260      -5.73001242
Ni      24.61000268      14.09415044       0.00643953       0.60000000       0.00658675      -0.00089502      -0.00056060      -5.73071778
Ni      24.61340718      15.83736179       1.78654327       0.60000000       0.00531495      -0.00021190      -0.00067895      -5.73099822
Ni      26.38484368      14.08920024       1.73517291       0.60000000       0.00557337       0.00115197       0.00029601      -5.73092580
Ni      26.36089856      15.87832094      -0.01219982       0.60000000       0.00535379      -0.00318437      -0.00077951      -5.72978503
Ni      24.63991815      14.06143847       3.52132950       0.60000000       0.00420340       0.00107401       0.00033845      -5.73103970
Ni      24.64704749      15.81573899       5.29689056       0.60000000       0.00294463       0.00030292       0.00164650      -5.73068988
Ni      26.42192793      14.05064448       5.24970815       0.60000000       0.00190006       0.00186238       0.00124674      -5.73120868
Ni      26.39310386      15.83546767       3.51449083       0.60000000       0.00298981       0.00300040       0.00044841      -5.73120463
Ni      24.68095169      14.03043673       7.01875252       0.60000000       0.00088844       0.00286041       0.00262276      -5.73057896
Ni      24.70275472      15.78329768       8.78708018       0.60000000      -0.00037761       0.00282185       0.00022107      -5.73038167
Ni      26.48064718      14.00872117       8.73932245       0.60000000      -0.00794320       0.00073593       0.00577622      -5.73104036
Ni      26.43605771      15.80431910       7.02066725       0.60000000       0.00402200       0.00076928       0.00352150      -5.73092872
Ni      24.75474207      13.98122382      10.48862177       0.60000000      -0.01548161       0.00516122       0.01096138      -5.73035634
Ni      24.79705935      15.71550481      12.26248752       0.60000000      -0.01616034       0.00866235       0.00651997      -5.73090214
Ni      26.55563958      13.94849276      12.22112661       0.60000000      -0.01516884       0.01106828       0.01120914      -5.73039168
Ni      26.50898801      15.75549980      10.50792131       0.60000000      -0.01143154       0.00222687       0.00259873      -5.73099798
Ni      24.84708302      13.90600939      13.96939042       0.60000000      -0.03162358       0.01091044       0.01458147      -5.73920804
Ni      23.10859895      15.65030010      14.03221288       0.60000000      -0.03233464       0.02107829       0.00544179      -5.74048138
Ni      26.64060156      13.87276616      15.72923271       0.60000000      -0.02600186       0.01040771      -0.00034667      -5.74359208
Ni      26.59778111      15.67398912      14.00034355       0.60000000      -0.01399816       0.01028811       0.00470696      -5.73075664
Ni      23.15218008      13.83271080      15.72415226       0.60000000      -0.03945685       0.04636600       0.01940175      -5.67922801
Ni      23.22491363      15.39569301      17.56514483       0.60000000       0.01969769       0.08163682      -0.00943061      -5.70708460
Ni      24.93292193      13.76447996      17.49806145       0.60000000      -0.00974804       0.05898105       0.01569615      -5.68580526
Ni      24.91182882      15.58175138      15.77900469       0.60000000      -0.01728152       0.03075121      -0.01686239      -5.74290544
Ni      24.53444620      12.71882931      19.61951233       0.60000000       0.01617673      -0.03760900      -0.04361918      -5.68630379
Ni      24.46984863      14.49226215      21.43872178       0.60000000       0.02791947      -0.02949248      -0.04827714      -5.62422609
Ni      26.36071502      12.58445541      21.29376858       0.60000000       0.01561113      -0.02272351      -0.02153078      -5.64422446
Ni      25.02354025      15.37930075      19.32088091       0.60000000       0.01870872       0.08387247       0.02161088      -5.54008758
Ni      24.43589503      14.37357214      24.69281379       0.60000000       0.02583421      -0.01522905       0.01666532      -5.72028649
Ni      24.41109079      16.10870417      26.52890961       0.60000000       0.01738509      -0.00584788      -0.00271578      -5.72474635
Ni      26.21437940      14.33048961      26.40913278       0.60000000       0.02303549      -0.00975569       0.00848803      -5.71824849
Ni      26.25457489      14.44271985      23.05004534       0.60000000       0.01235706      -0.01435643      -0.00498908      -5.65518337
Ni      24.50859268      14.22805432      28.19511435       0.60000000       0.00985011      -0.00420868      -0.00006217      -5.73068058
Ni      24.50400056      15.95268728      29.98641206       0.60000000       0.00971644      -0.00160976      -0.00009603      -5.73308611
Ni      26.31050316      14.21373802      29.88422369       0.60000000       0.00532324      -0.00425724       0.00781551      -5.72771794
Ni      26.21234199      16.07147965      28.20666329       0.60000000       0.01424133      -0.00455316      -0.00160037      -5.72472769
Ni      24.57253054      14.14381418      31.69069069       0.60000000       0.00832329      -0.00526884      -0.00000911      -5.73034710
Ni      24.57633954      15.87700776      33.47144833       0.60000000       0.00709430      -0.00481367      -0.00359634      -5.72945160
Ni      26.35235591      14.14066023      33.40814607       0.60000000       0.00677195      -0.00380154      -0.00023518      -5.73002833
Ni      26.31944085      15.94647885      31.66064030       0.60000000       0.00845628       0.00001406       0.00118139      -5.72812253
Ni      24.57848563      17.60769458       0.04998652       0.60000000       0.00376498      -0.00408592      -0.00260906      -5.73000455
Ni      24.58313119      19.34922618       1.82097883       0.60000000       0.00607405      -0.00128108      -0.00257896      -5.73124886
Ni      26.36592360      17.61339497       1.76917632       0.60000000       0.00406302      -0.00210753      -0.00232431      -5.73075348
Ni      26.33288814      19.38603087       0.02074011       0.60000000       0.00389481       0.00096311      -0.00541534      -5.73102826
Ni      24.61736854      17.58736875       3.56221365       0.60000000       0.00269813       0.00119606      -0.00243936      -5.73124552
Ni      24.62243052      19.34430806       5.33149089       0.60000000       0.00119233       0.00398667      -0.00624677      -5.73067433
Ni      26.39948062      17.58730706       5.29016987       0.60000000       0.00205044       0.00158961      -0.00007514      -5.73109657
Ni      26.36980847      19.35912141       3.54108952       0.60000000       0.00484315      -0.00021476      -0.00010666      -5.73104793
Ni      24.65437398      17.57243939       7.07254436       0.60000000       0.00679649       0.00033834      -0.00337458      -5.73030007
Ni      24.66374913      19.31754913       8.86342328       0.60000000       0.00289235       0.00498696      -0.00779741      -5.73006558
Ni      26.44979628      17.55433662       8.79873095       0.60000000       0.00158991       0.00376971      -0.00075476      -5.73081487
Ni      26.40360013      19.33667249       7.06985772       0.60000000       0.00265823       0.00462834      -0.00360208      -5.73072267
Ni      24.72614792      17.52490997      10.57416920       0.60000000      -0.00057163       0.00753574      -0.00646631      -5.73097396
Ni      24.75435771      19.24193360      12.39469209       0.60000000      -0.00007754       0.01489744      -0.01432508      -5.73127139
Ni      26.53616750      17.48903619      12.29669173       0.60000000      -0.01123970       0.00665025       0.00065819      -5.73154402
Ni      26.46160043      19.29337790      10.59421111       0.60000000       0.00077187       0.00564911      -0.00743419      -5.73113799
Ni      24.84797592      17.42096694      14.07913440       0.60000000      -0.01890905       0.01533515      -0.00598393      -5.73094040
Ni      23.08018193      19.16030270      14.22477640       0.60000000      -0.00124093       0.01836431      -0.02326492      -5.73062694
Ni      26.64784793      17.37704144      15.80893953       0.60000000      -0.01264187       0.01593325      -0.00132482      -5.73273069
Ni      26.56581601      19.20658776      14.11357624       0.60000000      -0.00977131       0.01159655      -0.00882084      -5.73168886
Ni      23.20228315      17.30414814      15.88700768       0.60000000      -0.03797585       0.02772102      -0.00388217      -5.74280596
Ni      23.31200843      18.94489486      17.78607069       0.60000000      -0.04767226       0.01779860      -0.03620554      -5.74214774
Ni      24.98869754      17.23577043      17.60036003       0.60000000      -0.02212421       0.03530233      -0.00310429      -5.74190921
Ni      24.91370703      19.10716007      15.93484690       0.60000000      -0.01360322       0.01835047      -0.01581123      -5.73292661
Ni      23.45571899      17.04222820      19.43340125       0.60000000      -0.08919233      -0.00989097      -0.03012977      -5.52595466
Ni      24.14481625      18.31850054      21.53838067       0.60000000       0.04665910      -0.03642767      -0.00331270      -5.59058189
Ni      26.10847615      16.39196626      21.48185591       0.60000000       0.02829562      -0.02056303      -0.01144241      -5.56683946
Ni      25.09928496      18.92790633      19.45415337       0.60000000      -0.05554556       0.00007163      -0.02215735      -5.63425803
Ni      24.31033248      16.34953265      23.09601667       0.60000000       0.05561210      -0.03648747       0.00849960      -5.65743047
Ni      24.27332526      18.07431489      24.93129248       0.60000000       0.02343906      -0.01864689      -0.00550997      -5.70983744
Ni      26.09014447      16.26682860      24.76872328       0.60000000       0.04134998      -0.02192566       0.01472868      -5.69788337
Ni      26.00007348      18.25777399      23.25726875       0.60000000       0.02916297      -0.01413455       0.00523100      -5.66058928
Ni      24.39534727      17.83028557      28.35322065       0.60000000       0.01046881      -0.00602626      -0.00909801      -5.72623968
Ni      24.39621849      19.54275636      30.13628894       0.60000000       0.00230101      -0.00762129      -0.01028935      -5.72220349
Ni      26.22868256      17.79861052      29.98306434       0.60000000       0.01034629      -0.00301046      -0.00330455      -5.72812504
Ni      26.05638408      18.03142040      26.61332924       0.60000000       0.02192054      -0.01151811       0.00291451      -5.71239448
Ni      24.50850775      17.67123852      31.76335146       0.60000000       0.00814566       0.00103424      -0.00088121      -5.73246711
Ni      24.51112677      19.38432339      33.53367001       0.60000000       0.00834586       0.00032105      -0.00528070      -5.73866326
Ni      26.32849042      17.67114677      33.43997715       0.60000000       0.00393298      -0.00078694      -0.00117039      -5.72690421
Ni      26.24231388      19.50569117      31.75101228       0.60000000       0.00890679      -0.00085706      -0.00581485      -5.73353332
Ni      24.52608775      21.10482120       0.09228496       0.60000000       0.00552169      -0.00362166      -0.00219275      -5.75475866
Ni      24.55348831      22.86848064       1.79919353       0.60000000       0.00573400      -0.00248075      -0.00193491      -5.75411022
Ni      26.34263315      21.12521024       1.77891596       0.60000000       0.00246259      -0.00293138      -0.00195158      -5.73546594
Ni      26.28868371      22.88486698       0.03216024       0.60000000       0.00167286      -0.00368989      -0.00707471      -5.69909662
Ni      24.59395125      21.10885170       3.56994763       0.60000000       0.00438565       0.00182299      -0.00049996      -5.73065764
Ni      24.61360042      22.85859938       5.33811216       0.60000000      -0.00229478       0.00150065      -0.00268595      -5.72990304
Ni      26.37274489      21.10603738       5.31190111       0.60000000       0.00572679       0.00289743      -0.00234163      -5.73019892
Ni      26.35329220      22.86719660       3.53010746       0.60000000       0.00472659      -0.00175099       0.00167283      -5.73124540
Ni      24.62981691      21.09072688       7.11427019       0.60000000       0.00465289       0.00701809      -0.00596032      -5.73031336
Ni      24.63646095      22.82425518       8.91460938       0.60000000       0.00583196       0.01162108      -0.00730313      -5.72953135
Ni      26.40602087      21.07681484       8.86414897       0.60000000       0.00402002       0.00451740      -0.00864914      -5.73044074
Ni      26.37628994      22.84508705       7.09851897       0.60000000       0.00483576       0.00452456      -0.00529858      -5.73004907
Ni      24.67285818      21.04279443      10.67731023       0.60000000       0.00636233       0.01041564      -0.01316832      -5.72927797
Ni      24.67885233      22.75231018      12.51360167       0.60000000       0.00836630       0.02580949      -0.01843952      -5.72340679
Ni      26.47116469      21.01891991      12.40842027       0.60000000       0.00133520       0.01139340      -0.00600109      -5.73092300
Ni      26.40283732      22.80613177      10.67256528       0.60000000       0.00869087       0.00757837      -0.00781340      -5.72925508
Ni      24.79136648      20.94033923      14.24520237       0.60000000      -0.01032469       0.02556227      -0.01042537      -5.72860414
Ni      23.00917798      22.64264548      14.41158601       0.60000000       0.00645203       0.05075152      -0.03190558      -5.71490157
Ni      26.60523937      20.91337616      15.95982251       0.60000000      -0.01240614       0.01615867      -0.00805885      -5.73015118
Ni      26.48412652      22.73021449      14.24604218       0.60000000       0.00265280       0.01316006      -0.00829067      -5.72804540
Ni      23.16427696      20.80802364      16.13392492       0.60000000      -0.01273087       0.03154968      -0.01859500      -5.72570443
Ni      23.25825372      22.46997808      18.11788697       0.60000000      -0.01019123       0.03727299      -0.02068568      -5.69843888
Ni      24.99605543      20.79526199      17.83215729       0.60000000      -0.02307517       0.01249880      -0.01419510      -5.73637605
Ni      24.83623409      22.62277653      16.14012692       0.60000000      -0.00960036       0.02718651      -0.01709225      -5.72584242
Ni      23.47930200      20.61263301      19.75876708       0.60000000      -0.03350103       0.02665212      -0.03691359      -5.66962004
Ni      23.63979827      22.23031179      21.74649245       0.60000000      -0.01952585       0.02859097      -0.03053971      -5.69168705
Ni      25.30870719      20.58742799      21.43510041       0.60000000      -0.03550324       0.01350559      -0.02382807      -5.64797932
Ni      25.13681819      22.45801760      19.79828661       0.60000000      -0.01620436       0.02021845      -0.02080303      -5.72318810
Ni      24.10592802      20.07453055      23.40558871       0.60000000       0.03646542      -0.02770864       0.00063755      -5.66826361
Ni      24.09106078      21.79021269      25.30360991       0.60000000       0.01983970      -0.01337764      -0.00772830      -5.70566916
Ni      25.91536975      20.03961647      25.10082721       0.60000000       0.02678022      -0.01710329       0.00632714      -5.66940635
Ni      25.52056113      22.20155295      23.44418715       0.60000000      -0.01221101       0.01149952      -0.02020256      -5.67331564
Ni      24.25904185      19.80539135      26.80920069       0.60000000       0.01379665      -0.01265282      -0.00493510      -5.70779437
Ni      24.26460346      21.55622509      28.66362274       0.60000000       0.00455270      -0.00382918      -0.00479339      -5.69962895
Ni      26.07807757      19.77863805      28.43904139       0.60000000       0.01109526      -0.00593815       0.00099389      -5.70294291
Ni      25.92280687      21.80997350      26.96163159       0.60000000       0.01066985      -0.00293955       0.00251636      -5.69656730
Ni      24.40143633      21.23501636      31.88988664       0.60000000       0.00023054      -0.00159158      -0.01029504      -5.74827343
Ni      24.43167325      22.86705880      33.61459072       0.60000000      -0.00267964      -0.00157949      -0.00941627      -5.51579028
Ni      26.25246736      21.18839669      33.51176787       0.60000000       0.00403319       0.00121781      -0.00922869      -5.77625746
Ni      26.10746287      21.53074366      30.25423387       0.60000000       0.00604648      -0.00193046      -0.00137951      -5.69977105
Ni      24.56301958      24.58121469      -0.00518974       0.60000000      -0.00409975      -0.00587362      -0.00106753      -5.50785291
Ni      24.64602533      26.34726577       1.67368673       0.60000000      -0.00149171      -0.00375132       0.00049860      -5.76717222
Ni      26.34214753      24.61262423       1.71930183       0.60000000       0.00016199      -0.00344428       0.00052904      -5.76527256
Ni      26.31490324      26.20173575      -0.25129174       0.60000000      -0.00631842      -0.01108637      -0.00008597      -5.42235206
Ni      24.60486731      24.61660847       3.53720513       0.60000000       0.00476979       0.00052556      -0.00558538      -5.73358423
Ni      24.62916191      26.35293617       5.30835955       0.60000000       0.00046722       0.00486058      -0.00344899      -5.72929192
Ni      26.36661874      24.60583043       5.30335157       0.60000000      -0.00083152       0.00169610       0.00108439      -5.72924662
Ni      26.36958063      26.35056230       3.47733602       0.60000000       0.00162245       0.00038541      -0.00056312      -5.73321337
Ni      24.62717071      24.59756332       7.12353374       0.60000000      -0.00574403      -0.00130068      -0.00404327      -5.72950900
Ni      24.63510509      26.33905553       8.91018601       0.60000000      -0.00380357       0.00031208      -0.00591068      -5.72857428
Ni      26.37529403      24.57927723       8.89473372       0.60000000       0.00632532       0.00572664      -0.00625568      -5.72960931
Ni      26.37237029      26.34273351       7.08896686       0.60000000      -0.00417884       0.00155073      -0.00076163      -5.72958267
Ni      24.64373644      24.55438042      10.72215481       0.60000000       0.00867132       0.01111936      -0.00517719      -5.72695929
Ni      24.66155114      26.27994436      12.54266039       0.60000000       0.00658894       0.02206808      -0.01621709      -5.72193187
Ni      26.39823280      24.52234779      12.49356800       0.60000000       0.01013286       0.01621965      -0.00687553      -5.72490293
Ni      26.36751092      26.31398129      10.69473435       0.60000000       0.00974384       0.01131023      -0.00890854      -5.72679651
Ni      24.69191163      24.43925890      14.37450704       0.60000000       0.01427578       0.02430865      -0.01649084      -5.72009265
Ni      23.04895646      26.25767674      14.44298194       0.60000000      -0.00363554       0.01187742      -0.01467427      -5.65411806
Ni      26.52503640      24.41346380      16.11047545       0.60000000       0.00307316       0.01583157      -0.00804035      -5.72472692
Ni      26.40529578      26.22044152      14.33084128       0.60000000       0.00466507       0.01931523      -0.00864876      -5.71804309
Ni      23.09289236      24.31184642      16.34763667       0.60000000       0.00613753       0.05442801      -0.03162775      -5.65697497
Ni      23.25225428      25.99766601      18.25946971       0.60000000       0.00566778       0.03145663      -0.01728780      -5.66131139
Ni      24.92912917      24.27483117      18.07491322       0.60000000      -0.00673301       0.02363358      -0.01597619      -5.70966440
Ni      24.76535128      26.09192578      16.26788916       0.60000000       0.01564695       0.03624893      -0.01941459      -5.69669008
Ni      23.40323461      24.10750946      20.07655676       0.60000000      -0.00312154       0.03457323      -0.03028278      -5.66819108
Ni      23.44051637      25.51881599      22.20570079       0.60000000      -0.02104811      -0.01356612       0.01134022      -5.67280799
Ni      25.30037481      24.09068460      21.79238635       0.60000000      -0.00768282       0.01873089      -0.01162819      -5.70553130
Ni      25.09844772      25.91550726      20.04020392       0.60000000       0.00557451       0.02548844      -0.01751623      -5.67049712
Ni      23.76390529      23.76320609      23.76722752       0.60000000       0.00230731       0.00009613       0.00114855      -5.72476053
Ni      23.79247128      25.41080070      25.69354499       0.60000000      -0.00199899      -0.00235899       0.00578951      -5.71289134
Ni      25.69296157      23.79005016      25.41508424       0.60000000       0.00432910       0.00215898      -0.00241966      -5.71293777
Ni      25.41319842      25.68924944      23.79395345       0.60000000      -0.00164394       0.00582931       0.00119206      -5.71323663
Ni      24.08280351      23.53080496      27.19694472       0.60000000       0.00586544      -0.00488726      -0.00210465      -5.69492656
Ni      23.98135329      25.25286513      29.17200244       0.60000000       0.00828289      -0.00029502      -0.00552385      -5.68496299
Ni      25.95133354      23.57298664      28.85820820       0.60000000       0.00464095       0.00056532       0.00195665      -5.67846066
Ni      25.70865645      25.49491043      27.35262260       0.60000000       0.00488871       0.00213452       0.00249330      -5.70958203
Ni      24.27771170      23.31616165      30.54718345       0.60000000       0.00621169       0.00562845      -0.00242557      -5.63480759
Ni      23.99388223      25.13469845      32.83223280       0.60000000       0.01117794       0.00375173      -0.00368336      -5.39489777
Ni      26.14514869      23.25093560      32.08815834       0.60000000       0.00763407       0.00128195      -0.00331707      -5.47801971
Ni      25.85334591      25.33809750      30.95227865       0.60000000       0.01388792       0.00856261       0.00234371      -5.60663587
Ni      24.72736505      28.00620121      -0.19289107       0.60000000      -0.00071887      -0.00497683       0.00498993      -5.48953295
Ni      24.69618346      29.79173299       1.58969397       0.60000000      -0.00188149       0.00229303       0.00044744      -5.76222712
Ni      26.39453818      28.04030969       1.56731359       0.60000000      -0.00494002      -0.00277810      -0.00031845      -5.74538785
Ni      26.36455675      29.76206996      -0.32677781       0.60000000      -0.01159526      -0.00064580      -0.00276405      -5.48268437
Ni      24.65141252      28.08745758       3.45816798       0.60000000      -0.00067343       0.00177614       0.00277082      -5.72935164
Ni      24.65725271      29.84131603       5.24183220       0.60000000      -0.00264190       0.00447451       0.00314940      -5.72861308
Ni      26.37839306      28.08876955       5.25994554       0.60000000       0.00162095       0.00418165      -0.00394816      -5.72867733
Ni      26.39619017      29.80701334       3.40442081       0.60000000      -0.00036530       0.00331406       0.00327638      -5.72767925
Ni      24.63969371      28.09791881       7.08179782       0.60000000       0.00198842       0.00642453      -0.00036280      -5.72951275
Ni      24.64581952      29.85791676       8.85259703       0.60000000      -0.00090210       0.00457729       0.00061457      -5.72899950
Ni      26.37098076      28.08633335       8.87441991       0.60000000      -0.00282157       0.00065626      -0.00331565      -5.72792470
Ni      26.38212905      29.83993559       7.04341409       0.60000000      -0.00026499       0.00348438       0.00082156      -5.72892839
Ni      24.63529831      28.09187631      10.69573182       0.60000000       0.00022440      -0.00122367      -0.00409667      -5.72514832
Ni      24.64208713      29.86667207      12.44871963       0.60000000       0.00693775      -0.00537051       0.00445929      -5.71294332
Ni      26.36150570      28.05691709      12.48333484       0.60000000       0.01921164       0.01149581      -0.00869699      -5.72201407
Ni      26.37447454      29.84032783      10.64601475       0.60000000       0.00032496       0.00046257      -0.00357790      -5.72848618
Ni      24.73306325      28.00998776      14.36405581       0.60000000      -0.00043949       0.02233802      -0.01768921      -5.68962353
Ni      23.08852271      29.81355111      14.39487466       0.60000000      -0.02613251       0.00836310      -0.02968398      -5.65935493
Ni      26.42169801      27.88889621      16.21175474       0.60000000       0.00281834       0.04397201      -0.01963879      -5.69096899
Ni      26.36755840      29.83982935      14.22506940       0.60000000       0.02219418       0.00227253       0.00387881      -5.70651734
Ni      23.22029439      27.94551016      16.34431348       0.60000000      -0.00989180       0.02977075      -0.02414361      -5.68155593
Ni      22.86876224      28.63100494      18.85088407       0.60000000      -0.01141039      -0.03753817       0.00208087      -5.52721000
Ni      24.94277928      27.74663700      18.19708308       0.60000000       0.00261235       0.02795508      -0.02372085      -5.61055559
Ni      24.90398635      29.74663812      16.16883553       0.60000000      -0.03012274       0.03569179      -0.02594253      -5.61410362
Ni      23.15797232      27.14939415      20.56810041       0.60000000      -0.01492154      -0.01990324       0.01218089      -5.62011093
Ni      23.27687342      28.87884418      22.42563538       0.60000000      -0.00301822      -0.00534677       0.01180707      -5.66205633
Ni      25.15961231      27.47294101      22.05007497       0.60000000      -0.00341130      -0.00422163       0.00039915      -5.68340033
Ni      24.88716755      29.21252647      20.23374278       0.60000000      -0.00677317      -0.01757115      -0.00151900      -5.55400872
Ni      23.53063738      27.19139780      24.08458184       0.60000000      -0.00516155      -0.00238186       0.00514770      -5.69528043
Ni      23.57280704      28.85389880      25.94975481       0.60000000      -0.00011293       0.00247147       0.00708173      -5.67962319
Ni      25.49712747      27.34775759      25.70908480       0.60000000       0.00292593       0.00518963       0.00564265      -5.70987970
Ni      25.25228484      29.16664154      23.98512499       0.60000000       0.00157994      -0.00144473       0.00697626      -5.68614912
Ni      23.77660897      27.06926675      27.57317793       0.60000000      -0.00152882      -0.00022472       0.00648975      -5.70273173
Ni      23.70850096      28.67011349      29.47403668       0.60000000      -0.00114576       0.00688775       0.00378039      -5.66388285
Ni      25.69004859      27.17524078      29.27133231       0.60000000       0.01038955       0.00601434       0.00733783      -5.70161963
Ni      25.51308888      29.04906591      27.58918897       0.60000000       0.00802197       0.00644075       0.00694940      -5.67844796
Ni      23.87767428      26.85740959      31.09315378       0.60000000       0.00728662       0.00037174      -0.00282229      -5.64952296
Ni      23.55183324      28.36144473      32.99330356       0.60000000      -0.02642453      -0.04249320       0.01786915      -5.47594613
Ni      25.75481633      27.07371372      32.78713061       0.60000000       0.00539330       0.01325465       0.00217368      -5.45351630
Ni      25.60425419      28.91864311      31.13964494       0.60000000       0.00819078       0.01182757       0.00664543      -5.60641003
Ni      24.72362326      31.53625541      -0.17361667       0.60000000       0.00006110       0.00480027      -0.00038351      -5.48492557
Ni      24.68771533      33.30020122       1.60507630       0.60000000      -0.00178308       0.00419547       0.00362471      -5.75658906
Ni      26.41468105      31.52510041       1.57282037       0.60000000      -0.00603779       0.00249031       0.00270264      -5.76149184
Ni      26.37692331      33.26982132      -0.22052420       0.60000000      -0.00435890       0.00631429      -0.00048979      -5.48262322
Ni      24.67528941      31.56596309       3.41114451       0.60000000      -0.00211524       0.00329900       0.00304557      -5.73248601
Ni      24.67353549      33.34826347       5.20166205       0.60000000      -0.00401098       0.00345217       0.00585164      -5.72921520
Ni      26.39895386      31.57745104       5.21069939       0.60000000      -0.00323927       0.00326558       0.00303816      -5.72838497
Ni      26.40934426      33.31115983       3.39641709       0.60000000      -0.00182479       0.00184669       0.00480623      -5.73328435
Ni      24.66331499      31.61130393       7.01806224       0.60000000      -0.00653406       0.00145401       0.00451231      -5.72955894
Ni      24.67322841      33.39528567       8.78035744       0.60000000      -0.00404710       0.00014393       0.00467404      -5.72967905
Ni      26.39189212      31.60472789       8.81415187       0.60000000      -0.00144422       0.00496246       0.00098242      -5.72950435
Ni      26.40753548      33.35492501       6.99487064       0.60000000      -0.00522801       0.00446759       0.00052632      -5.72971272
Ni      24.66013106      31.63712278      10.60026018       0.60000000       0.00286059      -0.00013177       0.00445151      -5.72954786
Ni      24.68521515      33.43733334      12.33163393       0.60000000       0.00347619      -0.00576923       0.00212885      -5.72829264
Ni      26.39491693      31.61763993      12.38399897       0.60000000       0.00346263       0.00001406       0.00253693      -5.73447144
Ni      26.40954221      33.38796479      10.56850480       0.60000000       0.00110012       0.00223878       0.00049511      -5.73063618
Ni      24.68491692      31.67210759      14.15003758       0.60000000       0.00956703      -0.01329860       0.00974011      -5.68570948
Ni      22.84720603      31.92160917      15.66432903       0.60000000       0.00771270      -0.01747999       0.01562973      -5.61537915
Ni      26.37361748      31.64923554      15.95740815       0.60000000       0.01294772      -0.00489613       0.01223690      -5.66408670
Ni      26.41510567      33.41060045      14.12701017       0.60000000       0.00208924      -0.00349948       0.00341984      -5.73937100
Ni      22.84671867      30.24977252      17.23960114       0.60000000      -0.00201444       0.00211790       0.04125579      -5.54255980
Ni      22.88714527      31.96088849      19.03626298       0.60000000      -0.00727486       0.00933959       0.02556150      -5.45549995
Ni      24.92722038      31.45838106      17.93229586       0.60000000      -0.02171012       0.02208412      -0.01341258      -5.51784533
Ni      24.68678621      33.45816001      15.86817004       0.60000000       0.00875867      -0.00442948       0.00550892      -5.67909259
Ni      22.96164159      30.44570142      20.74167498       0.60000000      -0.01154520      -0.02620885      -0.00335292      -5.46837831
Ni      22.98781377      32.10967809      22.58502174       0.60000000      -0.01138368      -0.02071175      -0.00376478      -5.44128543
Ni      24.99294811      30.95740381      22.16708101       0.60000000      -0.00735442      -0.01095550       0.00869506      -5.54150897
Ni      24.98086217      33.15180609      19.72438980       0.60000000      -0.02191820       0.01580036      -0.00952807      -5.51708412
Ni      23.32032416      30.55033814      24.28224442       0.60000000       0.00448451      -0.00336734       0.00993454      -5.63641644
Ni      23.25784584      32.09380575      26.14889322       0.60000000       0.00562303       0.00127111       0.00620455      -5.47482044
Ni      25.34056855      30.94807219      25.85662572       0.60000000       0.00529730       0.00444730       0.01212690      -5.60864067
Ni      25.13587783      32.82860437      23.99613333       0.60000000       0.00482610      -0.00513001       0.01140440      -5.39810996
Ni      23.51673187      30.44856238      27.83946331       0.60000000       0.00174582       0.00539166       0.00698053      -5.63563925
Ni      23.39623560      31.96332166      29.72495052       0.60000000      -0.00961964      -0.01677748       0.02385004      -5.49172354
Ni      25.51519141      30.81578382      29.40748569       0.60000000       0.00537473       0.01172212       0.00955427      -5.61080629
Ni      25.32502653      32.75304632      27.70095049       0.60000000       0.01160743       0.00850439       0.00938753      -5.38740586
Ni      23.53929759      30.21612368      31.38086683       0.60000000      -0.01484596      -0.02882093       0.03186391      -5.52595121
Ni      23.09726631      31.53572730      33.31675595       0.60000000       0.00551419       0.01611942       0.00037335      -5.48197526
Ni      25.53993000      30.88452752      32.77694548       0.60000000       0.00169851       0.01135821       0.00011102      -5.38227864
Ni      25.47619757      32.73501904      31.05192769       0.60000000       0.00249427       0.00899758       0.00564993      -5.34818988
Ni      28.11332459      -0.18621143      -0.18336125       0.60000000      -0.00538127       0.00318994       0.00369944      -5.67447650
Ni      28.13659012       1.62401402       1.61905194       0.60000000      -0.00043237       0.00078256       0.00140293      -5.73680669
Ni      29.84494794      -0.16985235       1.58743525       0.60000000      -0.00362689      -0.00189152       0.00062607      -5.74076855
Ni      29.83589600       1.58924906      -0.17459396       0.60000000      -0.00097554      -0.00080277       0.00016322      -5.73666942
Ni      28.13978748      -0.13421927       3.39315153       0.60000000      -0.00433922       0.00185426       0.00205223      -5.73006868
Ni      28.15864691       1.65189363       5.18140473       0.60000000      -0.00513890       0.00319881       0.00216775      -5.73086452
Ni      29.87757685      -0.12388693       5.18023149       0.60000000      -0.00338148       0.00022464      -0.00109689      -5.72952414
Ni      29.87912086       1.62989003       3.39191011       0.60000000      -0.00360860       0.00100754       0.00116909      -5.73091108
Ni      28.15297392      -0.09699356       6.97781611       0.60000000      -0.00294386       0.00416532       0.00170473      -5.73013133
Ni      28.17224740       1.68184774       8.75397248       0.60000000      -0.00347143       0.00300513       0.00045410      -5.73051846
Ni      29.88924537      -0.09661571       8.77008948       0.60000000       0.00193651       0.00485996      -0.00209223      -5.72980344
Ni      29.90216297       1.65395281       6.96599640       0.60000000      -0.00231313       0.00291849      -0.00074006      -5.73040652
Ni      28.15811000      -0.06619259      10.55755876       0.60000000      -0.00179269       0.00324321      -0.00109723      -5.73001146
Ni      28.17402676       1.71437447      12.33164952       0.60000000       0.00028277       0.00411191      -0.00357593      -5.72974002
Ni      29.88607238      -0.08202312      12.35451205       0.60000000      -0.00231338       0.00273192      -0.00350459      -5.72954768
Ni      29.91156466       1.67490802      10.54818915       0.60000000      -0.00225612       0.00477252      -0.00519858      -5.73001844
Ni      28.15144978      -0.05046736      14.12865900       0.60000000       0.00236889       0.00270704       0.00019761      -5.73200840
Ni      28.15896076       1.72612123      15.89924755       0.60000000      -0.00335056       0.00502600      -0.00576657      -5.73297608
Ni      29.85668769      -0.09509469      15.93058567       0.60000000       0.00222623       0.00647702      -0.00201549      -5.72350770
Ni      29.90143362       1.69104393      14.12978668       0.60000000      -0.00155219       0.00332325      -0.00811933      -5.73019892
Ni      28.11964879      -0.07859791      17.68964012       0.60000000       0.00502622       0.00118507      -0.00103895      -5.71079057
Ni      28.12086090       1.69096949      19.44039256       0.60000000       0.00120176       0.00135213      -0.00370828      -5.73040134
Ni      29.75357656      -0.18929721      19.52101972       0.60000000      -0.00112959      -0.00433187       0.00407760      -5.69808948
Ni      29.86468561       1.67628236      17.69245364       0.60000000      -0.00127163       0.00431716      -0.00524932      -5.72514772
Ni      28.00134748      -0.19218868      21.26729602       0.60000000       0.00479669      -0.00740213       0.00529270      -5.65054959
Ni      28.05949963       1.63298813      22.94523281       0.60000000       0.00196647      -0.00068010      -0.00064978      -5.74635839
Ni      29.75733892      -0.17546974      23.01787065       0.60000000       0.00306653      -0.00114106       0.00689794      -5.65621513
Ni      29.80315712       1.62639343      21.21749450       0.60000000      -0.00066250      -0.00051067       0.00014146      -5.73042130
Ni      28.00261009      -0.19250017      24.72750284       0.60000000      -0.00154619       0.00561136       0.00356838      -5.49033856
Ni      28.03889505       1.56477014      26.39550356       0.60000000      -0.00028613       0.00223039      -0.00162894      -5.74526662
Ni      29.76002436      -0.33195093      26.36152487       0.60000000       0.00041767      -0.00132645      -0.00634268      -5.48035640
Ni      29.79168842       1.58707147      24.69716690       0.60000000       0.00279129       0.00141564      -0.00072878      -5.76204354
Ni      27.93589105      -0.36672100      28.02743360       0.60000000      -0.01468743      -0.00533254      -0.01678575      -5.52933156
Ni      28.03182361       1.47147058      29.79591491       0.60000000      -0.00374241      -0.00030047      -0.00751883      -5.72309583
Ni      29.71065456      -0.38825940      29.73452568       0.60000000      -0.02000195      -0.00651842      -0.02252418      -5.56605208
Ni      29.76409054       1.47873982      28.08442100       0.60000000       0.00006475       0.00045738      -0.00807673      -5.72928596
Ni      27.99073941      -0.38262406      31.50636100       0.60000000      -0.01251561       0.00207166      -0.00986457      -5.53509015
Ni      28.09200468       1.53931139      33.26909195       0.60000000      -0.00161044       0.00341487       0.00108553      -5.74028534
Ni      29.75983288      -0.31028238      33.19550705       0.60000000      -0.01651518      -0.00359517      -0.00691060      -5.55165780
Ni      29.76697232       1.48366155      31.49992242       0.60000000      -0.00897811      -0.00098638      -0.00574487      -5.72883523
Ni      28.12716591       3.40224322      -0.13585899       0.60000000       0.00055100      -0.00085337       0.00118615      -5.72886050
Ni      28.14581739       5.19493790       1.64422105       0.60000000      -0.00046785       0.00069311       0.00277947      -5.73062980
Ni      29.87268447       3.39854882       1.62356386       0.60000000      -0.00058037       0.00118017       0.00076222      -5.73050237
Ni      29.86095010       5.18878155      -0.12753730       0.60000000       0.00469754      -0.00390873       0.00240578      -5.72908682
Ni      28.15572290       3.41515727       3.40467571       0.60000000      -0.00190924       0.00072010       0.00102656      -5.73126101
Ni      28.17561386       5.18984935       5.17888125       0.60000000      -0.00177003       0.00481759       0.00237824      -5.73180908
Ni      29.90569449       3.41151538       5.17643614       0.60000000      -0.00279330       0.00255624       0.00010259      -5.73110485
Ni      29.89943113       5.18427094       3.40417733       0.60000000      -0.00046789       0.00204337       0.00150846      -5.73090523
Ni      28.17888662       3.42871189       6.95791504       0.60000000      -0.00504486       0.00334127       0.00118094      -5.73150724
Ni      28.20250352       5.19390333       8.72868015       0.60000000      -0.00901405       0.00492695       0.00318808      -5.73186362
Ni      29.92813298       3.42398368       8.74335891       0.60000000      -0.00402708       0.00470831       0.00053760      -5.73080868
Ni      29.93317278       5.18136999       6.95137411       0.60000000      -0.00514287       0.00406531       0.00117397      -5.73144716
Ni      28.19282784       3.45373828      10.52861340       0.60000000      -0.00603507       0.00493152       0.00004380      -5.73066801
Ni      28.21373050       5.21528399      12.30318974       0.60000000      -0.00667771       0.00783032      -0.00123096      -5.73058921
Ni      29.93480097       3.44244280      12.32480813       0.60000000      -0.00541402       0.00660281      -0.00285309      -5.73023844
Ni      29.95671006       5.18528320      10.51726978       0.60000000      -0.00905109       0.00497330      -0.00115604      -5.73108155
Ni      28.18645424       3.49183897      14.11117051       0.60000000      -0.00462825       0.00262656      -0.00533813      -5.72910011
Ni      28.18950080       5.27059131      15.89315391       0.60000000       0.00001926      -0.00071282      -0.00499390      -5.72673506
Ni      29.91189938       3.46630222      15.90465728       0.60000000      -0.00169149       0.00287399      -0.00710249      -5.72966808
Ni      29.95720507       5.20496235      14.10115991       0.60000000      -0.00600962       0.00805282      -0.00263773      -5.73022366
Ni      28.15564311       3.50765167      17.66562616       0.60000000       0.00207109      -0.00161362      -0.00527175      -5.73060501
Ni      28.14325724       5.30144247      19.42038484       0.60000000       0.00629372      -0.00378304      -0.00020747      -5.72844905
Ni      29.86975136       3.46388421      19.43923410       0.60000000       0.00224498      -0.00116953      -0.00432085      -5.72830635
Ni      29.91026843       5.25598161      17.67371672       0.60000000       0.00545137      -0.00091389      -0.00701986      -5.72731763
Ni      28.11637368       3.49171097      21.17345039       0.60000000       0.00556015      -0.00386310      -0.00159611      -5.72954911
Ni      28.10893772       5.28746257      22.90824629       0.60000000       0.00332021      -0.00161161      -0.00272618      -5.72961217
Ni      29.83005487       3.43634062      22.93128953       0.60000000       0.00392504      -0.00160269       0.00113272      -5.72707516
Ni      29.87332610       5.25535218      21.18150023       0.60000000       0.00351404       0.00286601      -0.00428124      -5.73015779
Ni      28.08725626       3.45671256      24.65273503       0.60000000       0.00112535       0.00192534      -0.00106998      -5.72915393
Ni      28.08906586       5.25859147      26.38000629       0.60000000       0.00145816      -0.00334189      -0.00089272      -5.72854978
Ni      29.80604916       3.40183201      26.39724571       0.60000000       0.00430964       0.00467989      -0.00109392      -5.72731638
Ni      29.84048124       5.24114957      24.65827191       0.60000000       0.00491377      -0.00003184      -0.00302393      -5.72851127
Ni      28.07850432       3.40349860      28.11001566       0.60000000       0.00064055      -0.00113780      -0.00129912      -5.72262937
Ni      28.09138162       5.22239029      29.84331548       0.60000000       0.00269795      -0.00156315       0.00144095      -5.72816193
Ni      29.79872526       3.35178641      29.82300036       0.60000000      -0.00082531      -0.00234188      -0.00297734      -5.71579492
Ni      29.82475663       5.21616814      28.11714764       0.60000000      -0.00207064       0.00114881      -0.00202926      -5.72760302
Ni      28.09636827       3.38002589      31.55822195       0.60000000       0.00415960      -0.00224482       0.00134195      -5.72275752
Ni      28.11433788       5.20440575      33.32548576       0.60000000       0.00454308      -0.00370162       0.00410632      -5.72884685
Ni      29.82715808       3.36926527      33.29221945       0.60000000       0.00286092      -0.00323459       0.00063181      -5.72325468
Ni      29.83004085       5.19274932      31.57349820       0.60000000       0.00404401      -0.00205874       0.00216340      -5.72714335
Ni      28.12978556       6.99381857      -0.10250819       0.60000000       0.00568929      -0.00150313       0.00312750      -5.73029500
Ni      28.14700796       8.76547047       1.66931503       0.60000000       0.00319325      -0.00047202       0.00250923      -5.73085636
Ni      29.88606173       6.97477802       1.64743592       0.60000000       0.00102254      -0.00151703       0.00354254      -5.73018628
Ni      29.86786496       8.77949811      -0.10162998       0.60000000       0.00978018      -0.00348562       0.00391773      -5.72987282
Ni      28.16432442       6.96996578       3.41798766       0.60000000       0.00021088       0.00200916       0.00245790      -5.73124194
Ni      28.18570703       8.73311144       5.18755485       0.60000000      -0.00226335       0.00231179       0.00467341      -5.73161733
Ni      29.92588289       6.95502993       5.17758686       0.60000000      -0.00112067       0.00298546       0.00187081      -5.73128605
Ni      29.91017234       8.74531151       3.41972042       0.60000000       0.00128918       0.00018292       0.00197502      -5.73080701
Ni      28.19927902       6.95320540       6.94755989       0.60000000      -0.00482182       0.00328233       0.00373561      -5.73205936
Ni      28.22728951       8.70483852       8.71125760       0.60000000      -0.00928138       0.00394703       0.00714209      -5.73205817
Ni      29.96294325       6.94029302       8.72154090       0.60000000      -0.00654788       0.00514092       0.00049592      -5.73154092
Ni      29.95509772       8.71520771       6.94665035       0.60000000      -0.00493102       0.00359153       0.00254718      -5.73140788
Ni      28.22867294       6.94607471      10.49539870       0.60000000      -0.00892530       0.00713514       0.00283276      -5.73203301
Ni      28.26123696       8.68676298      12.25499362       0.60000000      -0.01234422       0.01097895       0.00493013      -5.73209113
Ni      29.98668106       6.93672006      12.28637367       0.60000000      -0.00873133       0.00874872      -0.00152409      -5.73122525
Ni      29.99576214       8.69005611      10.48525700       0.60000000      -0.00789242       0.00646644       0.00472452      -5.73119497
Ni      28.23776710       6.96686199      14.07460359       0.60000000      -0.00865257       0.00823555       0.00034467      -5.73012596
Ni      28.26647274       8.71711336      15.83907868       0.60000000      -0.01292521       0.01213116       0.00484224      -5.72221237
Ni      29.97753445       6.96693916      15.87474628       0.60000000      -0.00301167       0.00960552      -0.00289428      -5.72827059
Ni      30.01964372       8.68199557      14.04866231       0.60000000      -0.01036242       0.01032528       0.00278915      -5.73122698
Ni      28.16615263       7.08500328      17.67607131       0.60000000       0.00990510      -0.01504540      -0.00852177      -5.71720016
Ni      28.15542040       8.89225026      19.45239902       0.60000000       0.00518231      -0.01767716      -0.01150601      -5.71064162
Ni      29.91207790       7.04403419      19.43631347       0.60000000       0.00146453       0.00215845      -0.00599010      -5.72575539
Ni      30.00961543       8.72755963      17.64387067       0.60000000      -0.01646583       0.01649649       0.00242356      -5.72581434
Ni      28.13107043       7.09415300      21.16921224       0.60000000       0.00241542       0.00138166      -0.00221473      -5.72815037
Ni      28.11462051       8.89026418      22.90856789       0.60000000       0.00319587      -0.00258873       0.00238430      -5.72898585
Ni      29.87066317       7.04829897      22.92093125       0.60000000       0.00267511       0.00448801      -0.00485625      -5.73106319
Ni      29.90912244       8.83603821      21.19469783       0.60000000      -0.00114431       0.00303470      -0.00516144      -5.72118813
Ni      28.09677157       7.08096353      24.63971205       0.60000000       0.00843308      -0.00018059       0.00451689      -5.72941864
Ni      28.08599760       8.87376811      26.37120711       0.60000000       0.00144951      -0.00228263      -0.00224710      -5.72780269
Ni      29.83907697       7.04309262      26.38213489       0.60000000       0.00437959      -0.00024971       0.00154771      -5.72888184
Ni      29.85732875       8.85225962      24.64509628       0.60000000       0.00314380       0.00104289       0.00083186      -5.72890884
Ni      28.08868883       7.05347736      28.11228737       0.60000000       0.00055119       0.00044469      -0.00303340      -5.72952294
Ni      28.08502811       8.84163618      29.84991894       0.60000000       0.00793608      -0.00610015       0.00730747      -5.72990811
Ni      29.83282354       7.02101318      29.85067086       0.60000000       0.00169459      -0.00136414       0.00028788      -5.72980046
Ni      29.83403137       8.83678250      28.11386914       0.60000000       0.00315388       0.00158858      -0.00156625      -5.72918588
Ni      28.09918677       7.02258196      31.59120332       0.60000000       0.00831958      -0.00211568       0.00790558      -5.73012280
Ni      28.11119827       8.80296738      33.35235917       0.60000000       0.00790601      -0.00205402       0.00612985      -5.73014700
Ni      29.84868827       6.99732526      33.33288151       0.60000000       0.00810082      -0.00502603       0.00632375      -5.72960842
Ni      29.83769834       8.81283431      31.59279459       0.60000000       0.00945981      -0.00479134       0.00816656      -5.72987783
Ni      28.12714214      10.56923739      -0.07863750       0.60000000       0.00480465      -0.00298918       0.00390263      -5.73067224
Ni      28.14223054      12.32511360       1.69473478       0.60000000       0.00598425       0.00071195       0.00506179      -5.73107129
Ni      29.88946850      10.54694563       1.66836179       0.60000000       0.00551410      -0.00314205       0.00261278      -5.73057485
Ni      29.86809106      12.35291138      -0.08727495       0.60000000       0.00829428      -0.00285914       0.00414117      -5.73012865
Ni      28.16473786      10.52672680       3.44059543       0.60000000       0.00409191      -0.00049313       0.00501586      -5.73134458
Ni      28.18508233      12.28010406       5.21246954       0.60000000       0.00180836       0.00490618       0.00264604      -5.73154694
Ni      29.93575960      10.50563459       5.18980554       0.60000000      -0.00018322       0.00127287       0.00380193      -5.73120123
Ni      29.91082622      12.30408756       3.44049997       0.60000000       0.00520722       0.00046533       0.00372896      -5.73118377
Ni      28.21071549      10.48702606       6.95428270       0.60000000      -0.00397225       0.00269031       0.00538420      -5.73174292
Ni      28.24028998      12.23599857       8.71614816       0.60000000      -0.00611657       0.00382873       0.00554111      -5.73135036
Ni      29.98677970      10.46805478       8.71106463       0.60000000      -0.00707161       0.00312992       0.00451771      -5.73119295
Ni      29.96367010      12.26021271       6.95768479       0.60000000      -0.00524847       0.00341178       0.00620868      -5.73124194
Ni      28.26075438      10.44793294      10.46913222       0.60000000      -0.01097824       0.00655078       0.00602772      -5.73136365
Ni      28.30060769      12.18747402      12.22013376       0.60000000      -0.01377707       0.00983690       0.01041546      -5.73017907
Ni      30.03280655      10.43354659      12.24324784       0.60000000      -0.01187822       0.00956050       0.00471065      -5.73019743
Ni      30.02128206      12.21650107      10.47110342       0.60000000      -0.01098511       0.00530759       0.00509815      -5.73056561
Ni      28.29981700      10.42195991      14.00678320       0.60000000      -0.01441265       0.01059190       0.00858089      -5.73307472
Ni      28.35624615      12.14997890      15.75002717       0.60000000      -0.02045402       0.01357171       0.01381923      -5.73875695
Ni      30.06274074      10.42133734      15.80261298       0.60000000      -0.01894724       0.01045443       0.00428206      -5.73289508
Ni      30.07562874      12.17474958      13.99348032       0.60000000      -0.01755032       0.00986740       0.00852701      -5.72926062
Ni      28.31695532      10.45716508      17.59621610       0.60000000      -0.02239446       0.01914093       0.00952371      -5.71138275
Ni      26.64343791      12.14687146      17.52452814       0.60000000      -0.03522263       0.02013649       0.02352045      -5.67981374
Ni      30.03583061      10.49893504      19.41696692       0.60000000      -0.01927531       0.01845803       0.00349156      -5.69188780
Ni      30.10670139      12.15610984      17.55521374       0.60000000      -0.01659405       0.01320045       0.00470078      -5.73961216
Ni      28.14996179      10.70825940      21.22357362       0.60000000       0.00223287      -0.01911048      -0.00662576      -5.68949729
Ni      28.08520429      12.57063532      22.98354508       0.60000000       0.00967265      -0.02237190      -0.01394977      -5.67833298
Ni      29.88981850      10.65657308      22.91674271       0.60000000       0.00030353      -0.00496893       0.00968661      -5.70833325
Ni      28.37802631      12.20088694      19.35538127       0.60000000      -0.02144867       0.02551250       0.02035190      -5.62614000
Ni      28.09161760      10.69555168      24.63513637       0.60000000      -0.00130106      -0.00656384       0.00283767      -5.72477531
Ni      28.05592474      12.48324431      26.36013563       0.60000000       0.01206782      -0.00933242       0.02099552      -5.72134095
Ni      29.83981959      10.64590119      26.37468839       0.60000000      -0.00044361      -0.00408482      -0.00019907      -5.72834003
Ni      29.86770144      12.44859518      24.64115375       0.60000000      -0.00545310       0.00660671       0.00664051      -5.71148956
Ni      28.06970773      10.65921458      28.10256122       0.60000000       0.00809760      -0.00675517       0.00758642      -5.72815818
Ni      28.06884306      12.43838233      29.84169701       0.60000000       0.00670361      -0.00589860       0.00863131      -5.72617549
Ni      29.82613792      10.62582829      29.84618401       0.60000000       0.00960917      -0.00872722       0.00579823      -5.72947609
Ni      29.81496330      12.43464817      28.09878313       0.60000000       0.01196707      -0.00441840       0.01339619      -5.72711360
Ni      28.09179089      10.61759678      31.60129636       0.60000000       0.00958128      -0.00572383       0.00884984      -5.72949427
Ni      28.10635132      12.37710879      33.36701922       0.60000000       0.00751128      -0.00348687       0.00510169      -5.73016930
Ni      29.85056279      10.59086607      33.34595791       0.60000000       0.00734906      -0.00255905       0.00671560      -5.72917879
Ni      29.83034964      12.40786539      31.58345955       0.60000000       0.00940209      -0.00717945       0.00339489      -5.72722107
Ni      28.12041440      14.12542290      -0.05840605       0.60000000       0.00637495      -0.00267946       0.00269325      -5.73064435
Ni      28.13294557      15.86731346       1.72200426       0.60000000       0.00525006       0.00060283      -0.00035033      -5.73085660
Ni      29.88655163      14.10441603       1.68713198       0.60000000       0.00388334      -0.00231775       0.00308037      -5.73088837
Ni      29.86288925      15.90422502      -0.07810388       0.60000000       0.00609763      -0.00298242       0.00062504      -5.73043329
Ni      28.15819647      14.07523522       3.47152364       0.60000000       0.00051163       0.00306144       0.00212834      -5.73128706
Ni      28.17205171      15.82565582       5.24817481       0.60000000       0.00103984       0.00128382       0.00000688      -5.73155576
Ni      29.93264786      14.05722557       5.21328637       0.60000000       0.00254470       0.00206102       0.00635007      -5.73150009
Ni      29.90340111      15.85156428       3.46603851       0.60000000       0.00094895       0.00180680       0.00047087      -5.73139960
Ni      28.20764381      14.03273772       6.98089953       0.60000000      -0.00127762       0.00359794       0.00455049      -5.73137367
Ni      28.22914518      15.78505760       8.75045672       0.60000000      -0.00577593       0.00205446       0.00439966      -5.73106754
Ni      29.99038295      14.01286827       8.72431294       0.60000000      -0.00339091       0.00383392       0.00479107      -5.73094255
Ni      29.95250784      15.81070574       6.98692930       0.60000000      -0.00137920       0.00093385       0.00470214      -5.73139960
Ni      28.27191038      13.98271901      10.47656848       0.60000000      -0.00600131       0.00896823       0.00372790      -5.73074263
Ni      28.30254435      15.72591912      12.24515180       0.60000000      -0.01140155       0.00594941       0.00488535      -5.73059505
Ni      30.05522685      13.96286677      12.23021057       0.60000000      -0.01072551       0.00764654       0.00524484      -5.73001212
Ni      30.01533335      15.76341514      10.49268224       0.60000000      -0.00696425       0.00497541       0.00549869      -5.73067451
Ni      28.34327883      13.92338668      13.97561103       0.60000000      -0.01268842       0.01097148       0.00870747      -5.72984040
Ni      28.38275230      15.64759903      15.75321229       0.60000000      -0.00714991       0.01035294       0.00367471      -5.73282450
Ni      30.11577104      13.91148352      15.75027940       0.60000000      -0.01031829       0.01072142       0.00411355      -5.73094577
Ni      30.08483199      15.70333405      13.99785537       0.60000000      -0.00883724       0.00959333       0.00074477      -5.72980911
Ni      28.40935692      13.86574108      17.50903749       0.60000000      -0.02107658       0.01319944       0.00252901      -5.75124836
Ni      26.68510194      15.54502206      17.52280319       0.60000000      -0.01067388       0.03270439      -0.01262210      -5.75201148
Ni      30.13696848      13.89402246      19.29644358       0.60000000      -0.01109073       0.01584457       0.00333074      -5.68118811
Ni      30.15080798      15.64248056      17.51798903       0.60000000      -0.00505728       0.01135303      -0.00075467      -5.73900938
Ni      26.72773521      13.83682986      19.30929400       0.60000000      -0.02330214       0.02880913       0.00598101      -5.56172723
Ni      27.99442663      14.49639496      21.37342178       0.60000000       0.00814849      -0.01760982      -0.01927005      -5.60492551
Ni      29.84977785      12.54808191      21.29595444       0.60000000       0.02089023      -0.03113569      -0.02046645      -5.63419044
Ni      28.43844537      15.56798078      19.26151305       0.60000000      -0.01400772       0.01550779      -0.00476628      -5.66450399
Ni      28.00305965      14.36948209      24.74115199       0.60000000       0.02084694      -0.01663002      -0.00231404      -5.68884665
Ni      27.88135934      16.21502530      26.43337245       0.60000000       0.04034188      -0.01792227       0.00509790      -5.69013149
Ni      29.84117452      14.22666175      26.36385273       0.60000000       0.00121343       0.00391990       0.02043870      -5.70527661
Ni      29.80775214      14.40783131      23.10295822       0.60000000       0.00532870      -0.02461869      -0.02632463      -5.66044092
Ni      28.03475323      14.28102725      28.07355966       0.60000000       0.00951819      -0.00318790       0.02071831      -5.71319789
Ni      28.05151942      16.03161037      29.83926496       0.60000000       0.00853468      -0.00119741       0.00739208      -5.71881437
Ni      29.80190137      14.23686486      29.80255651       0.60000000       0.01085148      -0.00225328       0.01573920      -5.71591574
Ni      29.76529604      16.11077372      27.99261754       0.60000000       0.01458758      -0.00260394       0.02048462      -5.69798309
Ni      28.08355096      14.19241366      31.60357731       0.60000000       0.00588781      -0.00528931       0.00609667      -5.72784495
Ni      28.09746479      15.92960389      33.37869994       0.60000000       0.00477898      -0.00255495       0.00222377      -5.72885811
Ni      29.84626245      14.16257692      33.34583652       0.60000000       0.00894169      -0.00464474       0.00504126      -5.72930443
Ni      29.81888238      15.98367042      31.56557263       0.60000000       0.00687215      -0.00082412       0.01061614      -5.72407138
Ni      28.11087145      17.65839925      -0.03938572       0.60000000       0.00108919      -0.00032007      -0.00043828      -5.72876060
Ni      28.11818905      19.38293597       1.74683415       0.60000000       0.00374829      -0.00270349      -0.00204249      -5.73133844
Ni      29.87874751      17.64162977       1.70438837       0.60000000       0.00070025      -0.00074330      -0.00137107      -5.73087901
Ni      29.85935652      19.43343758      -0.07378088       0.60000000       0.00475910      -0.00162403       0.00010778      -5.72774076
Ni      28.14209827      17.60890669       3.50312551       0.60000000       0.00240592      -0.00026148       0.00173668      -5.73163551
Ni      28.14570187      19.35714512       5.27968609       0.60000000       0.00449063      -0.00165878       0.00052615      -5.73127139
Ni      29.91486552      17.60094039       5.24496737       0.60000000       0.00357969      -0.00043779       0.00049958      -5.73153251
Ni      29.88713030      19.38206679       3.48575175       0.60000000       0.00202689      -0.00146151      -0.00337609      -5.73106080
Ni      28.18235854      17.57735671       7.02432951       0.60000000       0.00203497       0.00236597       0.00017426      -5.73133433
Ni      28.18859848      19.32431206       8.80878150       0.60000000       0.00475613       0.00425160      -0.00366721      -5.73112649
Ni      29.96771037      17.56238242       8.76338382       0.60000000      -0.00208286       0.00225296       0.00278712      -5.73117715
Ni      29.92101300      19.34918146       7.02570068       0.60000000       0.00514976       0.00051899       0.00020764      -5.73137772
Ni      28.24710205      17.53220630      10.52924706       0.60000000      -0.00684288       0.00129059       0.00102025      -5.73116809
Ni      28.26022439      19.26920957      12.32265033       0.60000000      -0.00441873       0.00501523      -0.00276283      -5.73166716
Ni      30.03586755      17.50876878      12.26928314       0.60000000      -0.00830274       0.00399309       0.00149084      -5.73086846
Ni      29.97758909      19.30954579      10.54762534       0.60000000      -0.00324841       0.00122840      -0.00194362      -5.73120308
Ni      28.33093077      17.45738496      14.03023181       0.60000000      -0.01221116       0.00771974       0.00281078      -5.73087567
Ni      28.36023502      19.17678868      15.83807627       0.60000000      -0.00917748       0.01203618      -0.00658767      -5.73120797
Ni      30.10967536      17.43554362      15.77792760       0.60000000      -0.00629446       0.00911663      -0.00313151      -5.73066580
Ni      30.05116670      19.24558487      14.05630838       0.60000000      -0.00695962       0.00656613      -0.00115644      -5.73159337
Ni      28.41652759      17.35408730      17.55725035       0.60000000      -0.00419951       0.01900067      -0.00751823      -5.73872173
Ni      26.70979893      19.07273213      17.65150505       0.60000000      -0.01589976       0.01520115      -0.00558171      -5.73610657
Ni      30.19521640      17.34674895      19.30527454       0.60000000      -0.00809013       0.01037644      -0.00431633      -5.74246675
Ni      30.14221147      19.15242885      17.57043226       0.60000000      -0.00538716       0.01131037      -0.00206109      -5.73127621
Ni      26.71194308      17.20574175      19.32465603       0.60000000       0.00465893       0.03657299      -0.00942294      -5.64882338
Ni      26.85047291      18.86516423      21.15800242       0.60000000      -0.03952585       0.01044044      -0.01424024      -5.65095842
Ni      28.47763631      17.17837341      21.06231572       0.60000000      -0.01010130       0.02059666      -0.00173752      -5.69600338
Ni      28.49060068      19.04026142      19.38414758       0.60000000      -0.00922798       0.01180577      -0.00171296      -5.73454678
Ni      27.94428723      16.34303526      23.22248488       0.60000000       0.02790949      -0.02008533      -0.01019680      -5.68273759
Ni      27.75189130      18.19417912      24.94715526       0.60000000       0.02793268      -0.02118119       0.00176311      -5.61348552
Ni      29.73549808      16.18626381      24.91987602       0.60000000       0.03166843      -0.01881506      -0.02790881      -5.61354589
Ni      28.63825025      18.85007209      22.87491664       0.60000000      -0.03741672       0.00010642      -0.01244034      -5.52716875
Ni      27.91475144      17.95910392      28.21099870       0.60000000       0.01727493      -0.00574271       0.00051049      -5.71136147
Ni      27.94271917      19.68047347      29.99561518       0.60000000       0.01834262       0.00046639      -0.00738187      -5.70437652
Ni      29.78368146      17.85186869      29.78622552       0.60000000       0.00683068       0.00008640       0.00730746      -5.70818007
Ni      29.57502526      18.17776969      26.45867796       0.60000000       0.03272749      -0.02007139      -0.00193670      -5.59160233
Ni      28.06425253      17.75664272      31.62001066       0.60000000       0.00517821      -0.00135872       0.00110962      -5.72506672
Ni      28.08329227      19.46970123      33.39975663       0.60000000       0.00591638       0.00266999      -0.00160944      -5.72975838
Ni      29.83775273      17.71383117      33.34244889       0.60000000       0.00347831      -0.00262645       0.00781727      -5.72685415
Ni      29.80308771      19.57608048      31.57271591       0.60000000       0.00612089      -0.00166931       0.00851623      -5.72300828
Ni      28.09640021      21.15036132      -0.01284290       0.60000000       0.00294215       0.00426754      -0.00517725      -5.75045949
Ni      28.10889671      22.88476103       1.72588977       0.60000000       0.00142752       0.00007581      -0.00138500      -5.75219041
Ni      29.87030491      21.15998347       1.70183298       0.60000000       0.00241606      -0.00206192      -0.00009654      -5.73209107
Ni      29.86664315      22.95793847      -0.11615347       0.60000000       0.00209358      -0.00021327       0.00154588      -5.68556178
Ni      28.12168070      21.12502850       3.51373817       0.60000000       0.00472686      -0.00386349       0.00128713      -5.73056430
Ni      28.11930203      22.86383518       5.28849066       0.60000000       0.00713446       0.00172659      -0.00006114      -5.72995996
Ni      29.88727086      21.12310382       5.26657935       0.60000000       0.00521785      -0.00168632      -0.00120701      -5.73131192
Ni      29.86627304      22.88676678       3.48147491       0.60000000       0.00235027      -0.00108006       0.00240347      -5.73143452
Ni      28.14532240      21.10026773       7.06337519       0.60000000       0.00613658       0.00414511      -0.00339224      -5.73074859
Ni      28.14265429      22.83804835       8.85874860       0.60000000       0.00363801       0.00521624      -0.00825031      -5.73017657
Ni      29.92306972      21.09356870       8.81266699       0.60000000       0.00249233       0.00401455      -0.00167882      -5.73096395
Ni      29.88307242      22.86202017       7.05178016       0.60000000       0.00789787       0.00202361      -0.00149612      -5.73075545
Ni      28.19115711      21.06362853      10.60503342       0.60000000       0.00504781       0.00372188      -0.00776255      -5.73118317
Ni      28.18956476      22.79307677      12.41208918       0.60000000       0.00301845       0.00916212      -0.00531725      -5.73104769
Ni      29.98204141      21.04912305      12.34054114       0.60000000      -0.00177887       0.00321131      -0.00526957      -5.73169607
Ni      29.91930066      22.83385986      10.60875633       0.60000000       0.00257063       0.00582695      -0.00688469      -5.73067856
Ni      28.27248108      20.99522680      14.13204443       0.60000000      -0.00443353       0.00911562      -0.00271256      -5.73221290
Ni      28.29628875      22.70632957      15.96352782       0.60000000       0.00016719       0.01072611      -0.00800225      -5.73280913
Ni      30.06792625      20.97226869      15.85528790       0.60000000      -0.00838351       0.00884358      -0.00117207      -5.73281753
Ni      29.98291478      22.78147138      14.14116757       0.60000000       0.00035699       0.00804142      -0.00318603      -5.73251432
Ni      28.40779244      20.88276221      17.67409508       0.60000000      -0.00954960       0.01020926      -0.00447466      -5.73001450
Ni      26.67877911      22.60340820      17.85165236       0.60000000      -0.01406315       0.00883464      -0.01548842      -5.72572100
Ni      30.19177374      20.85910692      19.39120672       0.60000000      -0.00314210       0.00658327       0.00054225      -5.73305941
Ni      30.09265924      22.68815914      17.67766381       0.60000000      -0.00152204       0.00808786      -0.00389784      -5.73376185
Ni      26.82154493      20.76441114      19.54162259       0.60000000      -0.02386167       0.00673163      -0.01501267      -5.73017287
Ni      27.00256426      22.44156621      21.52415454       0.60000000      -0.01399425       0.01004717      -0.01197823      -5.71188122
Ni      28.62708740      20.73391305      21.26761243       0.60000000      -0.02224043       0.00612823      -0.01197144      -5.72676057
Ni      28.50172012      22.57715780      19.57018716       0.60000000      -0.01337884       0.00226577      -0.01463878      -5.72035277
Ni      27.15395192      20.56547962      23.16283487       0.60000000      -0.02034127       0.01379897      -0.01384024      -5.61794174
Ni      27.47838773      22.04712084      25.16274274       0.60000000      -0.00467008      -0.00153499      -0.00193377      -5.68217969
Ni      29.22695675      20.22800172      24.89550650       0.60000000      -0.00940860      -0.00423848      -0.00525119      -5.55615699
Ni      28.88559004      22.42389578      23.28125015       0.60000000      -0.00355346       0.00768099      -0.00095665      -5.65716785
Ni      27.73328548      20.00713307      26.73072324       0.60000000       0.01539377      -0.01199563       0.00289286      -5.69584715
Ni      27.78643928      21.76090286      28.56502146       0.60000000       0.00830168       0.00161747      -0.00140716      -5.69691986
Ni      29.62430124      19.89313901      28.27133116       0.60000000       0.02261124      -0.00454558      -0.00612275      -5.68252975
Ni      29.37652034      21.95914182      26.77025595       0.60000000       0.00453560      -0.00022809      -0.00313750      -5.69869411
Ni      27.97041203      21.37064534      31.76516307       0.60000000       0.01197483       0.00176514      -0.00447854      -5.72276419
Ni      27.98506447      22.94728187      33.53551540       0.60000000       0.00396224       0.00248152      -0.00423024      -5.51537973
Ni      29.84834654      21.29128905      33.34251247       0.60000000       0.00586288       0.00006057       0.00309708      -5.75291359
Ni      29.66867278      21.66627619      30.10598933       0.60000000       0.01733111      -0.00701113      -0.00776383      -5.67436844
Ni      28.06191109      24.62177110      -0.06734078       0.60000000       0.00041851      -0.00556573       0.00206256      -5.50407070
Ni      28.08449548      26.33881904       1.60705677       0.60000000      -0.00181189      -0.00358200      -0.00100692      -5.74862581
Ni      29.84935717      24.64255634       1.63816515       0.60000000      -0.00153066       0.00253785      -0.00133786      -5.76071256
Ni      29.79466972      26.24104136      -0.34452098       0.60000000      -0.00259602      -0.00769718       0.00218688      -5.49468452
Ni      28.10903493      24.61750959       3.48268744       0.60000000       0.00011591       0.00061984       0.00157522      -5.73309082
Ni      28.11104562      26.35101829       5.26443789       0.60000000      -0.00062605       0.00254988      -0.00049891      -5.72931230
Ni      29.85979513      24.61892370       5.26057173       0.60000000       0.00482879       0.00331396      -0.00000099      -5.72991097
Ni      29.83695835      26.36100150       3.42306881       0.60000000       0.00104889       0.00387599       0.00077751      -5.72899556
Ni      28.11787717      24.59856722       7.07642018       0.60000000       0.00594629       0.00465378      -0.00338955      -5.72994536
Ni      28.11126071      26.33336589       8.87065446       0.60000000       0.00638659       0.00636096      -0.00710621      -5.72934759
Ni      29.87619028      24.59822120       8.84581841       0.60000000       0.00838885       0.00630477      -0.00659765      -5.73011130
Ni      29.85481248      26.35099291       7.05102505       0.60000000       0.00498748       0.00389869      -0.00406737      -5.73011833
Ni      28.13175423      24.57202317      10.66137082       0.60000000       0.00786987       0.00537075      -0.00649958      -5.72900504
Ni      28.11297936      26.30276768      12.46822879       0.60000000       0.00802711       0.01031246      -0.00440578      -5.72559184
Ni      29.90772244      24.57194728      12.40947213       0.60000000       0.00406265       0.00703236      -0.00862739      -5.73028970
Ni      29.86401498      26.33416711      10.64258993       0.60000000       0.00565620       0.00641812      -0.00851958      -5.72920674
Ni      28.19090196      24.51163850      14.23073157       0.60000000       0.00221180       0.01002241      -0.00496579      -5.73058009
Ni      28.20018388      26.21662347      16.07265480       0.60000000      -0.00039209       0.01853221      -0.00499486      -5.72461927
Ni      29.98306208      24.50791952      15.95489632       0.60000000      -0.00047863       0.01027681      -0.00072623      -5.73286748
Ni      29.88266246      26.31110278      14.21583419       0.60000000       0.00855344       0.00813195      -0.00521752      -5.72799844
Ni      28.35121104      24.39714944      17.83198808       0.60000000      -0.01032578       0.01116323      -0.00514989      -5.72593504
Ni      26.61256685      26.05774309      18.03191409       0.60000000       0.00352098       0.02064871      -0.01070684      -5.71179181
Ni      30.13416222      24.39848498      19.54483558       0.60000000      -0.00684395       0.00334468      -0.00795035      -5.72187710
Ni      29.97574924      26.23475600      17.80085372       0.60000000      -0.00340780       0.01173565      -0.00452999      -5.72755015
Ni      26.80800931      24.26076830      19.80778292       0.60000000      -0.00614824       0.01398194      -0.01247376      -5.70759630
Ni      26.95847330      25.92030675      21.81120489       0.60000000       0.00418900       0.01288271      -0.00501774      -5.69672412
Ni      28.66500299      24.26694357      21.55952793       0.60000000      -0.00372652       0.00802158      -0.00099272      -5.69996554
Ni      28.43840145      26.07991340      19.78141256       0.60000000       0.00489406       0.00951658      -0.00662594      -5.70167875
Ni      27.19542488      24.08024766      23.53339540       0.60000000      -0.00367670       0.00636004      -0.00387034      -5.69430780
Ni      27.35366058      25.70484241      25.49720755       0.60000000       0.00438581       0.00424989       0.00420969      -5.70892239
Ni      29.17967111      23.97958415      25.25783969       0.60000000      -0.00424978       0.00949468       0.00215394      -5.68277723
Ni      28.85565364      25.94687740      23.57199619       0.60000000      -0.00035702       0.00736167       0.00465117      -5.67850852
Ni      27.57513145      23.77710971      27.07209227       0.60000000       0.00482523      -0.00144476       0.00308899      -5.70202422
Ni      27.58944880      25.51319132      29.05400548       0.60000000       0.00805262       0.00698877       0.00401739      -5.67666793
Ni      29.48251889      23.70562862      28.66761327       0.60000000       0.00659984      -0.00381081       0.00157686      -5.66841882
Ni      29.27375200      25.68940214      27.17931358       0.60000000       0.00686676       0.00743624       0.00630024      -5.69941592
Ni      27.84467327      23.51583797      30.44862117       0.60000000       0.00952604       0.00015874       0.00038005      -5.63913465
Ni      27.70280346      25.31679068      32.75290879       0.60000000       0.01274325       0.01069839       0.00860239      -5.39003198
Ni      29.68833603      23.42330896      32.01807359       0.60000000       0.00710632      -0.00077268      -0.00487827      -5.49030465
Ni      29.40854950      25.51857737      30.81920478       0.60000000       0.01093596       0.00851404       0.00630444      -5.62046933
Ni      28.02339023      27.93302534      -0.36427784       0.60000000      -0.01528241      -0.01161860      -0.00477773      -5.52868748
Ni      28.08438945      29.76587404       1.48329144       0.60000000      -0.00954052      -0.00221763      -0.00084300      -5.72953558
Ni      29.79242678      28.03047545       1.47386824       0.60000000      -0.00549915      -0.00282158      -0.00066665      -5.72361100
Ni      29.72881683      29.70858659      -0.38626501       0.60000000      -0.02129705      -0.01931079      -0.00708093      -5.56709957
Ni      28.10882267      28.07888740       3.40523630       0.60000000      -0.00251592      -0.00050168       0.00014869      -5.72315508
Ni      28.11605685      29.82436789       5.21736653       0.60000000      -0.00015910       0.00183646       0.00092771      -5.72775447
Ni      29.84285455      28.09178912       5.22226142       0.60000000      -0.00024584       0.00096600       0.00186213      -5.72812301
Ni      29.82238625      29.79977402       3.35343923       0.60000000      -0.00260842      -0.00188423      -0.00321704      -5.71613437
Ni      28.11109543      28.08798482       7.05414243       0.60000000      -0.00014299       0.00453728       0.00045126      -5.72945482
Ni      28.11293536      29.83400498       8.83749866       0.60000000      -0.00130716       0.00562632      -0.00186820      -5.72923744
Ni      29.84971275      28.08621230       8.84209667       0.60000000       0.00673500       0.00597266      -0.00671231      -5.72992361
Ni      29.84978026      29.83242437       7.02152120       0.60000000      -0.00014691       0.00410424      -0.00249916      -5.72979963
Ni      28.10226986      28.07052513      10.65994831       0.60000000       0.00930908       0.00778343      -0.00763655      -5.72834623
Ni      28.09987346      29.81664642      12.43412188       0.60000000       0.01284180       0.00898850      -0.00734943      -5.72747546
Ni      29.84113152      28.06980927      12.43921741       0.60000000       0.00823462       0.00612853      -0.00697130      -5.72629124
Ni      29.84521533      29.82699367      10.62547250       0.60000000       0.00766781       0.00957487      -0.00867308      -5.72959787
Ni      28.07492216      28.03584384      14.28142846       0.60000000       0.01609111       0.00717576      -0.00173445      -5.71335262
Ni      27.99378651      29.76330853      16.11097805       0.60000000       0.02312459       0.01594611      -0.00543486      -5.69870263
Ni      29.83852866      28.05155564      16.03288156       0.60000000       0.00725012       0.01162896      -0.00254317      -5.71949577
Ni      29.80353869      29.80291258      14.23743045       0.60000000       0.01004491       0.00911383      -0.00626173      -5.71609068
Ni      28.19899526      27.92518239      17.95438797       0.60000000      -0.00348051       0.01601892      -0.00360987      -5.71257019
Ni      26.43216496      29.58584663      18.16264333       0.60000000      -0.00672569       0.03518274      -0.02524805      -5.58839053
Ni      29.98056152      27.95609166      19.67780249       0.60000000      -0.00878225       0.01983953      -0.00232192      -5.70549262
Ni      29.78785326      29.78548493      17.85074612       0.60000000       0.00783327       0.00270016      -0.00007899      -5.71026188
Ni      26.72912127      27.73203227      20.00425797       0.60000000       0.00450063       0.01386808      -0.00762151      -5.69339645
Ni      26.77037650      29.36901484      21.95824601       0.60000000       0.00058726       0.00061214      -0.00242154      -5.69328725
Ni      28.56358154      27.78174660      21.76029652       0.60000000       0.00180347       0.00721599       0.00499889      -5.69365883
Ni      28.24068370      29.63967965      19.87457924       0.60000000      -0.01101565       0.02889207      -0.01460224      -5.68512326
Ni      27.07107728      27.57139488      23.77809625       0.60000000       0.00156400       0.00257169      -0.00135255      -5.70301908
Ni      27.17812067      29.26797636      25.69145864       0.60000000       0.00478351       0.00594353       0.00783967      -5.70214516
Ni      29.05283446      27.58621139      25.51279988       0.60000000       0.00631158       0.00456666       0.00899861      -5.67837775
Ni      28.67334200      29.47142650      23.70946670       0.60000000       0.00736962      -0.00046853       0.00005961      -5.66186321
Ni      27.40062204      27.39687327      27.39989370       0.60000000       0.00757282       0.00785575       0.00808841      -5.70656520
Ni      27.38983810      29.10241595      29.29411792       0.60000000       0.00973536       0.01196938       0.00961734      -5.69047105
Ni      29.29269932      27.39062864      29.10718277       0.60000000       0.01061668       0.01310617       0.00973557      -5.68971092
Ni      29.10421695      29.29174971      27.38950739       0.60000000       0.01038051       0.00924526       0.01234822      -5.69131333
Ni      27.54378419      27.22727774      31.00752973       0.60000000       0.00781785       0.01174909       0.00809204      -5.67050105
Ni      27.45939253      29.10420416      32.76454778       0.60000000       0.01150782       0.01652735       0.00385859      -5.53168356
Ni      29.32615538      27.33437477      32.73830368       0.60000000       0.01472986       0.01642089       0.01448838      -5.53138977
Ni      29.25011595      29.17248375      31.00779970       0.60000000       0.01564044       0.01821303       0.01453287      -5.70725483
Ni      28.04347551      31.52060465      -0.35223847       0.60000000      -0.01631170      -0.00867919       0.00241187      -5.52938133
Ni      28.11008327      33.26754803       1.54423720       0.60000000      -0.00525521       0.00050072       0.00214865      -5.74882209
Ni      29.79423220      31.49563152       1.49136262       0.60000000      -0.01241927      -0.00303641       0.00071297      -5.73448694
Ni      29.78897878      33.21385590      -0.28860875       0.60000000      -0.01598329      -0.00949739      -0.00548884      -5.55572087
Ni      28.12424132      31.54502948       3.37621623       0.60000000      -0.00423555      -0.00044347       0.00275268      -5.72558999
Ni      28.13628335      33.32288953       5.19132211       0.60000000      -0.00215069       0.00111250       0.00205340      -5.72898781
Ni      29.84994794      31.56327861       5.18991452       0.60000000      -0.00070241       0.00018740      -0.00287778      -5.72724926
Ni      29.84647664      33.29112521       3.36760664       0.60000000      -0.00679212       0.00023051      -0.00160453      -5.72547197
Ni      28.12553686      31.58338981       7.01168406       0.60000000      -0.00110327       0.00491609      -0.00082559      -5.72957677
Ni      28.13959583      33.35404746       8.78793155       0.60000000       0.00310160       0.00732925      -0.00369552      -5.73011351
Ni      29.85903560      31.58511428       8.80595353       0.60000000       0.00179652       0.00612982      -0.00350006      -5.72998357
Ni      29.86949082      33.33198883       6.98813001       0.60000000       0.00049407       0.00329913      -0.00271320      -5.72953743
Ni      28.12346876      31.59395382      10.60417787       0.60000000      -0.00031446       0.00305638      -0.00277273      -5.73012847
Ni      28.13803834      33.36795089      12.36470263       0.60000000       0.00033919       0.00423227      -0.00435499      -5.73067528
Ni      29.84243852      31.57687269      12.40044912       0.60000000       0.00541199       0.00931862      -0.00638735      -5.72821039
Ni      29.87109437      33.34767887      10.58115100       0.60000000       0.00146177       0.00718240      -0.00331527      -5.72960907
Ni      28.10182051      31.58062516      14.19543139       0.60000000       0.01149178       0.01127663      -0.00106577      -5.72405773
Ni      28.11034274      33.35589605      15.95326045       0.60000000       0.00594159       0.00275001       0.00315830      -5.72144067
Ni      29.75684923      31.52729645      16.02971048       0.60000000       0.01519743       0.01068543      -0.00221928      -5.70600688
Ni      29.84342933      33.33664244      14.16989505       0.60000000       0.00719896       0.00725830      -0.00414513      -5.72526586
Ni      27.93085158      31.49351177      17.90670997       0.60000000       0.01880745       0.00941163       0.00476866      -5.66925055
Ni      26.35116708      33.40613141      17.69080838       0.60000000       0.01444574       0.00329669       0.00711610      -5.63831460
Ni      29.75630380      31.52063856      19.63997541       0.60000000       0.01461044       0.00731673       0.00349990      -5.68896776
Ni      29.72580446      33.25434787      17.80840428       0.60000000       0.01037852       0.00568276       0.00448932      -5.68953335
Ni      26.34036174      31.17487862      20.04821135       0.60000000      -0.03455525       0.00295720      -0.00491020      -5.56017071
Ni      26.39188284      32.95804160      21.78721611       0.60000000      -0.04584515       0.00182592      -0.00868184      -5.45057344
Ni      28.24044011      31.32649590      21.73120455       0.60000000      -0.02701713       0.01835706      -0.01747505      -5.65953541
Ni      27.84420145      33.15394027      19.70458278       0.60000000      -0.00500809      -0.01375135       0.02218586      -5.65916193
Ni      26.85813641      31.08686588      23.87952607       0.60000000       0.00110131      -0.00358735       0.00805206      -5.64885092
Ni      27.07678433      32.78531033      25.75411912       0.60000000       0.01295722       0.00069969       0.00493534      -5.45290840
Ni      28.92046520      31.13701493      25.60429232       0.60000000       0.01177780       0.00518762       0.01131993      -5.60197139
Ni      28.33305913      33.00362364      23.53297717       0.60000000      -0.05458035       0.02277096      -0.03224716      -5.47409010
Ni      27.22814660      31.00320652      27.54596514       0.60000000       0.01273720       0.00797916       0.00617647      -5.67169505
Ni      27.33016032      32.73360793      29.32881480       0.60000000       0.01775568       0.01283066       0.01436065      -5.53106338
Ni      29.17076800      31.00374784      29.25177253       0.60000000       0.01507842       0.01626722       0.01687160      -5.70781463
Ni      29.10203738      32.76102095      27.46123633       0.60000000       0.01892013       0.00309864       0.00666852      -5.53115797
Ni      27.37936991      30.93295020      31.06260090       0.60000000       0.01469863       0.00939873       0.00846137      -5.67743635
Ni      27.34014815      32.72257128      32.76212699       0.60000000       0.00499602       0.00937113       0.00858686      -5.42309469
Ni      29.24529653      31.00550041      32.78125839       0.60000000       0.02055210       0.02237254       0.01104318      -5.56689888
Ni      29.22861042      32.76754304      31.06079615       0.60000000       0.02361446       0.01722015       0.02138068      -5.56609869
Ni      31.52608861      -0.21286553      -0.22002287       0.60000000      -0.00891008      -0.00987111      -0.00836386      -5.67637873
Ni      31.58530168       1.60286458       1.59783215       0.60000000      -0.00333466      -0.00201436      -0.00308109      -5.73145711
Ni      33.28508858      -0.18490775       1.56798248       0.60000000      -0.00963492      -0.00894369      -0.00923700      -5.72504741
Ni      33.28212376       1.57084454      -0.18882596       0.60000000      -0.00710417      -0.01054600      -0.00652484      -5.72492135
Ni      31.58951813      -0.14935830       3.37572031       0.60000000      -0.00419479      -0.00317537      -0.00400871      -5.72742641
Ni      31.62529882       1.63614427       5.17369068       0.60000000      -0.00429026      -0.00105579      -0.00166402      -5.72996908
Ni      33.34112608      -0.12815182       5.17029216       0.60000000      -0.00217359      -0.00067330      -0.00497327      -5.72822511
Ni      33.33993145       1.61852453       3.38059904       0.60000000      -0.00392975      -0.00205998      -0.00387172      -5.72722268
Ni      31.61850131      -0.11452106       6.97211131       0.60000000      -0.00068780       0.00142995      -0.00252271      -5.72945118
Ni      31.64394759       1.65347259       8.75621707       0.60000000       0.00115062       0.00350038      -0.00424251      -5.72980994
Ni      33.36296390      -0.10663047       8.76335281       0.60000000      -0.00080772       0.00592090      -0.00355401      -5.72929585
Ni      33.37305432       1.64377640       6.96152947       0.60000000      -0.00025413       0.00202492      -0.00391036      -5.72949481
Ni      31.62459965      -0.10032354      10.56320553       0.60000000       0.00087011       0.00589541      -0.00418996      -5.72930837
Ni      31.64493762       1.66259304      12.34225115       0.60000000      -0.00178212       0.00691960      -0.00677798      -5.72949165
Ni      33.35859137      -0.10559496      12.35071477       0.60000000       0.00105338       0.00885418      -0.00459367      -5.72821236
Ni      33.38556105       1.65227298      10.54576058       0.60000000      -0.00027912       0.00656082      -0.00417383      -5.72922295
Ni      31.60373932      -0.10615143      14.14844009       0.60000000       0.00023513       0.01018057      -0.00407009      -5.72697568
Ni      31.61678154       1.66065833      15.91948195       0.60000000       0.00025433       0.00764224      -0.00634151      -5.72708684
Ni      33.32405961      -0.12118343      15.92673567       0.60000000       0.00166427       0.01031034      -0.00078211      -5.72381902
Ni      33.37455719       1.65033841      14.12734913       0.60000000      -0.00146359       0.00908841      -0.00359917      -5.72795123
Ni      31.53759412      -0.14767002      17.72759601       0.60000000       0.00087420       0.00829645      -0.00211946      -5.71781141
Ni      31.56235116       1.62866806      19.46431518       0.60000000      -0.00081596       0.00292381      -0.00339384      -5.72189736
Ni      33.30603513      -0.13358334      19.46142370       0.60000000       0.00285852       0.00946066      -0.00423059      -5.72978544
Ni      33.33668937       1.63873799      17.68805797       0.60000000       0.00021049       0.00820478      -0.00747985      -5.72450316
Ni      31.52640511      -0.16521169      21.25117760       0.60000000       0.00396533       0.00213308       0.00294322      -5.75222081
Ni      31.54994418       1.61644949      22.95925471       0.60000000       0.00040220       0.00336963       0.00199908      -5.75420886
Ni      33.30993123      -0.15843538      22.98602646       0.60000000       0.00501753       0.00720481      -0.00291167      -5.61834455
Ni      33.31834219       1.62188290      21.21161772       0.60000000       0.00306083       0.00508463      -0.00500419      -5.73390466
Ni      31.53779771      -0.17754200      24.72524489       0.60000000       0.00599906       0.00274646       0.00030178      -5.48399633
Ni      31.52410137       1.56965464      26.41544605       0.60000000       0.00227120       0.00306994      -0.00471678      -5.76099855
Ni      33.26967516      -0.22377282      26.37914767       0.60000000       0.00649528       0.00222003      -0.00356818      -5.48254997
Ni      33.29993716       1.60284067      24.68987824       0.60000000       0.00446017       0.00497510      -0.00276633      -5.75650388
Ni      31.51748099      -0.35645404      28.04314907       0.60000000      -0.00561680       0.00268003      -0.01743402      -5.52826428
Ni      31.49450374       1.48952321      29.79351797       0.60000000      -0.00422353       0.00038322      -0.00973499      -5.73474020
Ni      33.21174299      -0.28997187      29.78851153       0.60000000      -0.00500284      -0.00685009      -0.01370341      -5.55458724
Ni      33.26678028       1.54236667      28.11011469       0.60000000      -0.00049720       0.00229183      -0.00380915      -5.74846441
Ni      31.46271496      -0.36360481      31.46977961       0.60000000      -0.02482114      -0.01061888      -0.02570941      -5.56769866
Ni      31.50867606       1.52164954      33.23965115       0.60000000      -0.00590647      -0.00768561      -0.00600999      -5.72914159
Ni      33.19246506      -0.29390680      33.19123631       0.60000000      -0.02288929      -0.01896480      -0.02149521      -5.56614554
Ni      33.24369639       1.52715308      31.52477417       0.60000000      -0.00694625      -0.00826521      -0.00742419      -5.73271483
Ni      31.57829780       3.37821993      -0.15332146       0.60000000       0.00082745      -0.00489949      -0.00160736      -5.72606373
Ni      31.61488353       5.17828549       1.63126934       0.60000000       0.00073051      -0.00115485      -0.00050704      -5.72956944
Ni      33.33596451       3.38390000       1.61499835       0.60000000      -0.00195164      -0.00535154      -0.00207317      -5.72703642
Ni      33.33157386       5.17183779      -0.12740835       0.60000000       0.00396842      -0.00490458       0.00073010      -5.72813159
Ni      31.62388605       3.39861214       3.39327034       0.60000000      -0.00228582       0.00021098      -0.00085216      -5.73006648
Ni      31.65536079       5.17685115       5.17375277       0.60000000      -0.00206375       0.00067951       0.00070780      -5.73076355
Ni      33.37762993       3.40165916       5.17137846       0.60000000      -0.00326188      -0.00020336      -0.00073132      -5.72964340
Ni      33.37328454       5.17339938       3.39929731       0.60000000      -0.00142587      -0.00088422       0.00111518      -5.72954208
Ni      31.65572600       3.40988157       6.95715906       0.60000000      -0.00415710       0.00113706      -0.00010039      -5.73043418
Ni      31.68683872       5.17416517       8.73411504       0.60000000      -0.00566198       0.00448969      -0.00096522      -5.73065472
Ni      33.40334313       3.40893552       8.74418612       0.60000000      -0.00173011       0.00346431      -0.00408957      -5.72976303
Ni      33.41069145       5.17291956       6.95247687       0.60000000      -0.00300502      -0.00001592      -0.00040996      -5.73018557
Ni      31.67187461       3.41712247      10.53478297       0.60000000      -0.00125955       0.00642636      -0.00291955      -5.73009306
Ni      31.70223891       5.17651984      12.31027377       0.60000000      -0.00617138       0.00616154      -0.00429633      -5.73034221
Ni      33.41153852       3.41112885      12.32434427       0.60000000      -0.00059598       0.00622562      -0.00501447      -5.72932202
Ni      33.43531861       5.16955806      10.52169020       0.60000000      -0.00333274       0.00476736      -0.00351935      -5.72985369
Ni      31.66753817       3.42697974      14.11847701       0.60000000      -0.00621882       0.00706580      -0.00530687      -5.72984695
Ni      31.68880544       5.19306919      15.89189803       0.60000000      -0.00248453       0.00900641      -0.00672885      -5.73013896
Ni      33.39561830       3.41275723      15.89938191       0.60000000      -0.00176564       0.00831688      -0.00570500      -5.72849441
Ni      33.44162901       5.16957409      14.09937644       0.60000000      -0.00614827       0.00765956      -0.00699265      -5.72965407
Ni      31.62904504       3.43825488      17.68246175       0.60000000       0.00345580       0.00355648      -0.00683189      -5.72812206
Ni      31.64345790       5.22133816      19.43755172       0.60000000       0.00178005       0.00367504      -0.00628069      -5.72946018
Ni      33.35849905       3.41102844      19.44158755       0.60000000       0.00085858       0.00515617      -0.00488413      -5.72593719
Ni      33.42138700       5.18068602      17.66652021       0.60000000      -0.00447341       0.01029202      -0.00695833      -5.72944456
Ni      31.59129461       3.42328455      21.19553314       0.60000000      -0.00032563       0.00400542      -0.00498899      -5.72685343
Ni      31.60585692       5.21836181      22.93194507       0.60000000       0.00301608       0.00351404      -0.00648490      -5.72935402
Ni      33.33707443       3.41106108      22.94007611       0.60000000      -0.00050350       0.00373280      -0.00453852      -5.73079264
Ni      33.38035419       5.19690496      21.18978587       0.60000000       0.00018618       0.00648927      -0.00785971      -5.72874534
Ni      31.56529196       3.40955326      24.67651923       0.60000000       0.00401851       0.00174148      -0.00182217      -5.73227012
Ni      31.57637480       5.20929107      26.39953490       0.60000000       0.00376938       0.00418567      -0.00273666      -5.72831446
Ni      33.31035156       3.39524780      26.41038799       0.60000000       0.00219396       0.00296380      -0.00122703      -5.73317271
Ni      33.34821120       5.20026156      24.67505540       0.60000000       0.00302132       0.00570311      -0.00547350      -5.72922558
Ni      31.54353087       3.37407155      28.12427281       0.60000000       0.00100833       0.00342700      -0.00233846      -5.72533494
Ni      31.56275869       5.18854946      29.85064393       0.60000000      -0.00103122      -0.00055651      -0.00099974      -5.72714615
Ni      33.29007156       3.36643904      29.84561009       0.60000000       0.00058788      -0.00134511      -0.00091594      -5.72553110
Ni      33.32151918       5.19028841      28.13695642       0.60000000       0.00281067       0.00186324      -0.00190849      -5.72906500
Ni      31.53792265       3.35002556      31.55044224       0.60000000      -0.00079653      -0.00318589      -0.00295545      -5.72177482
Ni      31.57436472       5.17765216      33.31630292       0.60000000       0.00697371      -0.00550955       0.00329846      -5.72741383
Ni      33.29083182       3.36069370      33.29769537       0.60000000      -0.00095773      -0.00637405      -0.00468696      -5.72281337
Ni      33.31148654       5.17456011      31.59022139       0.60000000       0.00169384      -0.00340214      -0.00132263      -5.72757554
Ni      31.60250191       6.97703661      -0.11615182       0.60000000       0.00749844      -0.00380041       0.00396125      -5.72927803
Ni      31.62772238       8.75751416       1.65222596       0.60000000       0.00741657      -0.00328013       0.00338117      -5.72972476
Ni      33.36198931       6.96270861       1.64396903       0.60000000       0.00389577      -0.00358539       0.00271474      -5.72926605
Ni      33.34961085       8.76440175      -0.10273147       0.60000000       0.01167146      -0.00403774       0.00365782      -5.72915643
Ni      31.64511009       6.95905664       3.40706971       0.60000000      -0.00008881       0.00181170       0.00279525      -5.73029160
Ni      31.67504756       8.72701288       5.17962758       0.60000000      -0.00145827       0.00212558       0.00359940      -5.73064655
Ni      33.40599707       6.94841679       5.17665442       0.60000000      -0.00156918       0.00090266       0.00059642      -5.73014820
Ni      33.39109366       8.73882513       3.41499188       0.60000000       0.00382380      -0.00118132       0.00081561      -5.72963279
Ni      31.68693163       6.94325080       6.94841588       0.60000000      -0.00394553       0.00216199      -0.00000687      -5.73095036
Ni      31.72050530       8.70102501       8.71799540       0.60000000      -0.00721132       0.00466653       0.00122103      -5.73088634
Ni      33.44453734       6.93583077       8.72820530       0.60000000      -0.00424212       0.00229402      -0.00048394      -5.73032176
Ni      33.43917192       8.71368775       6.95017316       0.60000000      -0.00376073       0.00252383       0.00057153      -5.73038918
Ni      31.72022856       6.93140957      10.50604276       0.60000000      -0.00767811       0.00409687      -0.00182618      -5.73062283
Ni      31.75564362       8.68144343      12.27210926       0.60000000      -0.01121033       0.00790711      -0.00187110      -5.73012376
Ni      33.47016210       6.92614660      12.29502972       0.60000000      -0.00728517       0.00602784      -0.00519252      -5.72976720
Ni      33.48049215       8.69338123      10.49925946       0.60000000      -0.00850220       0.00305820      -0.00086682      -5.73009688
Ni      31.73299946       6.93076596      14.08116551       0.60000000      -0.00716215       0.01000992      -0.00369080      -5.73038810
Ni      31.76842218       8.68181114      15.84459728       0.60000000      -0.01152123       0.01236020      -0.00149574      -5.73067027
Ni      33.47413842       6.92856678      15.86845719       0.60000000      -0.00679199       0.00807234      -0.00571131      -5.73002106
Ni      33.50692769       8.68043643      14.06149362       0.60000000      -0.01040542       0.00649081      -0.00158023      -5.72946495
Ni      31.71445136       6.96066172      17.65990718       0.60000000      -0.00884664       0.01522394      -0.00459719      -5.73034525
Ni      31.73331876       8.73777550      19.42887676       0.60000000      -0.01127570       0.01732782      -0.00203591      -5.72748393
Ni      33.44435516       6.95819090      19.43036933       0.60000000      -0.00693577       0.01330869      -0.00833941      -5.72964066
Ni      33.50578898       8.68989855      17.63432089       0.60000000      -0.00741837       0.00926618      -0.00687945      -5.73042482
Ni      31.65270224       7.00778990      21.18983949       0.60000000       0.00019267       0.00945869      -0.00628300      -5.72960895
Ni      31.64961901       8.80533831      22.92982848       0.60000000      -0.00271921       0.00862126      -0.00475617      -5.72812462
Ni      33.39250155       6.98743226      22.93437894       0.60000000      -0.00089009       0.00926012      -0.00637020      -5.72906721
Ni      33.44335739       8.75917402      21.19094627       0.60000000      -0.00725693       0.01202144      -0.00452067      -5.72597051
Ni      31.61088693       7.01695981      24.66417932       0.60000000       0.00118390       0.00353876      -0.00673736      -5.72962689
Ni      31.60352647       8.81362524      26.39203306       0.60000000       0.00596462       0.00119763       0.00135140      -5.72950912
Ni      33.35437479       6.99343571      26.40859845       0.60000000       0.00324433       0.00281411      -0.00457486      -5.72974372
Ni      33.39470768       8.77856094      24.67480392       0.60000000       0.00139846       0.00560515      -0.00572678      -5.72963399
Ni      31.58300922       7.01140314      28.12585678       0.60000000       0.00259097      -0.00237510       0.00086992      -5.72958100
Ni      31.58460970       8.80610850      29.86088318       0.60000000       0.00472366      -0.00367100      -0.00100630      -5.72993559
Ni      33.33081353       6.98713423      29.87082452       0.60000000       0.00251714      -0.00141780       0.00032151      -5.72951657
Ni      33.35249367       8.78747779      28.14103262       0.60000000       0.00764445      -0.00417178       0.00267917      -5.73009783
Ni      31.57961219       6.99429315      31.59265958       0.60000000       0.00446478      -0.00158130       0.00303235      -5.72961104
Ni      31.59222892       8.78609703      33.34134355       0.60000000       0.00992180      -0.00175710       0.00582667      -5.72946543
Ni      33.33194398       6.97473812      33.34224681       0.60000000       0.00617652      -0.00299012       0.00093945      -5.72913092
Ni      33.33688626       8.78181625      31.61002823       0.60000000       0.00459994      -0.00218138      -0.00082796      -5.72951901
Ni      31.60940698      10.56456683      -0.10120241       0.60000000       0.01069895      -0.00347039       0.00349480      -5.72922230
Ni      31.63169803      12.32742063       1.66735627       0.60000000       0.00675901      -0.00228630       0.00095014      -5.73024040
Ni      33.37153660      10.54028305       1.65918194       0.60000000       0.01007539      -0.00493406       0.00297354      -5.72928125
Ni      33.35300458      12.34652916      -0.10004435       0.60000000       0.00895604      -0.00270312       0.00244020      -5.72821385
Ni      31.65454359      10.52411168       3.42320834       0.60000000       0.00490360      -0.00146721       0.00136633      -5.73044521
Ni      31.68183231      12.28303009       5.19385344       0.60000000       0.00165298       0.00026426       0.00440147      -5.73083204
Ni      33.42183060      10.50453940       5.18653737       0.60000000       0.00027493       0.00035160       0.00081848      -5.73009974
Ni      33.39784156      12.30357537       3.42873973       0.60000000       0.00628860      -0.00105369       0.00106099      -5.73007250
Ni      31.70604238      10.48694789       6.94953602       0.60000000      -0.00221928       0.00174870       0.00204819      -5.73073220
Ni      31.73810880      12.24266308       8.71631934       0.60000000      -0.00656634       0.00142800       0.00384318      -5.73056400
Ni      33.47264344      10.47299574       8.72023309       0.60000000      -0.00305669       0.00500055       0.00109496      -5.73027378
Ni      33.45219268      12.26484533       6.95716931       0.60000000      -0.00125264       0.00130278       0.00065080      -5.73030323
Ni      31.75522101      10.45325476      10.48257875       0.60000000      -0.00715480       0.00612898       0.00211834      -5.73035812
Ni      31.79256950      12.20387310      12.24100305       0.60000000      -0.01126840       0.00439741       0.00489841      -5.72980601
Ni      33.51706565      10.44774997      12.26401204       0.60000000      -0.00775154       0.00400517       0.00082486      -5.72966576
Ni      33.50755183      12.22965812      10.48618580       0.60000000      -0.00731428       0.00583172       0.00160113      -5.72998965
Ni      31.79455490      10.42891051      14.03002804       0.60000000      -0.01484000       0.00694451       0.00250482      -5.72932321
Ni      31.83325611      12.17396903      15.78538700       0.60000000      -0.01301173       0.00880968       0.00142318      -5.72922468
Ni      33.54281613      10.43396487      15.82438385       0.60000000      -0.01035433       0.00594542      -0.00306880      -5.72899175
Ni      33.55342931      12.20081574      14.02486131       0.60000000      -0.00954960       0.00229226       0.00056999      -5.72896671
Ni      31.80376659      10.43315005      17.60520476       0.60000000      -0.01298744       0.01004973       0.00051724      -5.73212123
Ni      31.82584417      12.18994702      19.36309550       0.60000000      -0.00591544       0.01222248      -0.00446018      -5.70755392
Ni      33.52924993      10.45671531      19.39841145       0.60000000      -0.00629461       0.00871167      -0.00675205      -5.72807145
Ni      33.57428864      12.18604675      17.58735743       0.60000000      -0.00699400       0.00600087      -0.00630867      -5.72923428
Ni      31.69144769      10.57901800      21.19941295       0.60000000      -0.00613938       0.00677540      -0.00278646      -5.70077217
Ni      31.68620435      12.37465660      22.93544621       0.60000000      -0.00564096       0.00237730       0.00463589      -5.69132370
Ni      33.44539383      10.54638742      22.93951045       0.60000000      -0.00260746       0.01087559      -0.00058669      -5.72672558
Ni      33.56136947      12.21641813      21.15164047       0.60000000      -0.00915557       0.01205893      -0.00264739      -5.72680557
Ni      31.63607286      10.59948594      24.66013129       0.60000000       0.00132973       0.00426237       0.00431344      -5.72974396
Ni      31.61735246      12.38401289      26.39598839       0.60000000      -0.00127943      -0.00011123       0.00258151      -5.73466718
Ni      33.38621225      10.56746714      26.41099527       0.60000000       0.00431516       0.00055022      -0.00013089      -5.73060757
Ni      33.43671210      12.32928515      24.68595143       0.60000000      -0.00453843       0.00258585       0.00271061      -5.72878891
Ni      31.59270412      10.60434536      28.12482898       0.60000000       0.00341814      -0.00359862      -0.00192547      -5.73002094
Ni      31.57525844      12.40173643      29.84254545       0.60000000       0.01025226      -0.00547646       0.00264928      -5.72798014
Ni      33.34621034      10.58146190      29.87309471       0.60000000       0.00601143      -0.00319231      -0.00033239      -5.72958654
Ni      33.36712201      12.36473862      28.13964221       0.60000000       0.00107680      -0.00319003      -0.00319871      -5.73050094
Ni      31.58372284      10.59704892      31.59459791       0.60000000       0.00911273      -0.00601944       0.00299328      -5.72895831
Ni      31.59159382      12.37609015      33.33727425       0.60000000       0.00875395      -0.00411080       0.00227713      -5.72756702
Ni      33.34100154      10.57107431      33.34932404       0.60000000       0.00906067      -0.00328765       0.00507616      -5.72868341
Ni      33.33447191      12.37659724      31.59552292       0.60000000       0.01086562      -0.00603469       0.00439752      -5.72767115
Ni      31.60916601      14.13216240      -0.09763749       0.60000000       0.00709576      -0.00089813       0.00372683      -5.72949439
Ni      31.62768157      15.87939165       1.67820470       0.60000000       0.00601915      -0.00256551       0.00584501      -5.73088259
Ni      33.37355811      14.10545396       1.66728808       0.60000000       0.00577193      -0.00273454       0.00184905      -5.72969288
Ni      33.34877932      15.90651879      -0.10673434       0.60000000       0.00786744      -0.00471284       0.00367532      -5.72851080
Ni      31.65438337      14.08198675       3.44031705       0.60000000       0.00350652      -0.00026650       0.00425123      -5.73104227
Ni      31.67446735      15.83415052       5.21671537       0.60000000       0.00221371       0.00347470       0.00379704      -5.73137212
Ni      33.42352539      14.06161720       5.20122600       0.60000000       0.00414752       0.00074178       0.00154267      -5.73054826
Ni      33.39383824      15.85809171       3.44221418       0.60000000       0.00659833      -0.00238163       0.00195043      -5.73068172
Ni      31.70752607      14.03894350       6.96509455       0.60000000       0.00184635       0.00047696       0.00382116      -5.73097348
Ni      31.73162603      15.79325105       8.73659556       0.60000000      -0.00433937       0.00314245       0.00322315      -5.73093057
Ni      33.48154658      14.02254969       8.72628070       0.60000000      -0.00188172       0.00275685       0.00279113      -5.73042601
Ni      33.44774554      15.81760607       6.97496032       0.60000000      -0.00073084       0.00258346       0.00129100      -5.73083663
Ni      31.76879759      13.99628897      10.48114672       0.60000000      -0.00667983       0.00188108       0.00252534      -5.73036188
Ni      31.79554680      15.74646459      12.24799671       0.60000000      -0.00939199       0.00332594       0.00317734      -5.73019969
Ni      33.54007187      13.98520006      12.25005899       0.60000000      -0.00833979       0.00369560       0.00095099      -5.72972405
Ni      33.50822918      15.77958924      10.49545376       0.60000000      -0.00614535      -0.00038107       0.00345920      -5.73040944
Ni      31.82731170      13.95095983      14.00043984       0.60000000      -0.01085014       0.00659918       0.00069506      -5.72918510
Ni      31.85724055      15.69211096      15.76317293       0.60000000      -0.00469115       0.01027977      -0.00243067      -5.72942090
Ni      33.58805545      13.95037768      15.78514232       0.60000000      -0.01080221       0.00355235      -0.00295769      -5.72800303
Ni      33.56903459      15.73685259      14.01468622       0.60000000      -0.00968827       0.00157852      -0.00211216      -5.72969866
Ni      31.86694218      13.91567734      17.54219874       0.60000000      -0.00977865       0.00943340       0.00168109      -5.73287457
Ni      31.91283822      15.64816877      19.29344913       0.60000000      -0.00555351       0.01242940       0.00248982      -5.74085927
Ni      33.61864818      13.93596650      19.33704058       0.60000000      -0.01169143       0.00770117       0.00002867      -5.73279583
Ni      33.62373138      15.69647920      17.53994616       0.60000000      -0.00960012       0.00592906      -0.00318767      -5.72867960
Ni      31.88414635      13.93155088      21.09722379       0.60000000      -0.01773726       0.01169890       0.00728454      -5.69098431
Ni      30.19004425      15.57374200      21.04479911       0.60000000      -0.01141994       0.02815031       0.00078520      -5.67841738
Ni      33.58391429      13.98003377      22.90941077       0.60000000      -0.01433474       0.00913142       0.00491575      -5.72384518
Ni      33.65513142      15.68960407      21.09581081       0.60000000      -0.00959472       0.00211525       0.00605450      -5.74423146
Ni      31.67564554      14.14682326      24.68363279       0.60000000      -0.01326266       0.01038540       0.00776266      -5.68233484
Ni      31.65141367      15.96072847      26.36347460       0.60000000      -0.00348253       0.01030018       0.01209729      -5.65938020
Ni      33.41049109      14.12694789      26.41581751       0.60000000      -0.00442011       0.00145080      -0.00026507      -5.73979050
Ni      31.92498429      15.65927303      22.84541114       0.60000000      -0.01655457       0.01477221       0.00776515      -5.60824740
Ni      31.57948999      14.19828191      28.09957107       0.60000000       0.00874511       0.00108674       0.00861103      -5.72379744
Ni      31.52647103      16.03032122      29.75754539       0.60000000       0.01015719      -0.00236548       0.01382029      -5.70590287
Ni      33.33445652      14.17291049      29.84170039       0.60000000       0.00707614      -0.00523382       0.00598194      -5.72488433
Ni      33.35183147      15.95899192      28.10419345       0.60000000       0.00616916       0.00074107       0.00564767      -5.72169697
Ni      31.56747650      14.19290453      31.55763109       0.60000000       0.00750321      -0.00345660       0.00811428      -5.72309965
Ni      31.58279764      15.94023596      33.32173363       0.60000000       0.00849373      -0.00387231       0.00750157      -5.72794223
Ni      33.33253036      14.15667879      33.32725848       0.60000000       0.00947489      -0.00482799       0.00065514      -5.72489345
Ni      33.30169955      15.97274509      31.53344444       0.60000000       0.00864351      -0.00267853       0.00759405      -5.71807230
Ni      31.60205993      17.67463113      -0.09895418       0.60000000       0.00648808      -0.00434578       0.00477677      -5.73054898
Ni      31.61886279      19.41014064       1.68509409       0.60000000       0.00247325      -0.00177862      -0.00073059      -5.73058736
Ni      33.36612597      17.64982506       1.67116332       0.60000000       0.00757917      -0.00367778       0.00325139      -5.73023105
Ni      33.33852286      19.43963807      -0.11585745       0.60000000       0.01031591      -0.00212748       0.00851186      -5.73261374
Ni      31.64352895      17.62475380       3.46021856       0.60000000       0.00347569       0.00036245      -0.00170928      -5.73128033
Ni      31.65388704      19.37103481       5.24207955       0.60000000       0.00182201      -0.00025706      -0.00124593      -5.73178923
Ni      33.41257665      17.60905881       5.22036766       0.60000000       0.00280491       0.00064770       0.00181742      -5.73127156
Ni      33.38136785      19.39277989       3.45388431       0.60000000       0.00411144      -0.00217875      -0.00033867      -5.73087955
Ni      31.69066761      17.58694979       6.99378605       0.60000000       0.00005768       0.00106854       0.00434871      -5.73139495
Ni      31.70084927      19.33824985       8.77360218       0.60000000       0.00027328       0.00158940       0.00307708      -5.73113602
Ni      33.46664016      17.57322925       8.74928141       0.60000000       0.00044395       0.00332318       0.00069972      -5.73089904
Ni      33.42541394      19.36113619       6.99867098       0.60000000       0.00239598       0.00148756       0.00209519      -5.73137176
Ni      31.74988438      17.54569883      10.51095650       0.60000000      -0.00423920       0.00263641       0.00090715      -5.73085719
Ni      31.76288155      19.29269746      12.29113803       0.60000000      -0.00521821       0.00448751      -0.00196276      -5.73108655
Ni      33.52866814      17.53206669      12.26702689       0.60000000      -0.00285572       0.00425664      -0.00052297      -5.73049724
Ni      33.48056256      19.32635153      10.52633159       0.60000000      -0.00299049       0.00451308      -0.00124645      -5.73082525
Ni      31.81596177      17.49023867      14.02108585       0.60000000      -0.00590634       0.00797040      -0.00414493      -5.73053712
Ni      31.83443878      19.22799784      15.79659182       0.60000000      -0.00561735       0.00873620      -0.00430741      -5.73157132
Ni      33.59299105      17.48269550      15.77866346       0.60000000      -0.00577866       0.00828191      -0.00552266      -5.73049849
Ni      33.54442676      19.28100264      14.03945428       0.60000000      -0.00520038       0.00662599      -0.00255100      -5.73099047
Ni      31.88684553      17.42544446      17.52986239       0.60000000      -0.00501246       0.01021505      -0.00271711      -5.73103929
Ni      31.91745929      19.14532302      19.30838968       0.60000000      -0.00299953       0.00909368      -0.00021969      -5.73743504
Ni      33.64871636      17.43704177      19.30305044       0.60000000      -0.00458479       0.00405225      -0.00329006      -5.73279041
Ni      33.61070628      19.22409516      17.54351382       0.60000000      -0.00230993       0.00778111      -0.00347125      -5.73166376
Ni      31.94333621      17.35993760      21.07307654       0.60000000      -0.00130782       0.01677503      -0.00105839      -5.75634211
Ni      30.26884413      19.03120386      21.12169397       0.60000000      -0.00920639       0.01343063      -0.00196410      -5.74592727
Ni      33.64069785      17.44541358      22.88027163       0.60000000      -0.00547838       0.00151790       0.00229754      -5.58596969
Ni      33.64626838      19.16149248      21.09456449       0.60000000       0.00297578       0.00791307      -0.00328217      -5.75742006
Ni      30.25261738      17.23274699      22.85585446       0.60000000       0.00555444       0.04434941      -0.00305626      -5.54154962
Ni      31.43703034      17.96622344      24.94996780       0.60000000       0.01802351      -0.00584812      -0.01872462      -5.51161319
Ni      33.46287292      15.86365144      24.68269178       0.60000000      -0.00630305       0.00267429       0.00525948      -5.67374068
Ni      31.96293129      19.02815697      22.89897037       0.60000000       0.01488384       0.02808141      -0.00770109      -5.44819403
Ni      31.49916995      17.90449581      27.92766464       0.60000000       0.01311343       0.00104855       0.01933568      -5.67037493
Ni      31.52517500      19.63660008      29.75185796       0.60000000       0.00521288       0.00691649       0.01166656      -5.68331975
Ni      33.25598638      17.80645372      29.72697615       0.60000000       0.00486156       0.00198158       0.01165796      -5.69213563
Ni      33.40658361      17.69514350      26.33197580       0.60000000       0.00286575       0.00863588       0.00957095      -5.63215977
Ni      31.54578326      17.76638068      31.53006901       0.60000000       0.00739036      -0.00142043       0.01496444      -5.72399694
Ni      31.57188507      19.48835452      33.31301678       0.60000000       0.00708301      -0.00283686       0.00827597      -5.73345095
Ni      33.31747014      17.70907942      33.30360326       0.60000000       0.01162477      -0.00598198       0.01004427      -5.72694361
Ni      33.28090613      19.52729834      31.51576907       0.60000000       0.00615732       0.00019518       0.00925754      -5.72981220
Ni      31.59943668      21.20703374      -0.11325448       0.60000000       0.00380965      -0.00251321       0.00549884      -5.74701178
Ni      31.60244764      22.91642412       1.67317177       0.60000000       0.00292339      -0.00221516       0.00134171      -5.75496936
Ni      33.35450338      21.17321908       1.66680739       0.60000000       0.00451825      -0.00383063       0.00221565      -5.73940969
Ni      33.34235466      22.94635108      -0.11770440       0.60000000       0.00270683      -0.00024372       0.00687792      -5.62909597
Ni      31.62638558      21.14472444       3.47055891       0.60000000       0.00100617      -0.00116853      -0.00312534      -5.73182899
Ni      31.62417248      22.88481149       5.25074194       0.60000000       0.00573572       0.00125838      -0.00329648      -5.73113143
Ni      33.38970621      21.13896263       5.23479292       0.60000000       0.00241234      -0.00166139      -0.00032997      -5.73143250
Ni      33.35884186      22.90789055       3.44976720       0.60000000       0.00430904      -0.00339050      -0.00089590      -5.73298192
Ni      31.65686361      21.11774765       7.02304762       0.60000000       0.00424428      -0.00010136       0.00229673      -5.73145276
Ni      31.65456730      22.86095155       8.81014741       0.60000000       0.00535301       0.00204287      -0.00055118      -5.73091650
Ni      33.43200974      21.11166268       8.77886420       0.60000000       0.00084306       0.00114000       0.00211723      -5.73110247
Ni      33.39076557      22.88327533       7.01608075       0.60000000       0.00502894       0.00011036      -0.00128521      -5.73129219
Ni      31.70525923      21.08538229      10.55947461       0.60000000      -0.00051198       0.00426602      -0.00120186      -5.73098958
Ni      31.70310737      22.82994837      12.35089151       0.60000000      -0.00387167       0.00656513      -0.00603760      -5.73109442
Ni      33.48734684      21.07692040      12.30644036       0.60000000      -0.00132185       0.00694162      -0.00364849      -5.73104167
Ni      33.43196066      22.85977336      10.56327565       0.60000000       0.00307696       0.00229718      -0.00079482      -5.73103291
Ni      31.77011019      21.03518808      14.07573666       0.60000000      -0.00477737       0.00611334      -0.00167801      -5.73175019
Ni      31.77011145      22.77428935      15.86776440       0.60000000      -0.00232872       0.00800171      -0.00322550      -5.73217428
Ni      33.55208422      21.02809431      15.81418454       0.60000000      -0.00517769       0.00685806      -0.00271009      -5.73167169
Ni      33.48531627      22.82744460      14.08965801       0.60000000      -0.00414624       0.00828552      -0.00192555      -5.73092759
Ni      31.85055886      20.95818485      17.58102715       0.60000000      -0.00457965       0.00735281       0.00041807      -5.73317021
Ni      31.86494318      22.68332396      19.38849837       0.60000000      -0.00493817       0.00851107      -0.00020865      -5.74027246
Ni      33.62025370      20.95811339      19.31557615       0.60000000      -0.00113010       0.00748814      -0.00224475      -5.73755181
Ni      33.54688672      22.77360688      17.59571582       0.60000000      -0.00235044       0.00639068      -0.00230555      -5.73188072
Ni      31.96155795      20.85648859      21.10718113       0.60000000      -0.00306886       0.00940683       0.00028908      -5.76106936
Ni      30.30220075      22.56291410      21.29550063       0.60000000      -0.01203581       0.00042701      -0.00972787      -5.73599458
Ni      33.59960750      20.83351603      22.88942004       0.60000000       0.01311591       0.02208515      -0.01008257      -5.48491025
Ni      33.61830775      22.68742215      21.10429648       0.60000000       0.00176766       0.00534032      -0.00444882      -5.76627207
Ni      30.45523637      20.74154740      22.96829297       0.60000000      -0.02858204      -0.00510062      -0.01720928      -5.47023481
Ni      30.98426772      22.15489903      25.00374448       0.60000000      -0.01386902       0.00831172      -0.01109345      -5.54008567
Ni      33.12302162      19.77879133      25.01488124       0.60000000       0.01160010       0.00272668      -0.01508634      -5.50086397
Ni      32.11321006      22.58500285      22.98960877       0.60000000      -0.01871746      -0.00468484      -0.01278389      -5.43890852
Ni      31.16558804      20.07028382      26.39422399       0.60000000       0.00580351      -0.00201649      -0.02607575      -5.56645316
Ni      31.30187721      21.77028445      28.29659717       0.60000000       0.01516768      -0.01015077      -0.01502775      -5.64982438
Ni      33.17018222      19.69177122      27.84377001       0.60000000      -0.01465055       0.02229241      -0.00623241      -5.65916419
Ni      32.94306215      21.82837965      26.47912546       0.60000000      -0.00739415       0.00825820      -0.03302866      -5.44186860
Ni      31.55903651      21.35989951      31.55314323       0.60000000       0.00849736      -0.00099969       0.00884924      -5.72352803
Ni      31.65866403      23.08248630      33.28875018       0.60000000       0.00524087       0.00379625       0.00733040      -5.46644366
Ni      33.31619181      21.25527048      33.29271939       0.60000000       0.00415754      -0.00003154       0.00571396      -5.75217545
Ni      33.24652951      21.38421048      29.72675593       0.60000000      -0.00015821       0.00072201       0.01253337      -5.66959745
Ni      31.59934841      24.66955454      -0.15855616       0.60000000      -0.00224845      -0.00048968       0.00165482      -5.47410554
Ni      31.54994036      26.37741481       1.57565162       0.60000000      -0.00015389       0.00098773       0.00368614      -5.75275350
Ni      33.32383531      24.67037237       1.62433489       0.60000000       0.00384962      -0.00220666       0.00414176      -5.75866121
Ni      33.27938323      26.36807524      -0.23698202       0.60000000       0.00434803      -0.00102744       0.00213653      -5.48516941
Ni      31.59576792      24.64328842       3.44421117       0.60000000       0.00267729       0.00104011       0.00127915      -5.73401189
Ni      31.59024392      26.36943302       5.22995613       0.60000000       0.00417500       0.00461557      -0.00191104      -5.72944111
Ni      33.35686145      24.64338670       5.23009837       0.60000000       0.00295033       0.00066212      -0.00352558      -5.73016304
Ni      33.31949301      26.39007061       3.41173704       0.60000000       0.00306516      -0.00019411       0.00105144      -5.73163611
Ni      31.61845373      24.62105497       7.03555978       0.60000000       0.00741206       0.00271749      -0.00121316      -5.73078513
Ni      31.61162993      26.35621162       8.82648140       0.60000000       0.00836662       0.00548534      -0.00385715      -5.73043513
Ni      33.38757445      24.62496663       8.80070435       0.60000000       0.00482725       0.00231104       0.00003941      -5.73107606
Ni      33.35435620      26.37658512       7.01505910       0.60000000       0.00572654       0.00373148      -0.00167689      -5.73062342
Ni      31.64712069      24.60190733      10.60308564       0.60000000       0.00682951       0.00571396      -0.00611264      -5.73065472
Ni      31.63173858      26.34375169      12.39788887       0.60000000       0.00345072       0.00508435      -0.00818434      -5.73008019
Ni      33.42504991      24.60725342      12.35105327       0.60000000       0.00178150       0.00399058      -0.00321448      -5.73096669
Ni      33.37975802      26.36627274      10.58873580       0.60000000       0.00737233       0.00363269      -0.00197134      -5.73082715
Ni      31.68952053      24.57550274      14.14565344       0.60000000      -0.00200007       0.00425027      -0.00388060      -5.73045027
Ni      31.65876697      26.32200401      15.94885653       0.60000000       0.00029019       0.00486318      -0.00141191      -5.72825235
Ni      33.46866160      24.57888014      15.87843188       0.60000000      -0.00150749       0.00716855      -0.00269719      -5.72957206
Ni      33.40735468      26.35431326      14.14137975       0.60000000      -0.00296150       0.00520778      -0.00321223      -5.73011523
Ni      31.75913821      24.51357663      17.67393363       0.60000000      -0.00041514       0.00681088       0.00184207      -5.73208749
Ni      31.74335798      26.25082469      19.50816608       0.60000000      -0.00950738       0.01017718       0.00035168      -5.73255259
Ni      33.52888766      24.51767186      19.38839533       0.60000000      -0.00588430       0.00801918       0.00146692      -5.73797864
Ni      33.43738262      26.33027317      17.67339748       0.60000000      -0.00200750       0.00813201       0.00005011      -5.72706109
Ni      31.88915266      24.40399120      21.23609561       0.60000000      -0.00786964      -0.00220131      -0.00092782      -5.74731719
Ni      30.25823770      26.11045085      21.53420805       0.60000000       0.00144405       0.00551724       0.00169963      -5.69922990
Ni      33.61219462      24.43209300      22.86904784       0.60000000      -0.00789082      -0.00499583      -0.00480957      -5.51734376
Ni      33.49995353      26.26632904      21.19602980       0.60000000      -0.01259985       0.00710282       0.00310693      -5.77355528
Ni      30.55444714      24.28245597      23.32129273       0.60000000      -0.00131157       0.00820555       0.00600286      -5.63232899
Ni      30.95409780      25.85344249      25.34214042       0.60000000       0.00523812       0.01003121       0.00991673      -5.60791820
Ni      32.84145751      23.99477810      25.13943769       0.60000000      -0.00712198       0.01425301      -0.00230270      -5.38150387
Ni      32.09678715      26.15021365      23.25885411       0.60000000       0.00076336       0.00423175       0.00802009      -5.47373533
Ni      31.10776734      23.87509997      26.85918363       0.60000000       0.00268397       0.00021505       0.00054802      -5.65027845
Ni      31.14178054      25.60618182      28.92358944       0.60000000       0.00649580       0.00876576       0.01042775      -5.61962545
Ni      32.95168104      23.61171593      28.45832229       0.60000000       0.00313725      -0.00772584      -0.00757483      -5.48574829
Ni      32.78760777      25.76043908      27.07821966       0.60000000       0.00206790       0.00358090       0.00912869      -5.45793509
Ni      31.33184900      23.57712570      30.29067844       0.60000000       0.01176649       0.00187946      -0.00339626      -5.54099679
Ni      31.05359155      25.48582304      32.74093072       0.60000000       0.00529614       0.00319309       0.00542042      -5.35808526
Ni      33.31788856      23.09381377      31.51840916       0.60000000       0.00318652       0.00324105       0.00947937      -5.49294913
Ni      32.78201071      25.54958423      30.89095008       0.60000000       0.00367352       0.00479935       0.00704288      -5.39852755
Ni      31.50116235      27.98898667      -0.37949551       0.60000000      -0.01098162      -0.01310882      -0.00161527      -5.53840268
Ni      31.49762167      29.76548427       1.48371867       0.60000000      -0.00664560      -0.00714964      -0.00096041      -5.72831810
Ni      33.26763455      28.09187569       1.54001775       0.60000000       0.00065714      -0.00349907       0.00211925      -5.74041647
Ni      33.19111585      29.75513788      -0.31402151       0.60000000      -0.00663152      -0.01490980      -0.00375501      -5.55433834
Ni      31.55640318      28.09654801       3.37984033       0.60000000       0.00339295       0.00126557      -0.00113309      -5.72296530
Ni      31.57300598      29.83045056       5.19299507       0.60000000       0.00171243       0.00490480      -0.00172086      -5.72727615
Ni      33.32397988      28.11404075       5.20399243       0.60000000       0.00448187       0.00622092      -0.00320592      -5.72885787
Ni      33.29087998      29.82731022       3.36909832       0.60000000       0.00012101       0.00168075      -0.00326289      -5.72328830
Ni      31.59093203      28.10001222       7.02279199       0.60000000       0.00605574       0.00794130      -0.00347167      -5.73015362
Ni      31.59248329      29.83893307       8.81233304       0.60000000       0.00604860       0.00860606      -0.00378445      -5.72992778
Ni      33.35159098      28.11236057       8.80301644       0.60000000       0.00480218       0.00699701      -0.00224547      -5.73025900
Ni      33.33234313      29.84949208       6.99667563       0.60000000       0.00439091       0.00938660      -0.00397063      -5.72967029
Ni      31.60090102      28.09330259      10.61784165       0.60000000       0.00722428       0.00845619      -0.00648602      -5.72949892
Ni      31.58224811      29.83099170      12.40731995       0.60000000       0.00420208       0.01033415      -0.00612018      -5.72724646
Ni      33.36610305      28.10753844      12.37730979       0.60000000       0.00391473       0.00664177      -0.00441945      -5.73020738
Ni      33.34512273      29.85190001      10.59049707       0.60000000       0.00549786       0.00847224      -0.00293238      -5.72921228
Ni      31.60236962      28.08404742      14.19301449       0.60000000       0.00723364       0.00684063      -0.00550346      -5.72795558
Ni      31.56468570      29.81945846      15.98404252       0.60000000       0.01239078       0.00819366      -0.00317792      -5.72448117
Ni      33.37735084      28.09845212      15.93015555       0.60000000       0.00218954       0.00486928      -0.00255388      -5.72893065
Ni      33.34440017      29.84698007      14.16175791       0.60000000       0.00472139       0.00800946      -0.00214807      -5.72927397
Ni      31.61819860      28.06608216      17.75822324       0.60000000       0.00189136       0.00432575      -0.00144542      -5.72548670
Ni      31.57490820      29.80559926      19.57401473       0.60000000       0.00952049       0.00679645      -0.00182093      -5.72512585
Ni      33.39728803      28.08618722      19.47151345       0.60000000      -0.00199860       0.00437349       0.00335385      -5.73023552
Ni      33.34229444      29.83868661      17.71284269       0.60000000       0.00634551       0.00393623      -0.00070504      -5.72757405
Ni      31.74818910      27.99135463      21.36934399       0.60000000      -0.00873829       0.01581996       0.00373636      -5.72461468
Ni      30.06548036      29.69153191      21.64360195       0.60000000      -0.01704125       0.02205469      -0.00522697      -5.68041342
Ni      33.50795583      28.01996240      22.96145035       0.60000000      -0.01695418       0.01496528       0.00733776      -5.52050090
Ni      33.34739851      29.85261881      21.28949010       0.60000000       0.00331793       0.00326303       0.00152147      -5.75576657
Ni      30.44891648      27.83706098      23.51466559       0.60000000       0.00885068       0.00665788       0.00513836      -5.63377470
Ni      30.81725568      29.40466732      25.51397996       0.60000000       0.01166986       0.01046299       0.00590266      -5.60784352
Ni      32.75280459      27.70119605      25.32583628       0.60000000       0.00591396       0.00987865       0.01417027      -5.38867868
Ni      31.94745175      29.73493463      23.38715613       0.60000000      -0.02322233       0.02697610      -0.00984002      -5.49242479
Ni      31.00404810      27.54569321      27.23156301       0.60000000       0.00742814       0.00921843       0.00973257      -5.67126518
Ni      31.00428682      29.25209650      29.17427606       0.60000000       0.01485526       0.01917306       0.01558525      -5.70730454
Ni      32.76361348      27.46668265      29.10986090       0.60000000       0.00460590       0.01370949       0.01763397      -5.53392488
Ni      32.73234094      29.32830702      27.33052615       0.60000000       0.01319217       0.01562014       0.01754022      -5.53164148
Ni      31.06261184      27.38601197      30.93959951       0.60000000       0.00895415       0.01448516       0.00893473      -5.67666137
Ni      31.06031689      29.23397165      32.77236290       0.60000000       0.02229767       0.02366629       0.01863391      -5.56945938
Ni      32.76435866      27.35110416      32.72967950       0.60000000       0.00652061       0.00753570       0.00692056      -5.42877853
Ni      32.78084477      29.25147417      31.00902160       0.60000000       0.01468253       0.02202521       0.02359665      -5.56953961
Ni      31.46564893      31.45997688      -0.36482972       0.60000000      -0.02436176      -0.02496532      -0.01046102      -5.56969410
Ni      31.52537776      33.24455759       1.52734881       0.60000000      -0.01053224      -0.00825699      -0.00730413      -5.73216093
Ni      33.23733302      31.50664352       1.51983930       0.60000000      -0.00617664      -0.00566603      -0.00808031      -5.72796631
Ni      33.18881392      33.18981295      -0.29634920       0.60000000      -0.02482942      -0.02102347      -0.01930416      -5.56691962
Ni      31.55050889      31.53868540       3.35111101       0.60000000      -0.00486906      -0.00165024      -0.00635314      -5.72160250
Ni      31.58941650      33.31289193       5.17542423       0.60000000      -0.00209228       0.00090805      -0.00327593      -5.72763532
Ni      33.31557768      31.57570812       5.17756058       0.60000000       0.00220062       0.00506239      -0.00449609      -5.72752148
Ni      33.29680576      33.29179258       3.36054819       0.60000000      -0.00465040      -0.00293745      -0.00709244      -5.72260779
Ni      31.59160180      31.58023585       6.99419623       0.60000000       0.00277684       0.00627406      -0.00024405      -5.72961420
Ni      31.60782912      33.33839985       8.78187545       0.60000000       0.00015082       0.00486029      -0.00193815      -5.72946757
Ni      33.33978450      31.59391321       8.78565715       0.60000000       0.00673478       0.00999442      -0.00218306      -5.72945350
Ni      33.34061007      33.33381696       6.97501866       0.60000000       0.00132666       0.00478362      -0.00296705      -5.72911304
Ni      31.59254465      31.58452506      10.59609409       0.60000000       0.00712943       0.01089815      -0.00557366      -5.72906697
Ni      31.59463038      33.33662701      12.37459841       0.60000000       0.00520361       0.00891536      -0.00411501      -5.72791600
Ni      33.33491409      31.59273249      12.37495013       0.60000000       0.00533990       0.00830158      -0.00265088      -5.72758353
Ni      33.34706514      33.34254545      10.57028740       0.60000000       0.00625379       0.01058742      -0.00298982      -5.72878724
Ni      31.55684285      31.56814296      14.19211994       0.60000000       0.00800425       0.00934502      -0.00320592      -5.72302783
Ni      31.53286221      33.30284758      15.97185124       0.60000000       0.00664369       0.00788513      -0.00105235      -5.71793741
Ni      33.32069919      31.58355008      15.93907412       0.60000000       0.00796891       0.00895501      -0.00218982      -5.72819304
Ni      33.32519100      33.33332879      14.15560956       0.60000000       0.00368554       0.01023402      -0.00297273      -5.72506344
Ni      31.53107557      31.54822222      17.76455147       0.60000000       0.01269173       0.00442228       0.00038606      -5.72418296
Ni      31.51690203      33.27926765      19.52856258       0.60000000       0.00933429       0.00499982       0.00385350      -5.72867149
Ni      33.31497160      31.57419048      19.48593224       0.60000000       0.00759212       0.00607604      -0.00011733      -5.73434919
Ni      33.30400245      33.31905288      17.70726617       0.60000000       0.00876201       0.01175600      -0.00261939      -5.72704351
Ni      31.56134224      31.55303053      21.36536251       0.60000000       0.00877284       0.00200034       0.00445158      -5.73428404
Ni      29.74141609      33.23391371      21.39737698       0.60000000       0.01333113      -0.00827057       0.01236071      -5.68234140
Ni      33.30574575      31.65157537      23.07772546       0.60000000       0.01298845       0.00179434      -0.00137575      -5.46044219
Ni      33.29638494      33.31554614      21.25572624       0.60000000       0.00610474       0.00408804       0.00376120      -5.75508696
Ni      30.19464772      31.39494276      23.52673354       0.60000000      -0.04005961       0.03603786      -0.01802199      -5.52145678
Ni      30.88587556      32.77153328      25.53896403       0.60000000       0.00797709       0.00205198      -0.00082549      -5.37713753
Ni      32.73472158      31.04904279      25.47448665       0.60000000       0.00931139       0.00568413      -0.00064780      -5.34558295
Ni      31.54324683      33.31301986      23.09919430       0.60000000       0.01723792       0.00158909       0.00436594      -5.47856343
Ni      30.93132572      31.05946519      27.37908555       0.60000000       0.01087572       0.01107685       0.01433260      -5.67788589
Ni      31.00218164      32.77717205      29.24490231       0.60000000       0.02296923       0.01123340       0.02287109      -5.56607753
Ni      32.76696849      31.05928775      29.22988851       0.60000000       0.01600222       0.02408055       0.02149009      -5.56577796
Ni      32.72215617      32.75804218      27.33980733       0.60000000       0.00857106       0.00834984       0.00462790      -5.42214079
Ni      31.02602424      31.02780125      31.02880132       0.60000000       0.02247389       0.02530609       0.02090964      -5.73132491
Ni      31.05463890      32.81233295      32.82066788       0.60000000       0.02631935       0.02350535       0.02312471      -5.52636373
Ni      32.82076373      31.06020003      32.81293243       0.60000000       0.02331143       0.02839830       0.02860547      -5.52795339
Ni      32.80948018      32.81944376      31.05368873       0.60000000       0.02494300       0.02495593       0.02589641      -5.52573991
