6171
Lattice="42.288 0.0 0.0 0.0 42.288 0.0 0.0 0.0 42.288" Properties=species:S:1:pos:R:3:initial_magmoms:R:1:energies:R:1:forces:R:3 energy=3001.2685695271693 free_energy=3001.2685695271693 stress="0.006920542388512376 0.009128800780739854 0.009128800635324192 0.009128800780739854 0.006920546338355111 0.009128800191058717 0.009128800635324192 0.009128800191058717 0.006920547630214118" pbc="T T T"
Ni       0.00000000       0.00000000       0.00000000       0.60000000       0.64598093      -0.16676845      -0.16676845      -0.16676845
Ni       0.00000000       1.76200000       1.76200000       0.60000000       0.54134527      -0.49597369       0.06346379       0.06346379
Ni       1.76200000       0.00000000       1.76200000       0.60000000       0.54134527       0.06346379      -0.49597369       0.06346379
Ni       1.76200000       1.76200000       0.00000000       0.60000000       0.54134527       0.06346379       0.06346379      -0.49597369
Ni       0.00000000       0.00000000       3.52400000       0.60000000       0.70642851      -0.31156455      -0.31156455       0.02771620
Ni       0.00000000       1.76200000       5.28600000       0.60000000       0.51526372      -0.48509577       0.03366592       0.00362544
Ni       1.76200000       0.00000000       5.28600000       0.60000000       0.51526372       0.03366592      -0.48509577       0.00362544
Ni       1.76200000       1.76200000       3.52400000       0.60000000       0.07981174       0.08755420       0.08755420      -0.00479277
Ni       0.00000000       0.00000000       7.04800000       0.60000000       0.70643638      -0.31205971      -0.31205971       0.02863296
Ni       0.00000000       1.76200000       8.81000000       0.60000000       0.51534525      -0.48544237       0.03363516       0.00369420
Ni       1.76200000       0.00000000       8.81000000       0.60000000       0.51534525       0.03363516      -0.48544237       0.00369420
Ni       1.76200000       1.76200000       7.04800000       0.60000000       0.07999623       0.09588347       0.09588347      -0.00234911
Ni       0.00000000       0.00000000      10.57200000       0.60000000       0.70644637      -0.31137473      -0.31137473       0.02657740
Ni       0.00000000       1.76200000      12.33400000       0.60000000       0.51122746      -0.48794194       0.04919298      -0.02175652
Ni       1.76200000       0.00000000      12.33400000       0.60000000       0.51122747       0.04919298      -0.48794194      -0.02175652
Ni       1.76200000       1.76200000      10.57200000       0.60000000       0.08009691       0.10327819       0.10327819      -0.00279136
Ni       0.00000000       0.00000000      14.09600000       0.60000000       0.50099704      -0.10671897      -0.10671897      -0.23271563
Ni       0.00000000       1.76200000      15.85800000       0.60000000       0.14162186      -0.09284263      -0.00462455      -0.08608216
Ni       1.76200000       0.00000000      15.85800000       0.60000000       0.14162185      -0.00462454      -0.09284263      -0.08608215
Ni       1.76200000       1.76200000      14.09600000       0.60000000       0.06276564       0.13089194       0.13089192      -0.00941870
Ni       0.00000000       0.00000000      17.62000000       0.60000000       0.00259071      -0.00144708      -0.00144708       0.01755897
Ni       0.00000000       1.76200000      19.38200000       0.60000000       0.00020805       0.00542224      -0.00965928      -0.00471797
Ni       1.76200000       0.00000000      19.38200000       0.60000000       0.00020806      -0.00965929       0.00542224      -0.00471798
Ni       1.76200000       1.76200000      17.62000000       0.60000000      -0.00585659       0.03721923       0.03721943       0.00162945
Ni       0.00000000       0.00000000      21.14400000       0.60000000      -0.00088412      -0.01384002      -0.01384002      -0.00874166
Ni       0.00000000       1.76200000      22.90600000       0.60000000       0.14220329       0.11803005       0.13913762      -0.08134347
Ni       1.76200000       0.00000000      22.90600000       0.60000000       0.14220329       0.13913762       0.11803004      -0.08134346
Ni       1.76200000       1.76200000      21.14400000       0.60000000       0.19011409      -0.01492320      -0.01492315       0.35932587
Ni       0.00000000       0.00000000      24.66800000       0.60000000       0.07873643       0.07214105       0.07214105       0.54340914
Ni       1.76200000       1.76200000      24.66800000       0.60000000       1.00251454      -2.67888946      -2.67888946       3.34251012
Ni      -0.58733333      -0.58733333      27.01733333       0.60000000      15.68873061      25.90148750      25.90148750      52.45115089
Ni      -0.58733333       1.17466667      28.77933333       0.60000000       8.54057652      56.05734688     -24.83069506      24.74026780
Ni       1.17466667      -0.58733333      28.77933333       0.60000000       8.54057652     -24.83069506      56.05734688      24.74026780
Ni       1.17466667       1.17466667      27.01733333       0.60000000       0.44807696      -0.80818348      -0.80818348      -0.17346183
Ni      -0.58733333      -0.58733333      30.54133333       0.60000000      15.50527792      26.14471646      26.14471646      51.98206790
Ni      -0.58733333       1.17466667      32.30333333       0.60000000       8.29300510      55.36023821     -24.25027843      24.16791598
Ni       1.17466667      -0.58733333      32.30333333       0.60000000       8.29300510     -24.25027843      55.36023821      24.16791598
Ni       1.17466667       1.17466667      30.54133333       0.60000000      -0.18399938      -0.71008850      -0.71008850       0.04655654
Ni      -0.58733333      -0.58733333      34.06533333       0.60000000      15.50377860      26.15208993      26.15208993      51.96609195
Ni      -0.58733333       1.17466667      35.82733333       0.60000000       8.29226590      55.35939246     -24.24207993      24.15845295
Ni       1.17466667      -0.58733333      35.82733333       0.60000000       8.29226590     -24.24207993      55.35939246      24.15845295
Ni       1.17466667       1.17466667      34.06533333       0.60000000      -0.20163588      -0.71731191      -0.71731191       0.00888314
Ni      -0.58733333      -0.58733333      37.58933333       0.60000000      15.53795918      26.13501306      26.13501306      51.76377591
Ni      -0.58733333       1.17466667      39.35133333       0.60000000       8.80284328      56.05112951     -24.11714008      23.72849045
Ni       1.17466667      -0.58733333      39.35133333       0.60000000       8.80284328     -24.11714008      56.05112951      23.72849045
Ni       1.17466667       1.17466667      37.58933333       0.60000000      -0.15874267      -0.68561990      -0.68561990      -0.15437535
Ni       0.00000000       3.52400000       0.00000000       0.60000000       0.70642851      -0.31156455       0.02771620      -0.31156455
Ni       0.00000000       5.28600000       1.76200000       0.60000000       0.51526372      -0.48509577       0.00362544       0.03366592
Ni       1.76200000       3.52400000       1.76200000       0.60000000       0.07981174       0.08755420      -0.00479277       0.08755420
Ni       1.76200000       5.28600000       0.00000000       0.60000000       0.51526372       0.03366592       0.00362544      -0.48509577
Ni       0.00000000       3.52400000       3.52400000       0.60000000       0.48795062      -0.47390886       0.00293525       0.00293525
Ni       0.00000000       5.28600000       5.28600000       0.60000000       0.48844641      -0.47595398       0.00600695       0.00600695
Ni       1.76200000       3.52400000       5.28600000       0.60000000       0.03735460       0.13515725       0.02136654       0.01870924
Ni       1.76200000       5.28600000       3.52400000       0.60000000       0.03735460       0.13515725       0.01870924       0.02136654
Ni       0.00000000       3.52400000       7.04800000       0.60000000       0.48830314      -0.47526338       0.00287195       0.00609567
Ni       0.00000000       5.28600000       8.81000000       0.60000000       0.48875209      -0.47026262      -0.00481420      -0.00471879
Ni       1.76200000       3.52400000       8.81000000       0.60000000       0.03774155       0.15282713       0.03107730       0.02409089
Ni       1.76200000       5.28600000       7.04800000       0.60000000       0.03815484       0.15809457       0.03356750       0.03319084
Ni       0.00000000       3.52400000      10.57200000       0.60000000       0.48850975      -0.46932054      -0.00793262      -0.00475759
Ni       0.00000000       5.28600000      12.33400000       0.60000000       0.29911984      -0.07379613      -0.08019925      -0.07382196
Ni       1.76200000       3.52400000      12.33400000       0.60000000       0.03344735       0.17442707       0.03715019       0.01414154
Ni       1.76200000       5.28600000      10.57200000       0.60000000       0.03406476       0.19513178       0.04199169       0.03750564
Ni       0.00000000       3.52400000      14.09600000       0.60000000       0.29360480      -0.08515446      -0.09733381      -0.07290277
Ni       0.00000000       5.28600000      15.85800000       0.60000000       0.03635220       0.10087376       0.01128285       0.00335372
Ni       1.76200000       3.52400000      15.85800000       0.60000000      -0.00113387       0.09176462       0.05286339       0.02692263
Ni       1.76200000       5.28600000      14.09600000       0.60000000       0.00105426       0.09713128       0.07206265       0.03084929
Ni       0.00000000       3.52400000      17.62000000       0.60000000       0.02859249       0.10422697       0.00083605       0.00340616
Ni       0.00000000       5.28600000      19.38200000       0.60000000       0.00576880      -0.00692070       0.01044508      -0.00378567
Ni       1.76200000       3.52400000      19.38200000       0.60000000       0.02968986      -0.01102070       0.10172258      -0.22859529
Ni       1.76200000       5.28600000      17.62000000       0.60000000      -0.00277604       0.17648932       0.05644752       0.09473601
Ni       0.00000000       3.52400000      21.14400000       0.60000000       0.12663766       0.10155737      -0.01175872       0.08421606
Ni       0.00000000       5.28600000      22.90600000       0.60000000       0.28754276       0.07426969      -0.10900771       0.08199345
Ni       1.76200000       5.28600000      21.14400000       0.60000000       0.27763256       0.23427807      -0.03364429       0.05709960
Ni       0.00000000       3.52400000      24.66800000       0.60000000       0.48884236       0.42058877      -0.02241939       0.02249976
Ni       0.00000000       5.28600000      26.43000000       0.60000000       0.65391867       0.45143139      -0.00166600       0.01053065
Ni       1.17466667       2.93666667      28.77933333       0.60000000       0.35287907      -0.68318080      -0.06106888       0.02146292
Ni      -0.58733333       2.93666667      30.54133333       0.60000000       8.52042205      55.73786590     -24.72339025      24.71801732
Ni      -0.58733333       4.69866667      32.30333333       0.60000000       8.52099863      55.73279319     -24.71792251      24.71786390
Ni       1.17466667       2.93666667      32.30333333       0.60000000      -0.10289444      -0.74662929      -0.04775894       0.02469004
Ni       1.17466667       4.69866667      30.54133333       0.60000000       0.34609313      -0.67871758      -0.04042902       0.04029257
Ni      -0.58733333       2.93666667      34.06533333       0.60000000       8.27601468      55.02991100     -24.12993366      24.12479810
Ni      -0.58733333       4.69866667      35.82733333       0.60000000       8.27657971      55.02503914     -24.12448226      24.12329487
Ni       1.17466667       2.93666667      35.82733333       0.60000000      -0.11169399      -0.77252461      -0.02870825       0.00696303
Ni       1.17466667       4.69866667      34.06533333       0.60000000      -0.10027477      -0.74897546      -0.02576422       0.02579918
Ni      -0.58733333       2.93666667      37.58933333       0.60000000       8.31319894      55.04603874     -24.12351660      23.93169353
Ni      -0.58733333       4.69866667      39.35133333       0.60000000       8.79610002      55.78391587     -24.04325731      23.70607142
Ni       1.17466667       2.93666667      39.35133333       0.60000000       0.38207649      -0.61069838      -0.02700059       0.37560193
Ni       1.17466667       4.69866667      37.58933333       0.60000000      -0.06548423      -0.74052340      -0.00595788      -0.12324708
Ni       0.00000000       7.04800000       0.00000000       0.60000000       0.70643638      -0.31205971       0.02863296      -0.31205971
Ni       0.00000000       8.81000000       1.76200000       0.60000000       0.51534525      -0.48544237       0.00369420       0.03363516
Ni       1.76200000       7.04800000       1.76200000       0.60000000       0.07999623       0.09588347      -0.00234911       0.09588347
Ni       1.76200000       8.81000000       0.00000000       0.60000000       0.51534525       0.03363516       0.00369420      -0.48544237
Ni       0.00000000       7.04800000       3.52400000       0.60000000       0.48830314      -0.47526338       0.00609567       0.00287195
Ni       0.00000000       8.81000000       5.28600000       0.60000000       0.48875209      -0.47026262      -0.00471879      -0.00481420
Ni       1.76200000       7.04800000       5.28600000       0.60000000       0.03815484       0.15809457       0.03319084       0.03356750
Ni       1.76200000       8.81000000       3.52400000       0.60000000       0.03774155       0.15282713       0.02409089       0.03107730
Ni       0.00000000       7.04800000       7.04800000       0.60000000       0.48876950      -0.47017330      -0.00471569      -0.00471569
Ni       0.00000000       8.81000000       8.81000000       0.60000000       0.29894685      -0.06764325      -0.07973583      -0.07973583
Ni       1.76200000       7.04800000       8.81000000       0.60000000       0.03420556       0.19799547       0.04275364       0.04441716
Ni       1.76200000       8.81000000       7.04800000       0.60000000       0.03420556       0.19799547       0.04441716       0.04275364
Ni       0.00000000       7.04800000      10.57200000       0.60000000       0.29894616      -0.06788332      -0.07986139      -0.07964843
Ni       0.00000000       8.81000000      12.33400000       0.60000000       0.01496122       0.01635165       0.01133742       0.01134259
Ni       1.76200000       7.04800000      12.33400000       0.60000000       0.00136893       0.12928370       0.07840062       0.06688785
Ni       1.76200000       8.81000000      10.57200000       0.60000000       0.00152909       0.13793171       0.07756752       0.07818899
Ni       0.00000000       7.04800000      14.09600000       0.60000000       0.01753012       0.02139469       0.00975715       0.00769366
Ni       0.00000000       8.81000000      15.85800000       0.60000000      -0.00255619      -0.00845841       0.00134077       0.00168461
Ni       1.76200000       7.04800000      15.85800000       0.60000000      -0.00219500       0.14161742       0.08090962       0.07524934
Ni       1.76200000       8.81000000      14.09600000       0.60000000      -0.00174914       0.16138853       0.09116528       0.08478452
Ni       0.00000000       7.04800000      17.62000000       0.60000000       0.00044712      -0.00111498       0.00447065       0.00573725
Ni       0.00000000       8.81000000      19.38200000       0.60000000      -0.00585413      -0.00460720       0.00048820      -0.00064748
Ni       1.76200000       7.04800000      19.38200000       0.60000000       0.02260422       0.06453622      -0.04274951       0.05819042
Ni       1.76200000       8.81000000      17.62000000       0.60000000       0.00139373       0.08720418       0.02891197      -0.00389466
Ni       0.00000000       7.04800000      21.14400000       0.60000000       0.01080045      -0.02858193       0.01775610      -0.01082025
Ni       0.00000000       8.81000000      22.90600000       0.60000000       0.01151358      -0.01874930       0.01091235      -0.00997728
Ni       1.76200000       7.04800000      22.90600000       0.60000000       0.48046298       0.27000266       0.06130804      -0.11000105
Ni       1.76200000       8.81000000      21.14400000       0.60000000       0.02220533       0.11868584      -0.04421380      -0.05411982
Ni       0.00000000       7.04800000      24.66800000       0.60000000       0.30022443       0.05060313      -0.08973928       0.09169670
Ni       0.00000000       8.81000000      26.43000000       0.60000000       0.30030038       0.05155156      -0.09065659       0.09066290
Ni       1.76200000       8.81000000      24.66800000       0.60000000       0.49730866       0.26824605       0.10167157      -0.14256205
Ni       0.00000000       7.04800000      28.19200000       0.60000000       0.65765003       0.44392026      -0.00242780       0.00203097
Ni       0.00000000       8.81000000      29.95400000       0.60000000       0.65769860       0.44383132      -0.00251666       0.00172111
Ni       1.17466667       6.46066667      32.30333333       0.60000000       0.34679454      -0.68084622      -0.04005340       0.04033745
Ni      -0.58733333       6.46066667      34.06533333       0.60000000       8.52100495      55.73285299     -24.71790137      24.71789095
Ni      -0.58733333       8.22266667      35.82733333       0.60000000       8.52100166      55.73302326     -24.71783847      24.71669195
Ni       1.17466667       6.46066667      35.82733333       0.60000000      -0.09981927      -0.75004199      -0.02576972       0.02686964
Ni       1.17466667       8.22266667      34.06533333       0.60000000       0.34777568      -0.68332570      -0.03954439       0.04009037
Ni      -0.58733333       6.46066667      37.58933333       0.60000000       8.31450721      55.04209256     -24.12640341      23.93963251
Ni      -0.58733333       8.22266667      39.35133333       0.60000000       8.79684039      55.78505643     -24.05136357      23.71424644
Ni       1.17466667       6.46066667      39.35133333       0.60000000       0.38445741      -0.60923132      -0.00950603       0.37657787
Ni       1.17466667       8.22266667      37.58933333       0.60000000      -0.05584647      -0.71672742      -0.02471308      -0.10348040
Ni       0.00000000      10.57200000       0.00000000       0.60000000       0.70644637      -0.31137473       0.02657740      -0.31137473
Ni       0.00000000      12.33400000       1.76200000       0.60000000       0.51122746      -0.48794194      -0.02175652       0.04919298
Ni       1.76200000      10.57200000       1.76200000       0.60000000       0.08009691       0.10327819      -0.00279136       0.10327819
Ni       1.76200000      12.33400000       0.00000000       0.60000000       0.51122747       0.04919298      -0.02175652      -0.48794194
Ni       0.00000000      10.57200000       3.52400000       0.60000000       0.48850975      -0.46932054      -0.00475759      -0.00793262
Ni       0.00000000      12.33400000       5.28600000       0.60000000       0.29911984      -0.07379613      -0.07382196      -0.08019925
Ni       1.76200000      10.57200000       5.28600000       0.60000000       0.03406476       0.19513178       0.03750564       0.04199169
Ni       1.76200000      12.33400000       3.52400000       0.60000000       0.03344735       0.17442708       0.01414155       0.03715019
Ni       0.00000000      10.57200000       7.04800000       0.60000000       0.29894616      -0.06788332      -0.07964843      -0.07986139
Ni       0.00000000      12.33400000       8.81000000       0.60000000       0.01496122       0.01635165       0.01134259       0.01133742
Ni       1.76200000      10.57200000       8.81000000       0.60000000       0.00152909       0.13793171       0.07818899       0.07756752
Ni       1.76200000      12.33400000       7.04800000       0.60000000       0.00136893       0.12928369       0.06688784       0.07840062
Ni       0.00000000      10.57200000      10.57200000       0.60000000       0.01527854       0.01748424       0.01118405       0.01118405
Ni       0.00000000      12.33400000      12.33400000       0.60000000      -0.00255989      -0.01092875       0.00122186       0.00122186
Ni       1.76200000      10.57200000      12.33400000       0.60000000      -0.00120126       0.17463953       0.09575330       0.09351309
Ni       1.76200000      12.33400000      10.57200000       0.60000000      -0.00120126       0.17463951       0.09351307       0.09575331
Ni       0.00000000      10.57200000      14.09600000       0.60000000      -0.00279089      -0.01053752       0.00102565       0.00123191
Ni       0.00000000      12.33400000      15.85800000       0.60000000      -0.00347436      -0.01362525      -0.00016843       0.00033454
Ni       1.76200000      10.57200000      15.85800000       0.60000000      -0.00096832       0.16386209       0.07257329       0.04844314
Ni       1.76200000      12.33400000      14.09600000       0.60000000       0.00082819       0.19785341       0.08823799       0.07956026
Ni       0.00000000      10.57200000      17.62000000       0.60000000      -0.00489860      -0.00876399      -0.00037512       0.00055589
Ni       0.00000000      12.33400000      19.38200000       0.60000000      -0.00408579      -0.01138102      -0.00011856      -0.00035952
Ni       1.76200000      10.57200000      19.38200000       0.60000000      -0.00046748       0.08372878       0.09679980      -0.03331405
Ni       1.76200000      12.33400000      17.62000000       0.60000000      -0.00020217       0.16423248       0.10279021       0.00964352
Ni       0.00000000      10.57200000      21.14400000       0.60000000      -0.00396230      -0.01158894      -0.00071781      -0.00129149
Ni       0.00000000      12.33400000      22.90600000       0.60000000      -0.00214110      -0.01799272      -0.00039625      -0.00067508
Ni       1.76200000      10.57200000      22.90600000       0.60000000       0.02233305       0.18226412       0.06858906      -0.17516730
Ni       1.76200000      12.33400000      21.14400000       0.60000000       0.00214685       0.18021267       0.08095527      -0.07342081
Ni       0.00000000      10.57200000      24.66800000       0.60000000       0.01151671      -0.01716673       0.00972474      -0.00986970
Ni       0.00000000      12.33400000      26.43000000       0.60000000       0.01126148      -0.01612037       0.00972600      -0.00989569
Ni       1.76200000      10.57200000      26.43000000       0.60000000       0.49783926       0.26633552       0.10658685      -0.13839511
Ni       1.76200000      12.33400000      24.66800000       0.60000000       0.02400276       0.22015220       0.11450697      -0.20184141
Ni       0.00000000      10.57200000      28.19200000       0.60000000       0.30026115       0.05161441      -0.09075105       0.09059735
Ni       0.00000000      12.33400000      29.95400000       0.60000000       0.30022037       0.05130115      -0.09105919       0.09076438
Ni       1.76200000      12.33400000      28.19200000       0.60000000       0.49695510       0.25996243       0.11446800      -0.12209325
Ni       0.00000000      10.57200000      31.71600000       0.60000000       0.65774664       0.44352092      -0.00256155       0.00141631
Ni       0.00000000      12.33400000      33.47800000       0.60000000       0.65780017       0.44320389      -0.00264016       0.00104830
Ni       1.17466667       9.98466667      35.82733333       0.60000000       0.34892450      -0.68539169      -0.03834586       0.04136017
Ni      -0.58733333       9.98466667      37.58933333       0.60000000       8.55883200      55.75068612     -24.71907736      24.53319239
Ni      -0.58733333      11.74666667      39.35133333       0.60000000       9.03216289      56.55324125     -24.55414532      24.31961602
Ni       1.17466667       9.98466667      39.35133333       0.60000000       0.39424693      -0.56950783      -0.01335813       0.39527695
Ni       1.17466667      11.74666667      37.58933333       0.60000000       0.39633784      -0.64172358       0.01782633      -0.03789169
Ni       0.00000000      14.09600000       0.00000000       0.60000000       0.50099704      -0.10671897      -0.23271563      -0.10671897
Ni       0.00000000      15.85800000       1.76200000       0.60000000       0.14162186      -0.09284263      -0.08608216      -0.00462455
Ni       1.76200000      14.09600000       1.76200000       0.60000000       0.06276564       0.13089194      -0.00941870       0.13089192
Ni       1.76200000      15.85800000       0.00000000       0.60000000       0.14162185      -0.00462454      -0.08608215      -0.09284263
Ni       0.00000000      14.09600000       3.52400000       0.60000000       0.29360480      -0.08515446      -0.07290277      -0.09733381
Ni       0.00000000      15.85800000       5.28600000       0.60000000       0.03635220       0.10087376       0.00335372       0.01128285
Ni       1.76200000      14.09600000       5.28600000       0.60000000       0.00105426       0.09713125       0.03084925       0.07206263
Ni       1.76200000      15.85800000       3.52400000       0.60000000      -0.00113387       0.09176457       0.02692258       0.05286337
Ni       0.00000000      14.09600000       7.04800000       0.60000000       0.01753012       0.02139469       0.00769366       0.00975715
Ni       0.00000000      15.85800000       8.81000000       0.60000000      -0.00255619      -0.00845840       0.00168461       0.00134077
Ni       1.76200000      14.09600000       8.81000000       0.60000000      -0.00174914       0.16138846       0.08478444       0.09116530
Ni       1.76200000      15.85800000       7.04800000       0.60000000      -0.00219500       0.14161723       0.07524912       0.08090963
Ni       0.00000000      14.09600000      10.57200000       0.60000000      -0.00279089      -0.01053752       0.00123191       0.00102565
Ni       0.00000000      15.85800000      12.33400000       0.60000000      -0.00347436      -0.01362525       0.00033454      -0.00016843
Ni       1.76200000      14.09600000      12.33400000       0.60000000       0.00082819       0.19785339       0.07956022       0.08823803
Ni       1.76200000      15.85800000      10.57200000       0.60000000      -0.00096832       0.16386200       0.04844307       0.07257339
Ni       0.00000000      14.09600000      14.09600000       0.60000000      -0.00297058      -0.01529586       0.00009495       0.00009495
Ni       0.00000000      15.85800000      15.85800000       0.60000000      -0.00243640      -0.01698922       0.00006808       0.00006808
Ni       1.76200000      14.09600000      15.85800000       0.60000000       0.00152949       0.21484981       0.08582153       0.05674945
Ni       1.76200000      15.85800000      14.09600000       0.60000000       0.00152949       0.21484980       0.05674943       0.08582156
Ni       0.00000000      14.09600000      17.62000000       0.60000000      -0.00287556      -0.01560254      -0.00016365       0.00013494
Ni       0.00000000      15.85800000      19.38200000       0.60000000      -0.00180745      -0.01912115      -0.00001381      -0.00018738
Ni       1.76200000      14.09600000      19.38200000       0.60000000       0.00281179       0.19115762       0.13221727      -0.00934900
Ni       1.76200000      15.85800000      17.62000000       0.60000000       0.00306398       0.23496984       0.08802155       0.04476745
Ni       0.00000000      14.09600000      21.14400000       0.60000000      -0.00223048      -0.01768101      -0.00014760      -0.00069578
Ni       0.00000000      15.85800000      22.90600000       0.60000000      -0.00112520      -0.02128293      -0.00000391      -0.00036925
Ni       1.76200000      14.09600000      22.90600000       0.60000000       0.00528102       0.25604788       0.07755277      -0.11595546
Ni       1.76200000      15.85800000      21.14400000       0.60000000       0.00505163       0.25968837       0.09369055      -0.03676057
Ni       0.00000000      14.09600000      24.66800000       0.60000000      -0.00168252      -0.01928152      -0.00014793      -0.00016152
Ni       0.00000000      15.85800000      26.43000000       0.60000000      -0.00187680      -0.01867727       0.00026576       0.00036627
Ni       1.76200000      14.09600000      26.43000000       0.60000000       0.02361748       0.22246422       0.14982891      -0.17749563
Ni       1.76200000      15.85800000      24.66800000       0.60000000       0.00603022       0.27901225       0.08577093      -0.12242505
Ni       0.00000000      14.09600000      28.19200000       0.60000000       0.01118134      -0.01638103       0.00977575      -0.01022369
Ni       0.00000000      15.85800000      29.95400000       0.60000000       0.01168022      -0.01875361       0.00972373      -0.01062019
Ni       1.76200000      14.09600000      29.95400000       0.60000000       0.49521125       0.25849875       0.11859826      -0.10568527
Ni       1.76200000      15.85800000      28.19200000       0.60000000       0.02345234       0.21527169       0.12216884      -0.09776235
Ni       0.00000000      14.09600000      31.71600000       0.60000000       0.30012798       0.05102502      -0.09148506       0.09108083
Ni       0.00000000      15.85800000      33.47800000       0.60000000       0.30004266       0.04985637      -0.09279525       0.09076319
Ni       1.76200000      15.85800000      31.71600000       0.60000000       0.49313795       0.26322985       0.11603154      -0.09254236
Ni       0.00000000      14.09600000      35.24000000       0.60000000       0.65416909       0.45090045      -0.01079442       0.00028789
Ni       0.00000000      15.85800000      37.00200000       0.60000000       0.49042322       0.42148505      -0.02174354       0.01753150
Ni       0.00000000      15.85800000      40.52600000       0.60000000       0.22086419       0.16719302      -0.28417611      -0.17007489
Ni       1.17466667      13.50866667      39.35133333       0.60000000       0.77646460      -0.58519574       0.18713713       0.49478321
Ni       1.76200000      15.85800000      38.76400000       0.60000000       1.00192668      -2.66964439      -3.40861073       2.70816968
Ni       0.00000000      17.62000000       0.00000000       0.60000000       0.00259071      -0.00144708       0.01755897      -0.00144708
Ni       0.00000000      19.38200000       1.76200000       0.60000000       0.00020805       0.00542224      -0.00471797      -0.00965928
Ni       1.76200000      17.62000000       1.76200000       0.60000000      -0.00585659       0.03721923       0.00162945       0.03721943
Ni       1.76200000      19.38200000       0.00000000       0.60000000       0.00020806      -0.00965929      -0.00471798       0.00542224
Ni       0.00000000      17.62000000       3.52400000       0.60000000       0.02859249       0.10422697       0.00340616       0.00083605
Ni       0.00000000      19.38200000       5.28600000       0.60000000       0.00576882      -0.00692075      -0.00378566       0.01044508
Ni       1.76200000      17.62000000       5.28600000       0.60000000      -0.00277602       0.17648962       0.09473641       0.05644752
Ni       1.76200000      19.38200000       3.52400000       0.60000000       0.02968986      -0.01102024      -0.22859523       0.10172301
Ni       0.00000000      17.62000000       7.04800000       0.60000000       0.00044712      -0.00111497       0.00573724       0.00447066
Ni       0.00000000      19.38200000       8.81000000       0.60000000      -0.00585414      -0.00460719      -0.00064748       0.00048820
Ni       1.76200000      17.62000000       8.81000000       0.60000000       0.00139373       0.08720402      -0.00389477       0.02891216
Ni       1.76200000      19.38200000       7.04800000       0.60000000       0.02260425       0.06453635       0.05819035      -0.04274972
Ni       0.00000000      17.62000000      10.57200000       0.60000000      -0.00489860      -0.00876399       0.00055589      -0.00037512
Ni       0.00000000      19.38200000      12.33400000       0.60000000      -0.00408579      -0.01138102      -0.00035952      -0.00011856
Ni       1.76200000      17.62000000      12.33400000       0.60000000      -0.00020217       0.16423242       0.00964350       0.10279028
Ni       1.76200000      19.38200000      10.57200000       0.60000000      -0.00046748       0.08372872      -0.03331402       0.09679990
Ni       0.00000000      17.62000000      14.09600000       0.60000000      -0.00287556      -0.01560254       0.00013494      -0.00016365
Ni       0.00000000      19.38200000      15.85800000       0.60000000      -0.00180745      -0.01912115      -0.00018738      -0.00001381
Ni       1.76200000      17.62000000      15.85800000       0.60000000       0.00306398       0.23496984       0.04476745       0.08802155
Ni       1.76200000      19.38200000      14.09600000       0.60000000       0.00281179       0.19115762      -0.00934900       0.13221727
Ni       0.00000000      17.62000000      17.62000000       0.60000000      -0.00161748      -0.01965814      -0.00002716      -0.00002716
Ni       0.00000000      19.38200000      19.38200000       0.60000000      -0.00062321      -0.02299004      -0.00008844      -0.00008844
Ni       1.76200000      17.62000000      19.38200000       0.60000000       0.00516842       0.27440578       0.06702496       0.02324102
Ni       1.76200000      19.38200000      17.62000000       0.60000000       0.00516842       0.27440578       0.02324102       0.06702496
Ni       0.00000000      17.62000000      21.14400000       0.60000000      -0.00076577      -0.02253150      -0.00001532      -0.00020556
Ni       0.00000000      19.38200000      22.90600000       0.60000000      -0.00060097      -0.02304460       0.00008090      -0.00005400
Ni       1.76200000      17.62000000      22.90600000       0.60000000       0.00617033       0.29525115       0.05882837      -0.07277493
Ni       1.76200000      19.38200000      21.14400000       0.60000000       0.00602889       0.31172556       0.02371675      -0.02010402
Ni       0.00000000      17.62000000      24.66800000       0.60000000      -0.00112258      -0.02139497       0.00024218      -0.00007951
Ni       0.00000000      19.38200000      26.43000000       0.60000000      -0.00222207      -0.01777706       0.00013758       0.00033699
Ni       1.76200000      17.62000000      26.43000000       0.60000000       0.00600381       0.22424450       0.06108461      -0.14267699
Ni       1.76200000      19.38200000      24.66800000       0.60000000       0.00553286       0.27502722       0.02126237      -0.10093798
Ni       0.00000000      17.62000000      28.19200000       0.60000000      -0.00321829      -0.01338993       0.00052893       0.00021767
Ni       0.00000000      19.38200000      29.95400000       0.60000000      -0.00388877      -0.01087013       0.00051389      -0.00033670
Ni       1.76200000      17.62000000      29.95400000       0.60000000       0.03897834       0.18060316       0.01502844       0.00612568
Ni       1.76200000      19.38200000      28.19200000       0.60000000       0.00630510       0.17413004       0.02404018      -0.11625194
Ni       0.00000000      17.62000000      31.71600000       0.60000000       0.01265453      -0.02428696       0.01029053      -0.01090418
Ni       0.00000000      19.38200000      33.47800000       0.60000000       0.00886410      -0.02159499       0.01183329      -0.01788572
Ni       1.76200000      17.62000000      33.47800000       0.60000000       0.48282227       0.22136335       0.02327220      -0.09813209
Ni       1.76200000      19.38200000      31.71600000       0.60000000       0.04037887       0.13788338      -0.09975385      -0.04947427
Ni       0.00000000      17.62000000      35.24000000       0.60000000       0.28781306       0.07174472      -0.08263217       0.10863068
Ni       0.00000000      19.38200000      37.00200000       0.60000000       0.13021908       0.08565517      -0.08348936       0.01152538
Ni       1.76200000      19.38200000      35.24000000       0.60000000       0.28877521       0.17700338      -0.03750608       0.02208284
Ni       0.00000000      17.62000000      38.76400000       0.60000000       0.14415963       0.11641926       0.08302173      -0.13679715
Ni       0.00000000      19.38200000      40.52600000       0.60000000      -0.00071502      -0.01310428       0.00854501       0.01309066
Ni       1.76200000      17.62000000      40.52600000       0.60000000       0.14288913       0.14017574       0.08296669      -0.12017389
Ni       1.76200000      19.38200000      38.76400000       0.60000000       0.17929159       0.20669301      -0.35991594      -0.19736475
Ni       0.00000000      21.14400000       0.00000000       0.60000000      -0.00088412      -0.01384002      -0.00874166      -0.01384002
Ni       0.00000000      22.90600000       1.76200000       0.60000000       0.14220329       0.11803005      -0.08134346       0.13913762
Ni       1.76200000      21.14400000       1.76200000       0.60000000       0.19011409      -0.01492320       0.35932587      -0.01492315
Ni       1.76200000      22.90600000       0.00000000       0.60000000       0.14220329       0.13913762      -0.08134346       0.11803004
Ni       0.00000000      21.14400000       3.52400000       0.60000000       0.12663767       0.10155736       0.08421606      -0.01175872
Ni       0.00000000      22.90600000       5.28600000       0.60000000       0.28754276       0.07426969       0.08199345      -0.10900771
Ni       1.76200000      21.14400000       5.28600000       0.60000000       0.27763256       0.23427831       0.05709936      -0.03364437
Ni       0.00000000      21.14400000       7.04800000       0.60000000       0.01080045      -0.02858190      -0.01082025       0.01775610
Ni       0.00000000      22.90600000       8.81000000       0.60000000       0.01151358      -0.01874929      -0.00997729       0.01091236
Ni       1.76200000      21.14400000       8.81000000       0.60000000       0.02220532       0.11868574      -0.05411976      -0.04421354
Ni       1.76200000      22.90600000       7.04800000       0.60000000       0.48046296       0.27000241      -0.11000077       0.06130806
Ni       0.00000000      21.14400000      10.57200000       0.60000000      -0.00396230      -0.01158894      -0.00129149      -0.00071781
Ni       0.00000000      22.90600000      12.33400000       0.60000000      -0.00214110      -0.01799272      -0.00067508      -0.00039625
Ni       1.76200000      21.14400000      12.33400000       0.60000000       0.00214685       0.18021267      -0.07342081       0.08095527
Ni       1.76200000      22.90600000      10.57200000       0.60000000       0.02233305       0.18226407      -0.17516726       0.06858916
Ni       0.00000000      21.14400000      14.09600000       0.60000000      -0.00223048      -0.01768101      -0.00069578      -0.00014760
Ni       0.00000000      22.90600000      15.85800000       0.60000000      -0.00112520      -0.02128293      -0.00036925      -0.00000391
Ni       1.76200000      21.14400000      15.85800000       0.60000000       0.00505163       0.25968837      -0.03676057       0.09369055
Ni       1.76200000      22.90600000      14.09600000       0.60000000       0.00528102       0.25604786      -0.11595545       0.07755279
Ni       0.00000000      21.14400000      17.62000000       0.60000000      -0.00076577      -0.02253150      -0.00020556      -0.00001532
Ni       0.00000000      22.90600000      19.38200000       0.60000000      -0.00060097      -0.02304460      -0.00005400       0.00008090
Ni       1.76200000      21.14400000      19.38200000       0.60000000       0.00602889       0.31172556      -0.02010402       0.02371675
Ni       1.76200000      22.90600000      17.62000000       0.60000000       0.00617033       0.29525115      -0.07277493       0.05882837
Ni       0.00000000      21.14400000      21.14400000       0.60000000      -0.00041212      -0.02362711      -0.00000009      -0.00000009
Ni       0.00000000      22.90600000      22.90600000       0.60000000      -0.00100681      -0.02174804       0.00004525       0.00004525
Ni       1.76200000      21.14400000      22.90600000       0.60000000       0.00578348       0.30471014      -0.01706372      -0.05559521
Ni       1.76200000      22.90600000      21.14400000       0.60000000       0.00578348       0.30471014      -0.05559521      -0.01706372
Ni       0.00000000      21.14400000      24.66800000       0.60000000      -0.00130996      -0.02080901       0.00004763       0.00013570
Ni       0.00000000      22.90600000      26.43000000       0.60000000      -0.00249154      -0.01699981      -0.00010654       0.00019727
Ni       1.76200000      21.14400000      26.43000000       0.60000000       0.00376041       0.22222855      -0.01965545      -0.12087856
Ni       1.76200000      22.90600000      24.66800000       0.60000000       0.00452448       0.26289188      -0.05486578      -0.08637755
Ni       0.00000000      21.14400000      28.19200000       0.60000000      -0.00357515      -0.01319550       0.00001174       0.00021276
Ni       0.00000000      22.90600000      29.95400000       0.60000000      -0.00465825      -0.00965615      -0.00000546       0.00017361
Ni       1.76200000      21.14400000      29.95400000       0.60000000       0.00309477       0.16374218      -0.02176584      -0.10302585
Ni       1.76200000      22.90600000      28.19200000       0.60000000       0.00085212       0.17844315      -0.04099560      -0.12460093
Ni       0.00000000      21.14400000      31.71600000       0.60000000      -0.00506469      -0.00723155       0.00006564       0.00012939
Ni       0.00000000      22.90600000      33.47800000       0.60000000       0.00004171       0.00033059      -0.00389823      -0.00400998
Ni       1.76200000      21.14400000      33.47800000       0.60000000       0.02930530       0.03333509      -0.03242790      -0.05171289
Ni       1.76200000      22.90600000      31.71600000       0.60000000       0.00076798       0.11961427      -0.01264053      -0.08955399
Ni       0.00000000      21.14400000      35.24000000       0.60000000       0.00413950      -0.00079224       0.00512516      -0.01152989
Ni       0.00000000      22.90600000      37.00200000       0.60000000       0.03083007       0.09652345       0.00321907      -0.00494822
Ni       1.76200000      21.14400000      37.00200000       0.60000000       0.02620752       0.06973992       0.13292666      -0.05902245
Ni       1.76200000      22.90600000      35.24000000       0.60000000      -0.00101272       0.08636431      -0.00734477      -0.05371931
Ni       0.00000000      21.14400000      38.76400000       0.60000000       0.00100269       0.00331443       0.00533542       0.01088686
Ni       0.00000000      22.90600000      40.52600000       0.60000000       0.00195873       0.00256541      -0.00191096       0.00756092
Ni       1.76200000      21.14400000      40.52600000       0.60000000       0.00102079      -0.01082412       0.00514650      -0.00342423
Ni       1.76200000      22.90600000      38.76400000       0.60000000      -0.00569065       0.03837193      -0.00038658      -0.03875441
Ni       0.00000000      24.66800000       0.00000000       0.60000000       0.07873643       0.07214105       0.54340914       0.07214105
Ni       1.76200000      24.66800000       1.76200000       0.60000000       1.00251454      -2.67888946       3.34251012      -2.67888946
Ni       0.00000000      24.66800000       3.52400000       0.60000000       0.48884236       0.42058877       0.02249976      -0.02241939
Ni       0.00000000      26.43000000       5.28600000       0.60000000       0.65391867       0.45143139       0.01053065      -0.00166600
Ni       0.00000000      24.66800000       7.04800000       0.60000000       0.30022443       0.05060313       0.09169670      -0.08973928
Ni       0.00000000      26.43000000       8.81000000       0.60000000       0.30030038       0.05155156       0.09066290      -0.09065659
Ni       1.76200000      24.66800000       8.81000000       0.60000000       0.49730865       0.26824600      -0.14256198       0.10167159
Ni       0.00000000      24.66800000      10.57200000       0.60000000       0.01151671      -0.01716673      -0.00986970       0.00972474
Ni       0.00000000      26.43000000      12.33400000       0.60000000       0.01126148      -0.01612037      -0.00989569       0.00972600
Ni       1.76200000      24.66800000      12.33400000       0.60000000       0.02400275       0.22015216      -0.20184138       0.11450701
Ni       1.76200000      26.43000000      10.57200000       0.60000000       0.49783926       0.26633550      -0.13839508       0.10658686
Ni       0.00000000      24.66800000      14.09600000       0.60000000      -0.00168252      -0.01928152      -0.00016152      -0.00014793
Ni       0.00000000      26.43000000      15.85800000       0.60000000      -0.00187680      -0.01867727       0.00036627       0.00026576
Ni       1.76200000      24.66800000      15.85800000       0.60000000       0.00603022       0.27901224      -0.12242505       0.08577094
Ni       1.76200000      26.43000000      14.09600000       0.60000000       0.02361748       0.22246421      -0.17749561       0.14982892
Ni       0.00000000      24.66800000      17.62000000       0.60000000      -0.00112258      -0.02139497      -0.00007951       0.00024218
Ni       0.00000000      26.43000000      19.38200000       0.60000000      -0.00222207      -0.01777706       0.00033699       0.00013758
Ni       1.76200000      24.66800000      19.38200000       0.60000000       0.00553286       0.27502722      -0.10093798       0.02126237
Ni       1.76200000      26.43000000      17.62000000       0.60000000       0.00600381       0.22424450      -0.14267699       0.06108461
Ni       0.00000000      24.66800000      21.14400000       0.60000000      -0.00130996      -0.02080901       0.00013570       0.00004763
Ni       0.00000000      26.43000000      22.90600000       0.60000000      -0.00249154      -0.01699981       0.00019727      -0.00010654
Ni       1.76200000      24.66800000      22.90600000       0.60000000       0.00452448       0.26289188      -0.08637755      -0.05486578
Ni       1.76200000      26.43000000      21.14400000       0.60000000       0.00376041       0.22222855      -0.12087856      -0.01965545
Ni       0.00000000      24.66800000      24.66800000       0.60000000      -0.00209837      -0.01825682       0.00001803       0.00001803
Ni       0.00000000      26.43000000      26.43000000       0.60000000      -0.00332505      -0.01429021       0.00006041       0.00006041
Ni       1.76200000      24.66800000      26.43000000       0.60000000       0.00234058       0.21248787      -0.07878337      -0.10522682
Ni       1.76200000      26.43000000      24.66800000       0.60000000       0.00234058       0.21248787      -0.10522682      -0.07878337
Ni       0.00000000      24.66800000      28.19200000       0.60000000      -0.00369148      -0.01310623      -0.00008920       0.00022888
Ni       0.00000000      26.43000000      29.95400000       0.60000000       0.00102153      -0.00357726      -0.00383915      -0.00368006
Ni       1.76200000      24.66800000      29.95400000       0.60000000      -0.00130694       0.13986685      -0.03653112      -0.10550410
Ni       1.76200000      26.43000000      28.19200000       0.60000000      -0.00016687       0.16986755      -0.07887986      -0.10002580
Ni       0.00000000      24.66800000      31.71600000       0.60000000       0.00038770      -0.00129997      -0.00383703      -0.00379083
Ni       0.00000000      26.43000000      33.47800000       0.60000000       0.04242283       0.08511465       0.00559659       0.00513759
Ni       1.76200000      24.66800000      33.47800000       0.60000000      -0.00345169       0.10819586      -0.02266602      -0.07088293
Ni       1.76200000      26.43000000      31.71600000       0.60000000      -0.00295580       0.12282755      -0.04212088      -0.08706498
Ni       0.00000000      24.66800000      35.24000000       0.60000000       0.04133913       0.08662675       0.00553337       0.00182297
Ni       0.00000000      26.43000000      37.00200000       0.60000000       0.29777320      -0.09920277       0.06573598       0.08866910
Ni       1.76200000      24.66800000      37.00200000       0.60000000      -0.00098499       0.08512281      -0.01712196      -0.05608343
Ni       1.76200000      26.43000000      35.24000000       0.60000000       0.00050049       0.10145900      -0.03396472      -0.06051431
Ni       0.00000000      24.66800000      38.76400000       0.60000000       0.15306335      -0.00720231       0.18381297       0.10683922
Ni       0.00000000      26.43000000      40.52600000       0.60000000       8.44746821      26.00007438     -25.37678352     -51.45214368
Ni       1.76200000      24.66800000      40.52600000       0.60000000       0.11022859      -0.14842476       0.25165846       0.13669257
Ni       1.76200000      26.43000000      38.76400000       0.60000000       0.03389372       0.02642849       0.11973408       0.08764642
Ni      -0.58733333      27.01733333      -0.58733333       0.60000000      15.68873061      25.90148750      52.45115089      25.90148750
Ni      -0.58733333      28.77933333       1.17466667       0.60000000       8.54057652      56.05734688      24.74026780     -24.83069506
Ni       1.17466667      27.01733333       1.17466667       0.60000000       0.44807696      -0.80818348      -0.17346183      -0.80818348
Ni       1.17466667      28.77933333      -0.58733333       0.60000000       8.54057652     -24.83069506      24.74026780      56.05734688
Ni       1.17466667      28.77933333       2.93666667       0.60000000       0.35287907      -0.68318080       0.02146292      -0.06106888
Ni       0.00000000      28.19200000       7.04800000       0.60000000       0.65765003       0.44392026       0.00203097      -0.00242780
Ni       0.00000000      29.95400000       8.81000000       0.60000000       0.65769860       0.44383132       0.00172111      -0.00251666
Ni       0.00000000      28.19200000      10.57200000       0.60000000       0.30026115       0.05161441       0.09059735      -0.09075105
Ni       0.00000000      29.95400000      12.33400000       0.60000000       0.30022037       0.05130115       0.09076438      -0.09105919
Ni       1.76200000      28.19200000      12.33400000       0.60000000       0.49695509       0.25996242      -0.12209324       0.11446801
Ni       0.00000000      28.19200000      14.09600000       0.60000000       0.01118134      -0.01638103      -0.01022369       0.00977575
Ni       0.00000000      29.95400000      15.85800000       0.60000000       0.01168022      -0.01875361      -0.01062019       0.00972373
Ni       1.76200000      28.19200000      15.85800000       0.60000000       0.02345234       0.21527168      -0.09776234       0.12216884
Ni       1.76200000      29.95400000      14.09600000       0.60000000       0.49521125       0.25849874      -0.10568526       0.11859826
Ni       0.00000000      28.19200000      17.62000000       0.60000000      -0.00321829      -0.01338993       0.00021767       0.00052893
Ni       0.00000000      29.95400000      19.38200000       0.60000000      -0.00388877      -0.01087013      -0.00033670       0.00051389
Ni       1.76200000      28.19200000      19.38200000       0.60000000       0.00630510       0.17413004      -0.11625194       0.02404018
Ni       1.76200000      29.95400000      17.62000000       0.60000000       0.03897834       0.18060316       0.00612569       0.01502845
Ni       0.00000000      28.19200000      21.14400000       0.60000000      -0.00357515      -0.01319550       0.00021276       0.00001174
Ni       0.00000000      29.95400000      22.90600000       0.60000000      -0.00465825      -0.00965615       0.00017361      -0.00000546
Ni       1.76200000      28.19200000      22.90600000       0.60000000       0.00085212       0.17844315      -0.12460093      -0.04099560
Ni       1.76200000      29.95400000      21.14400000       0.60000000       0.00309477       0.16374218      -0.10302585      -0.02176584
Ni       0.00000000      28.19200000      24.66800000       0.60000000      -0.00369148      -0.01310623       0.00022888      -0.00008920
Ni       0.00000000      29.95400000      26.43000000       0.60000000       0.00102153      -0.00357726      -0.00368006      -0.00383915
Ni       1.76200000      28.19200000      26.43000000       0.60000000      -0.00016687       0.16986755      -0.10002580      -0.07887986
Ni       1.76200000      29.95400000      24.66800000       0.60000000      -0.00130694       0.13986685      -0.10550410      -0.03653112
Ni       0.00000000      28.19200000      28.19200000       0.60000000       0.00124667      -0.00429604      -0.00373936      -0.00373936
Ni       0.00000000      29.95400000      29.95400000       0.60000000       0.04324019       0.08582689       0.00572340       0.00572340
Ni       1.76200000      28.19200000      29.95400000       0.60000000      -0.00229284       0.14465943      -0.07378962      -0.08637585
Ni       1.76200000      29.95400000      28.19200000       0.60000000      -0.00229284       0.14465943      -0.08637585      -0.07378962
Ni       0.00000000      28.19200000      31.71600000       0.60000000       0.04304937       0.08583346       0.00564686       0.00560279
Ni       0.00000000      29.95400000      33.47800000       0.60000000       0.30400575      -0.09329704       0.06507612       0.06452788
Ni       1.76200000      28.19200000      33.47800000       0.60000000       0.00107292       0.11318065      -0.04815156      -0.07118041
Ni       1.76200000      29.95400000      31.71600000       0.60000000       0.00135723       0.12567596      -0.06681035      -0.07259405
Ni       0.00000000      28.19200000      35.24000000       0.60000000       0.30360878      -0.09273585       0.06588611       0.06486783
Ni       0.00000000      29.95400000      37.00200000       0.60000000       0.48717337      -0.46918201       0.00607781       0.01725651
Ni       1.76200000      28.19200000      37.00200000       0.60000000       0.03183419       0.17772955      -0.01364418      -0.02097430
Ni       1.76200000      29.95400000      35.24000000       0.60000000       0.03400607       0.19298555      -0.02914843      -0.03986479
Ni       0.00000000      28.19200000      38.76400000       0.60000000       0.40197416      -0.36699491      -0.01185055       0.54942762
Ni       0.00000000      29.95400000      40.52600000       0.60000000       8.76398964      23.53428854     -22.95736453     -53.19246700
Ni       1.76200000      28.19200000      40.52600000       0.60000000       8.30203875      26.75868129     -26.68512518     -53.35763315
Ni       1.76200000      29.95400000      38.76400000       0.60000000      -0.05759258       0.12082976       0.03422435       0.65591379
Ni      -0.58733333      30.54133333      -0.58733333       0.60000000      15.50527792      26.14471646      51.98206790      26.14471646
Ni      -0.58733333      32.30333333       1.17466667       0.60000000       8.29300510      55.36023821      24.16791598     -24.25027843
Ni       1.17466667      30.54133333       1.17466667       0.60000000      -0.18399938      -0.71008850       0.04655654      -0.71008850
Ni       1.17466667      32.30333333      -0.58733333       0.60000000       8.29300510     -24.25027843      24.16791598      55.36023821
Ni      -0.58733333      30.54133333       2.93666667       0.60000000       8.52042205      55.73786590      24.71801732     -24.72339025
Ni      -0.58733333      32.30333333       4.69866667       0.60000000       8.52099863      55.73279319      24.71786390     -24.71792251
Ni       1.17466667      30.54133333       4.69866667       0.60000000       0.34609313      -0.67871758       0.04029257      -0.04042902
Ni       1.17466667      32.30333333       2.93666667       0.60000000      -0.10289444      -0.74662929       0.02469004      -0.04775894
Ni       1.17466667      32.30333333       6.46066667       0.60000000       0.34679454      -0.68084622       0.04033745      -0.04005340
Ni       0.00000000      31.71600000      10.57200000       0.60000000       0.65774664       0.44352092       0.00141631      -0.00256155
Ni       0.00000000      33.47800000      12.33400000       0.60000000       0.65780017       0.44320389       0.00104830      -0.00264016
Ni       0.00000000      31.71600000      14.09600000       0.60000000       0.30012798       0.05102502       0.09108083      -0.09148506
Ni       0.00000000      33.47800000      15.85800000       0.60000000       0.30004266       0.04985637       0.09076319      -0.09279525
Ni       1.76200000      31.71600000      15.85800000       0.60000000       0.49313795       0.26322985      -0.09254236       0.11603154
Ni       0.00000000      31.71600000      17.62000000       0.60000000       0.01265453      -0.02428696      -0.01090418       0.01029053
Ni       0.00000000      33.47800000      19.38200000       0.60000000       0.00886410      -0.02159499      -0.01788572       0.01183329
Ni       1.76200000      31.71600000      19.38200000       0.60000000       0.04037887       0.13788338      -0.04947427      -0.09975385
Ni       1.76200000      33.47800000      17.62000000       0.60000000       0.48282227       0.22136335      -0.09813209       0.02327220
Ni       0.00000000      31.71600000      21.14400000       0.60000000      -0.00506469      -0.00723155       0.00012939       0.00006564
Ni       0.00000000      33.47800000      22.90600000       0.60000000       0.00004171       0.00033059      -0.00400998      -0.00389823
Ni       1.76200000      31.71600000      22.90600000       0.60000000       0.00076798       0.11961427      -0.08955399      -0.01264053
Ni       1.76200000      33.47800000      21.14400000       0.60000000       0.02930530       0.03333509      -0.05171289      -0.03242790
Ni       0.00000000      31.71600000      24.66800000       0.60000000       0.00038770      -0.00129997      -0.00379083      -0.00383703
Ni       0.00000000      33.47800000      26.43000000       0.60000000       0.04242283       0.08511465       0.00513759       0.00559659
Ni       1.76200000      31.71600000      26.43000000       0.60000000      -0.00295580       0.12282755      -0.08706498      -0.04212088
Ni       1.76200000      33.47800000      24.66800000       0.60000000      -0.00345169       0.10819586      -0.07088293      -0.02266602
Ni       0.00000000      31.71600000      28.19200000       0.60000000       0.04304937       0.08583346       0.00560279       0.00564686
Ni       0.00000000      33.47800000      29.95400000       0.60000000       0.30400575      -0.09329704       0.06452788       0.06507612
Ni       1.76200000      31.71600000      29.95400000       0.60000000       0.00135723       0.12567596      -0.07259405      -0.06681035
Ni       1.76200000      33.47800000      28.19200000       0.60000000       0.00107292       0.11318065      -0.07118041      -0.04815156
Ni       0.00000000      31.71600000      31.71600000       0.60000000       0.30410613      -0.09359665       0.06459911       0.06459911
Ni       0.00000000      33.47800000      33.47800000       0.60000000       0.48941400      -0.47057705       0.00407258       0.00407258
Ni       1.76200000      31.71600000      33.47800000       0.60000000       0.03427611       0.19865331      -0.04034688      -0.04208975
Ni       1.76200000      33.47800000      31.71600000       0.60000000       0.03427611       0.19865331      -0.04208975      -0.04034688
Ni       0.00000000      31.71600000      35.24000000       0.60000000       0.48933038      -0.47056811       0.00403617       0.00411989
Ni       0.00000000      33.47800000      37.00200000       0.60000000       0.48694423      -0.47434411      -0.00453608       0.00656882
Ni       1.76200000      31.71600000      37.00200000       0.60000000       0.03556210       0.15154512      -0.01896399      -0.01418872
Ni       1.76200000      33.47800000      35.24000000       0.60000000       0.03813974       0.16467217      -0.03146261      -0.03266590
Ni       0.00000000      31.71600000      38.76400000       0.60000000       0.39859519      -0.31657915      -0.02934647       0.58286231
Ni       0.00000000      33.47800000      40.52600000       0.60000000       8.75834145      23.58672723     -23.00862442     -53.16856323
Ni       1.76200000      31.71600000      40.52600000       0.60000000       8.31646213      24.19197322     -24.07704443     -55.02926761
Ni       1.76200000      33.47800000      38.76400000       0.60000000      -0.06580341       0.15246236      -0.00341832       0.72645547
Ni      -0.58733333      34.06533333      -0.58733333       0.60000000      15.50377860      26.15208993      51.96609195      26.15208993
Ni      -0.58733333      35.82733333       1.17466667       0.60000000       8.29226590      55.35939246      24.15845295     -24.24207993
Ni       1.17466667      34.06533333       1.17466667       0.60000000      -0.20163588      -0.71731191       0.00888314      -0.71731191
Ni       1.17466667      35.82733333      -0.58733333       0.60000000       8.29226590     -24.24207993      24.15845295      55.35939246
Ni      -0.58733333      34.06533333       2.93666667       0.60000000       8.27601468      55.02991100      24.12479810     -24.12993366
Ni      -0.58733333      35.82733333       4.69866667       0.60000000       8.27657971      55.02503914      24.12329487     -24.12448226
Ni       1.17466667      34.06533333       4.69866667       0.60000000      -0.10027477      -0.74897546       0.02579918      -0.02576422
Ni       1.17466667      35.82733333       2.93666667       0.60000000      -0.11169399      -0.77252461       0.00696303      -0.02870825
Ni      -0.58733333      34.06533333       6.46066667       0.60000000       8.52100495      55.73285299      24.71789095     -24.71790137
Ni      -0.58733333      35.82733333       8.22266667       0.60000000       8.52100166      55.73302326      24.71669195     -24.71783847
Ni       1.17466667      34.06533333       8.22266667       0.60000000       0.34777568      -0.68332570       0.04009037      -0.03954439
Ni       1.17466667      35.82733333       6.46066667       0.60000000      -0.09981927      -0.75004199       0.02686964      -0.02576972
Ni       1.17466667      35.82733333       9.98466667       0.60000000       0.34892450      -0.68539169       0.04136017      -0.03834586
Ni       0.00000000      35.24000000      14.09600000       0.60000000       0.65416909       0.45090045       0.00028789      -0.01079442
Ni       0.00000000      37.00200000      15.85800000       0.60000000       0.49042322       0.42148505       0.01753150      -0.02174354
Ni       0.00000000      35.24000000      17.62000000       0.60000000       0.28781306       0.07174472       0.10863068      -0.08263217
Ni       0.00000000      37.00200000      19.38200000       0.60000000       0.13021908       0.08565517       0.01152538      -0.08348936
Ni       1.76200000      35.24000000      19.38200000       0.60000000       0.28877521       0.17700338       0.02208284      -0.03750608
Ni       0.00000000      35.24000000      21.14400000       0.60000000       0.00413950      -0.00079224      -0.01152989       0.00512516
Ni       0.00000000      37.00200000      22.90600000       0.60000000       0.03083007       0.09652345      -0.00494822       0.00321907
Ni       1.76200000      35.24000000      22.90600000       0.60000000      -0.00101272       0.08636431      -0.05371931      -0.00734477
Ni       1.76200000      37.00200000      21.14400000       0.60000000       0.02620752       0.06973992      -0.05902245       0.13292666
Ni       0.00000000      35.24000000      24.66800000       0.60000000       0.04133913       0.08662675       0.00182297       0.00553337
Ni       0.00000000      37.00200000      26.43000000       0.60000000       0.29777320      -0.09920277       0.08866910       0.06573598
Ni       1.76200000      35.24000000      26.43000000       0.60000000       0.00050049       0.10145900      -0.06051431      -0.03396472
Ni       1.76200000      37.00200000      24.66800000       0.60000000      -0.00098499       0.08512281      -0.05608343      -0.01712196
Ni       0.00000000      35.24000000      28.19200000       0.60000000       0.30360878      -0.09273585       0.06486783       0.06588611
Ni       0.00000000      37.00200000      29.95400000       0.60000000       0.48717337      -0.46918201       0.01725651       0.00607781
Ni       1.76200000      35.24000000      29.95400000       0.60000000       0.03400607       0.19298555      -0.03986479      -0.02914843
Ni       1.76200000      37.00200000      28.19200000       0.60000000       0.03183419       0.17772955      -0.02097430      -0.01364418
Ni       0.00000000      35.24000000      31.71600000       0.60000000       0.48933038      -0.47056811       0.00411989       0.00403617
Ni       0.00000000      37.00200000      33.47800000       0.60000000       0.48694423      -0.47434411       0.00656882      -0.00453608
Ni       1.76200000      35.24000000      33.47800000       0.60000000       0.03813974       0.16467217      -0.03266590      -0.03146261
Ni       1.76200000      37.00200000      31.71600000       0.60000000       0.03556210       0.15154512      -0.01418872      -0.01896399
Ni       0.00000000      35.24000000      35.24000000       0.60000000       0.48889806      -0.47551542      -0.00651761      -0.00651761
Ni       0.00000000      37.00200000      37.00200000       0.60000000       0.48474854      -0.47268702       0.00898119       0.00898119
Ni       1.76200000      35.24000000      37.00200000       0.60000000       0.03511474       0.13922968      -0.01523500      -0.00408998
Ni       1.76200000      37.00200000      35.24000000       0.60000000       0.03511474       0.13922968      -0.00408998      -0.01523500
Ni       0.00000000      35.24000000      38.76400000       0.60000000       0.39848903      -0.31628798      -0.02927502       0.58291295
Ni       0.00000000      37.00200000      40.52600000       0.60000000       8.76303948      23.58961818     -23.04521312     -53.18224356
Ni       1.76200000      35.24000000      40.52600000       0.60000000       8.31073604      24.24408600     -24.12926449     -55.00651505
Ni       1.76200000      37.00200000      38.76400000       0.60000000      -0.06761914       0.14280554       0.00944915       0.73185923
Ni      -0.58733333      37.58933333      -0.58733333       0.60000000      15.53795918      26.13501306      51.76377591      26.13501306
Ni      -0.58733333      39.35133333       1.17466667       0.60000000       8.80284328      56.05112951      23.72849045     -24.11714008
Ni       1.17466667      37.58933333       1.17466667       0.60000000      -0.15874267      -0.68561990      -0.15437535      -0.68561990
Ni       1.17466667      39.35133333      -0.58733333       0.60000000       8.80284328     -24.11714008      23.72849045      56.05112951
Ni      -0.58733333      37.58933333       2.93666667       0.60000000       8.31319894      55.04603874      23.93169353     -24.12351660
Ni      -0.58733333      39.35133333       4.69866667       0.60000000       8.79610002      55.78391587      23.70607142     -24.04325731
Ni       1.17466667      37.58933333       4.69866667       0.60000000      -0.06548423      -0.74052340      -0.12324708      -0.00595788
Ni       1.17466667      39.35133333       2.93666667       0.60000000       0.38207649      -0.61069838       0.37560193      -0.02700059
Ni      -0.58733333      37.58933333       6.46066667       0.60000000       8.31450721      55.04209256      23.93963251     -24.12640341
Ni      -0.58733333      39.35133333       8.22266667       0.60000000       8.79684039      55.78505643      23.71424644     -24.05136357
Ni       1.17466667      37.58933333       8.22266667       0.60000000      -0.05584647      -0.71672742      -0.10348040      -0.02471308
Ni       1.17466667      39.35133333       6.46066667       0.60000000       0.38445741      -0.60923132       0.37657787      -0.00950603
Ni      -0.58733333      37.58933333       9.98466667       0.60000000       8.55883200      55.75068612      24.53319239     -24.71907736
Ni      -0.58733333      39.35133333      11.74666667       0.60000000       9.03216289      56.55324125      24.31961602     -24.55414532
Ni       1.17466667      37.58933333      11.74666667       0.60000000       0.39633784      -0.64172358      -0.03789169       0.01782633
Ni       1.17466667      39.35133333       9.98466667       0.60000000       0.39424693      -0.56950783       0.39527695      -0.01335813
Ni       0.00000000      40.52600000      15.85800000       0.60000000       0.22086419       0.16719302      -0.17007489      -0.28417611
Ni       1.76200000      38.76400000      15.85800000       0.60000000       1.00192668      -2.66964439       2.70816968      -3.40861073
Ni       1.17466667      39.35133333      13.50866667       0.60000000       0.77646460      -0.58519574       0.49478321       0.18713713
Ni       0.00000000      38.76400000      17.62000000       0.60000000       0.14415963       0.11641926      -0.13679715       0.08302173
Ni       0.00000000      40.52600000      19.38200000       0.60000000      -0.00071502      -0.01310428       0.01309066       0.00854501
Ni       1.76200000      38.76400000      19.38200000       0.60000000       0.17929159       0.20669301      -0.19736475      -0.35991594
Ni       1.76200000      40.52600000      17.62000000       0.60000000       0.14288913       0.14017574      -0.12017389       0.08296669
Ni       0.00000000      38.76400000      21.14400000       0.60000000       0.00100269       0.00331443       0.01088686       0.00533542
Ni       0.00000000      40.52600000      22.90600000       0.60000000       0.00195873       0.00256541       0.00756092      -0.00191096
Ni       1.76200000      38.76400000      22.90600000       0.60000000      -0.00569065       0.03837193      -0.03875441      -0.00038658
Ni       1.76200000      40.52600000      21.14400000       0.60000000       0.00102079      -0.01082412      -0.00342423       0.00514650
Ni       0.00000000      38.76400000      24.66800000       0.60000000       0.15306335      -0.00720231       0.10683922       0.18381297
Ni       0.00000000      40.52600000      26.43000000       0.60000000       8.44746821      26.00007438     -51.45214368     -25.37678352
Ni       1.76200000      38.76400000      26.43000000       0.60000000       0.03389372       0.02642849       0.08764642       0.11973408
Ni       1.76200000      40.52600000      24.66800000       0.60000000       0.11022859      -0.14842476       0.13669257       0.25165846
Ni       0.00000000      38.76400000      28.19200000       0.60000000       0.40197416      -0.36699491       0.54942762      -0.01185055
Ni       0.00000000      40.52600000      29.95400000       0.60000000       8.76398964      23.53428854     -53.19246700     -22.95736453
Ni       1.76200000      38.76400000      29.95400000       0.60000000      -0.05759258       0.12082976       0.65591379       0.03422435
Ni       1.76200000      40.52600000      28.19200000       0.60000000       8.30203875      26.75868129     -53.35763315     -26.68512518
Ni       0.00000000      38.76400000      31.71600000       0.60000000       0.39859519      -0.31657915       0.58286231      -0.02934647
Ni       0.00000000      40.52600000      33.47800000       0.60000000       8.75834145      23.58672723     -53.16856323     -23.00862442
Ni       1.76200000      38.76400000      33.47800000       0.60000000      -0.06580341       0.15246236       0.72645547      -0.00341832
Ni       1.76200000      40.52600000      31.71600000       0.60000000       8.31646213      24.19197322     -55.02926761     -24.07704443
Ni       0.00000000      38.76400000      35.24000000       0.60000000       0.39848903      -0.31628798       0.58291295      -0.02927502
Ni       0.00000000      40.52600000      37.00200000       0.60000000       8.76303948      23.58961818     -53.18224356     -23.04521312
Ni       1.76200000      38.76400000      37.00200000       0.60000000      -0.06761914       0.14280554       0.73185923       0.00944915
Ni       1.76200000      40.52600000      35.24000000       0.60000000       8.31073604      24.24408600     -55.00651505     -24.12926449
Ni       0.00000000      38.76400000      38.76400000       0.60000000       0.34004841      -0.14687710       0.29039025       0.29039025
Ni       0.00000000      40.52600000      40.52600000       0.60000000       1.28121316      -5.53123658      -0.19701676      -0.19701676
Ni       1.76200000      38.76400000      40.52600000       0.60000000       8.43404425      24.34257467     -24.77066222     -55.85140582
Ni       1.76200000      40.52600000      38.76400000       0.60000000       8.43404425      24.34257467     -55.85140582     -24.77066222
Ni       3.52400000       0.00000000       0.00000000       0.60000000       0.70642851       0.02771620      -0.31156455      -0.31156455
Ni       3.52400000       1.76200000       1.76200000       0.60000000       0.07981174      -0.00479277       0.08755420       0.08755420
Ni       5.28600000       0.00000000       1.76200000       0.60000000       0.51526372       0.00362544      -0.48509577       0.03366592
Ni       5.28600000       1.76200000       0.00000000       0.60000000       0.51526372       0.00362544       0.03366592      -0.48509577
Ni       3.52400000       0.00000000       3.52400000       0.60000000       0.48795062       0.00293525      -0.47390886       0.00293525
Ni       3.52400000       1.76200000       5.28600000       0.60000000       0.03735460       0.02136654       0.13515725       0.01870924
Ni       5.28600000       0.00000000       5.28600000       0.60000000       0.48844642       0.00600695      -0.47595398       0.00600695
Ni       5.28600000       1.76200000       3.52400000       0.60000000       0.03735460       0.01870924       0.13515725       0.02136654
Ni       3.52400000       0.00000000       7.04800000       0.60000000       0.48830314       0.00287195      -0.47526338       0.00609567
Ni       3.52400000       1.76200000       8.81000000       0.60000000       0.03774155       0.03107730       0.15282714       0.02409090
Ni       5.28600000       0.00000000       8.81000000       0.60000000       0.48875209      -0.00481420      -0.47026262      -0.00471879
Ni       5.28600000       1.76200000       7.04800000       0.60000000       0.03815484       0.03356750       0.15809458       0.03319085
Ni       3.52400000       0.00000000      10.57200000       0.60000000       0.48850975      -0.00793262      -0.46932055      -0.00475759
Ni       3.52400000       1.76200000      12.33400000       0.60000000       0.03344735       0.03715015       0.17442723       0.01414178
Ni       5.28600000       0.00000000      12.33400000       0.60000000       0.29911984      -0.08019924      -0.07379613      -0.07382196
Ni       5.28600000       1.76200000      10.57200000       0.60000000       0.03406475       0.04199167       0.19513187       0.03750572
Ni       3.52400000       0.00000000      14.09600000       0.60000000       0.29360480      -0.09733380      -0.08515448      -0.07290276
Ni       3.52400000       1.76200000      15.85800000       0.60000000      -0.00113378       0.05286267       0.09176256       0.02692065
Ni       5.28600000       0.00000000      15.85800000       0.60000000       0.03635216       0.01128288       0.10087394       0.00335377
Ni       5.28600000       1.76200000      14.09600000       0.60000000       0.00105422       0.07206200       0.09713008       0.03084794
Ni       3.52400000       0.00000000      17.62000000       0.60000000       0.02859254       0.00083591       0.10422687       0.00340598
Ni       3.52400000       1.76200000      19.38200000       0.60000000       0.02968994       0.10174060      -0.01100184      -0.22859266
Ni       5.28600000       0.00000000      19.38200000       0.60000000       0.00576943       0.01044523      -0.00692308      -0.00378553
Ni       5.28600000       1.76200000      17.62000000       0.60000000      -0.00277539       0.05644756       0.17650148       0.09475229
Ni       3.52400000       0.00000000      21.14400000       0.60000000       0.12663776      -0.01175882       0.10155705       0.08421621
Ni       5.28600000       0.00000000      22.90600000       0.60000000       0.28754272      -0.10900778       0.07426971       0.08199333
Ni       5.28600000       1.76200000      21.14400000       0.60000000       0.27763248      -0.03364782       0.23428821       0.05708955
Ni       3.52400000       0.00000000      24.66800000       0.60000000       0.48884236      -0.02241939       0.42058876       0.02249977
Ni       5.28600000       0.00000000      26.43000000       0.60000000       0.65391867      -0.00166600       0.45143139       0.01053065
Ni       2.93666667       1.17466667      28.77933333       0.60000000       0.35287907      -0.06106888      -0.68318080       0.02146292
Ni       2.93666667      -0.58733333      30.54133333       0.60000000       8.52042205     -24.72339025      55.73786590      24.71801732
Ni       2.93666667       1.17466667      32.30333333       0.60000000      -0.10289444      -0.04775894      -0.74662929       0.02469004
Ni       4.69866667      -0.58733333      32.30333333       0.60000000       8.52099863     -24.71792251      55.73279319      24.71786390
Ni       4.69866667       1.17466667      30.54133333       0.60000000       0.34609313      -0.04042902      -0.67871759       0.04029257
Ni       2.93666667      -0.58733333      34.06533333       0.60000000       8.27601468     -24.12993366      55.02991100      24.12479810
Ni       2.93666667       1.17466667      35.82733333       0.60000000      -0.11169399      -0.02870825      -0.77252461       0.00696303
Ni       4.69866667      -0.58733333      35.82733333       0.60000000       8.27657971     -24.12448226      55.02503914      24.12329487
Ni       4.69866667       1.17466667      34.06533333       0.60000000      -0.10027477      -0.02576422      -0.74897546       0.02579918
Ni       2.93666667      -0.58733333      37.58933333       0.60000000       8.31319894     -24.12351660      55.04603874      23.93169353
Ni       2.93666667       1.17466667      39.35133333       0.60000000       0.38207649      -0.02700059      -0.61069838       0.37560193
Ni       4.69866667      -0.58733333      39.35133333       0.60000000       8.79610002     -24.04325731      55.78391587      23.70607142
Ni       4.69866667       1.17466667      37.58933333       0.60000000      -0.06548423      -0.00595788      -0.74052340      -0.12324708
Ni       3.52400000       3.52400000       0.00000000       0.60000000       0.48795062       0.00293525       0.00293525      -0.47390886
Ni       3.52400000       5.28600000       1.76200000       0.60000000       0.03735460       0.02136654       0.01870924       0.13515725
Ni       5.28600000       3.52400000       1.76200000       0.60000000       0.03735460       0.01870924       0.02136654       0.13515725
Ni       5.28600000       5.28600000       0.00000000       0.60000000       0.48844642       0.00600695       0.00600695      -0.47595398
Ni       3.52848739       3.52848739       3.52848739       0.60000000      -0.00701803      -0.00046546      -0.00046546      -0.00046546
Ni       3.53265589       5.29497827       5.29497827       0.60000000      -0.00539690      -0.00007005       0.00024396       0.00024396
Ni       5.29497827       3.53265589       5.29497827       0.60000000      -0.00539690       0.00024396      -0.00007005       0.00024396
Ni       5.29497827       5.29497827       3.53265589       0.60000000      -0.00539690       0.00024396       0.00024396      -0.00007005
Ni       3.53143696       3.53143696       7.05447414       0.60000000      -0.00636210       0.00040016       0.00040016       0.00070787
Ni       3.53608087       5.29910165       8.82264934       0.60000000      -0.00472698       0.00081911      -0.00013861      -0.00034732
Ni       5.29910165       3.53608087       8.82264934       0.60000000      -0.00472697      -0.00013860       0.00081911      -0.00034731
Ni       5.30355961       5.30355961       7.06558163       0.60000000      -0.00339674       0.00066838       0.00066838       0.00000680
Ni       3.53414402       3.53414403      10.58081053       0.60000000      -0.00594090      -0.00075009      -0.00075008      -0.00110301
Ni       3.54026576       5.30401073      12.35023001       0.60000000      -0.00395392       0.00319493       0.00103722       0.00030480
Ni       5.30401064       3.54026580      12.35023003       0.60000000      -0.00395397       0.00103715       0.00319496       0.00030480
Ni       5.30964716       5.30964717      10.59687340       0.60000000      -0.00209380       0.00143166       0.00143167      -0.00138086
Ni       3.53482690       3.53482706      14.10182759       0.60000000      -0.00444199       0.00422361       0.00422374       0.00200473
Ni       3.53931455       5.30644513      15.86318363       0.60000000       0.00208354       0.00274427       0.00235374       0.00096477
Ni       5.30644482       3.53931439      15.86318274       0.60000000       0.00208412       0.00235334       0.00274402       0.00096410
Ni       5.31909850       5.31909868      14.12454679       0.60000000      -0.00147086       0.00413541       0.00413560       0.00428309
Ni       3.53758484       3.53758375      17.62851670       0.60000000      -0.00511885       0.00290688       0.00290596      -0.00080783
Ni       3.58064606       5.30149599      19.41319441       0.60000000       0.11152909      -0.00355135      -0.00238165       0.00188443
Ni       5.30150000       3.58065803      19.41319900       0.60000000       0.11153663      -0.00237822      -0.00353958       0.00188769
Ni       5.31156088       5.31155958      17.61237291       0.60000000       0.16301418      -0.00361714      -0.00361858      -0.00054236
Ni       3.47520740       3.47520773      21.13173153       0.60000000       0.47456338      -0.00730647      -0.00730637      -0.00331323
Ni       5.07867570       5.07866832      21.77324498       0.60000000       0.92976688      -0.01417385      -0.01418330       0.00644718
Ni       2.93666667       2.93666667      23.49333333       0.60000000       1.25694402       2.61990727       2.61990697      -3.29069039
Ni       2.93666667       4.69866667      25.25533333       0.60000000       0.81199321      -0.46159023      -0.06699976       0.09352056
Ni       4.69866667       2.93666667      25.25533333       0.60000000       0.81199315      -0.06699977      -0.46159076       0.09352039
Ni       5.26320429       5.26320401      24.67226973       0.60000000       0.90380088       0.00302842       0.00302821      -0.00735097
Ni       2.93666667       2.93666667      27.01733333       0.60000000       0.50770042      -0.07575906      -0.07575904      -0.45746809
Ni       2.93666667       4.69866667      28.77933333       0.60000000       0.30233119      -0.05798376       0.10645168      -0.05460439
Ni       4.69866667       2.93666667      28.77933333       0.60000000       0.30233119       0.10645168      -0.05798377      -0.05460437
Ni       4.69617448       4.69617447      27.03518921       0.60000000       0.14891721      -0.00161602      -0.00161602       0.00725972
Ni       2.93666667       2.93666667      30.54133333       0.60000000       0.01512856      -0.01913064      -0.01913064       0.02580478
Ni       2.93666667       4.69866667      32.30333333       0.60000000       0.00480465       0.00415715       0.01311373       0.07922450
Ni       4.69866667       2.93666667      32.30333333       0.60000000       0.00480465       0.01311373       0.00415715       0.07922450
Ni       4.70017741       4.70017741      30.56812836       0.60000000       0.00361518      -0.00309170      -0.00309170       0.00193964
Ni       2.93666667       2.93666667      34.06533333       0.60000000      -0.01214700      -0.00620087      -0.00620087      -0.00323610
Ni       2.93666667       4.69866667      35.82733333       0.60000000      -0.00857329      -0.00959923       0.03523521       0.01043164
Ni       4.69866667       2.93666667      35.82733333       0.60000000      -0.00857329       0.03523521      -0.00959923       0.01043164
Ni       4.70378770       4.70378770      34.07968045       0.60000000      -0.00536557       0.00489067       0.00489067      -0.00283118
Ni       2.93666667       2.93666667      37.58933333       0.60000000       0.03223598      -0.00164170      -0.00164170      -0.09729955
Ni       2.93666667       4.69866667      39.35133333       0.60000000       0.48570439      -0.00122503      -0.00545384       0.45170676
Ni       4.69866667       2.93666667      39.35133333       0.60000000       0.48570439      -0.00545384      -0.00122503       0.45170676
Ni       4.70426552       4.70426552      37.58120825       0.60000000       0.03706029      -0.00099668      -0.00099668      -0.01491696
Ni       3.52400000       7.04800000       0.00000000       0.60000000       0.48830314       0.00287195       0.00609567      -0.47526338
Ni       3.52400000       8.81000000       1.76200000       0.60000000       0.03774155       0.03107730       0.02409090       0.15282714
Ni       5.28600000       7.04800000       1.76200000       0.60000000       0.03815484       0.03356751       0.03319085       0.15809459
Ni       5.28600000       8.81000000       0.00000000       0.60000000       0.48875209      -0.00481420      -0.00471879      -0.47026262
Ni       3.53143696       7.05447415       3.53143696       0.60000000      -0.00636210       0.00040016       0.00070787       0.00040016
Ni       3.53608087       8.82264934       5.29910165       0.60000000      -0.00472698       0.00081911      -0.00034732      -0.00013861
Ni       5.30355961       7.06558163       5.30355961       0.60000000      -0.00339674       0.00066838       0.00000680       0.00066838
Ni       5.29910165       8.82264934       3.53608087       0.60000000      -0.00472697      -0.00013860      -0.00034731       0.00081911
Ni       3.53608042       7.06143879       7.06143879       0.60000000      -0.00463711       0.00110884       0.00057818       0.00057818
Ni       3.54077027       8.82979431       8.82979431       0.60000000      -0.00352383       0.00072098      -0.00191651      -0.00191651
Ni       5.30988934       7.07384184       8.83598611       0.60000000      -0.00241792       0.00275222       0.00050362       0.00025864
Ni       5.30988934       8.83598611       7.07384184       0.60000000      -0.00241792       0.00275222       0.00025864       0.00050362
Ni       3.54160411       7.06744323      10.59174692       0.60000000      -0.00370096      -0.00013971      -0.00031308      -0.00244822
Ni       3.55188529       8.83896205      12.36085154       0.60000000      -0.00083787       0.00214289      -0.00275864       0.00220785
Ni       5.32172906       7.08477445      12.37094636       0.60000000      -0.00052240      -0.00032481      -0.00145938      -0.00610714
Ni       5.31956949       8.84734729      10.60828087       0.60000000      -0.00016625       0.00033856       0.00070628      -0.00083194
Ni       3.54899368       7.07617729      14.11697007       0.60000000      -0.00085212       0.00649363      -0.00274993       0.00194978
Ni       3.55926760       8.83122191      15.89181523       0.60000000       0.00529690      -0.00015117      -0.00295893      -0.00052656
Ni       5.34578653       7.10102570      15.89373158       0.60000000       0.03029432      -0.00141067       0.00274674       0.00365665
Ni       5.34895063       8.86169844      14.14863752       0.60000000       0.00855481       0.00383878      -0.00398081       0.00151308
Ni       3.56057763       7.05654431      17.64635383       0.60000000       0.10913239      -0.00266016      -0.00310102      -0.00090435
Ni       3.53057572       8.81429466      19.37965708       0.60000000       0.15356436      -0.00364018       0.00013409      -0.00307415
Ni       5.36483033       8.82065225      17.71439518       0.60000000       0.22340591      -0.00507297      -0.00009181       0.00741859
Ni       3.60860824       7.02964851      21.11300351       0.60000000       0.42081415      -0.00343971       0.00430853      -0.00373676
Ni       3.58556282       8.84526939      22.80710737       0.60000000       0.54832328      -0.00058855       0.00334750       0.00523990
Ni       5.26977925       7.03245731      26.49432613       0.60000000       0.51106020       0.00357408      -0.00697390      -0.00328494
Ni       2.93666667       6.46066667      27.01733333       0.60000000       0.81106139      -0.38468165      -0.05483308       0.10199937
Ni       2.93666667       8.22266667      28.77933333       0.60000000       0.81167242      -0.32748972      -0.07403073       0.11961708
Ni       4.70185600       6.45140459      28.82308096       0.60000000       0.07214635       0.00217106      -0.00422716      -0.00809819
Ni       5.27542056       8.80506021      28.27790833       0.60000000       0.49563582      -0.00011220      -0.00294207       0.00492565
Ni       2.93666667       6.46066667      30.54133333       0.60000000       0.29912405      -0.04605234       0.13022883       0.00650780
Ni       2.93666667       8.22266667      32.30333333       0.60000000       0.30132712      -0.00352101       0.16473566       0.02593394
Ni       4.70837899       6.47005547      32.34279708       0.60000000      -0.00073267      -0.00527994       0.00192690       0.00197982
Ni       4.71002716       8.21814482      30.59616795       0.60000000       0.07125391       0.00445040       0.00606993       0.00167816
Ni       2.93666667       6.46066667      34.06533333       0.60000000       0.00639479       0.02726580       0.04707048       0.08588706
Ni       2.93666667       8.22266667      35.82733333       0.60000000       0.00875783       0.05033692       0.08767838       0.05975388
Ni       4.70912564       6.47473864      35.83690228       0.60000000      -0.00075185       0.00398267       0.00715496      -0.00844848
Ni       4.71933206       8.24805620      34.10792606       0.60000000       0.00187477       0.00133572      -0.00307490      -0.00295481
Ni       2.93666667       6.46066667      37.58933333       0.60000000       0.03569254       0.02439798       0.04690649      -0.09438385
Ni       2.93666667       8.22266667      39.35133333       0.60000000       0.48691107       0.02165919       0.00601975       0.44157564
Ni       4.69866667       6.46066667      39.35133333       0.60000000       0.48871154       0.04163943       0.03425863       0.39439201
Ni       4.71371930       8.24041421      37.58360001       0.60000000       0.05142540      -0.00297934      -0.00146927      -0.00116642
Ni       3.52400000      10.57200000       0.00000000       0.60000000       0.48850975      -0.00793262      -0.00475759      -0.46932055
Ni       3.52400000      12.33400000       1.76200000       0.60000000       0.03344735       0.03715015       0.01414178       0.17442723
Ni       5.28600000      10.57200000       1.76200000       0.60000000       0.03406475       0.04199168       0.03750572       0.19513187
Ni       5.28600000      12.33400000       0.00000000       0.60000000       0.29911984      -0.08019924      -0.07382196      -0.07379613
Ni       3.53414402      10.58081053       3.53414403       0.60000000      -0.00594090      -0.00075009      -0.00110301      -0.00075008
Ni       3.54026577      12.35023001       5.30401073       0.60000000      -0.00395392       0.00319493       0.00030480       0.00103722
Ni       5.30964717      10.59687340       5.30964717       0.60000000      -0.00209380       0.00143166      -0.00138086       0.00143167
Ni       5.30401064      12.35023003       3.54026580       0.60000000      -0.00395397       0.00103715       0.00030480       0.00319496
Ni       3.54160411      10.59174692       7.06744323       0.60000000      -0.00370096      -0.00013970      -0.00244822      -0.00031308
Ni       3.55188529      12.36085154       8.83896205       0.60000000      -0.00083787       0.00214289       0.00220785      -0.00275864
Ni       5.31956949      10.60828087       8.84734730       0.60000000      -0.00016625       0.00033856      -0.00083194       0.00070629
Ni       5.32172906      12.37094636       7.08477445       0.60000000      -0.00052240      -0.00032481      -0.00610714      -0.00145938
Ni       3.55116693      10.60080800      10.60080801       0.60000000      -0.00065043       0.00305595       0.00145141       0.00145141
Ni       3.56524945      12.36986033      12.36986034       0.60000000       0.00341209       0.00170130      -0.00115851      -0.00115850
Ni       5.34600878      10.62650260      12.38866638       0.60000000       0.00527031       0.00279858      -0.00334724       0.00231798
Ni       5.34600878      12.38866637      10.62650262       0.60000000       0.00527031       0.00279858       0.00231797      -0.00334723
Ni       3.56309537      10.60253252      14.13105155       0.60000000       0.00232967       0.00126853      -0.00557545       0.00089829
Ni       3.56864626      12.36591628      15.88498850       0.60000000       0.00478658       0.00155942      -0.00135265      -0.00042487
Ni       5.36492277      10.60373037      15.93451281       0.60000000       0.03051467       0.00023831      -0.00079974       0.00169565
Ni       5.38173336      12.39155459      14.16669570       0.60000000       0.01176365       0.00013784      -0.00129525      -0.00118135
Ni       3.55123601      10.59462896      17.63563800       0.60000000       0.00886489      -0.00022950       0.00003395      -0.00420169
Ni       3.55966701      12.37808703      19.37204065       0.60000000       0.00762212      -0.00058549      -0.00448567      -0.00228541
Ni       5.34979660      10.63284947      19.35362054       0.60000000       0.18144796       0.00416294      -0.00107943      -0.00061234
Ni       5.38299600      12.38875694      17.64271403       0.60000000       0.03584770       0.00276864      -0.00000226      -0.00099386
Ni       3.56672887      10.58909141      21.08851627       0.60000000       0.05328840       0.00144975      -0.00287635      -0.00185445
Ni       3.58812048      12.36418026      22.82810218       0.60000000       0.03448621       0.00127450      -0.00058719      -0.00215772
Ni       5.42062129      12.39380379      21.04097023       0.60000000       0.07638061       0.00136615      -0.00176225      -0.00431863
Ni       3.57901722      10.62546867      24.56807741       0.60000000       0.54999030       0.00002634       0.00100890       0.00303942
Ni       3.57296705      12.39985775      26.34419368       0.60000000       0.54509681       0.00065599       0.00031577       0.00055373
Ni       5.28041042      10.58083292      30.04008756       0.60000000       0.49746395      -0.00392857      -0.00043525       0.00531945
Ni       2.93666667       9.98466667      30.54133333       0.60000000       0.81301666      -0.27979912      -0.07835731       0.12503597
Ni       2.93666667      11.74666667      32.30333333       0.60000000       0.81522184      -0.24223641      -0.06553927       0.13385362
Ni       4.71991565       9.99623664      32.36073920       0.60000000       0.07127330       0.01407711       0.00028307       0.01304394
Ni       5.27994784      12.36785476      31.78699249       0.60000000       0.49630915      -0.00331696      -0.00375766      -0.00684958
Ni       2.93666667       9.98466667      34.06533333       0.60000000       0.30459713       0.05874967       0.21964351       0.02603390
Ni       2.93666667      11.74666667      35.82733333       0.60000000       0.31621555       0.12927541       0.28326250       0.02508873
Ni       4.73187351      10.02938197      35.86859138       0.60000000       0.01867981       0.00061798      -0.00609027      -0.00528021
Ni       4.73477433      11.78537307      34.12388440       0.60000000       0.07597482       0.00143320       0.00142262      -0.00328163
Ni       2.93666667       9.98466667      37.58933333       0.60000000       0.06141496       0.09515938       0.12006083      -0.05348033
Ni       2.93666667      11.74666667      39.35133333       0.60000000       0.66739223      -0.05710141       0.02551154       0.45416037
Ni       4.69866667       9.98466667      39.35133333       0.60000000       0.66212225      -0.01753524       0.02081379       0.41895070
Ni       4.73837182      11.80946619      37.63616939       0.60000000       0.43250814      -0.00744491      -0.00279909      -0.00172082
Ni       3.52400000      14.09600000       0.00000000       0.60000000       0.29360480      -0.09733380      -0.07290276      -0.08515448
Ni       3.52400000      15.85800000       1.76200000       0.60000000      -0.00113378       0.05286269       0.02692069       0.09176261
Ni       5.28600000      14.09600000       1.76200000       0.60000000       0.00105422       0.07206201       0.03084797       0.09713011
Ni       5.28600000      15.85800000       0.00000000       0.60000000       0.03635216       0.01128288       0.00335377       0.10087393
Ni       3.53482691      14.10182759       3.53482706       0.60000000      -0.00444199       0.00422361       0.00200473       0.00422374
Ni       3.53931454      15.86318361       5.30644512       0.60000000       0.00208355       0.00274427       0.00096475       0.00235373
Ni       5.31909850      14.12454679       5.31909868       0.60000000      -0.00147086       0.00413542       0.00428309       0.00413560
Ni       5.30644482      15.86318277       3.53931439       0.60000000       0.00208411       0.00235335       0.00096411       0.00274403
Ni       3.54899368      14.11697006       7.07617729       0.60000000      -0.00085212       0.00649363       0.00194978      -0.00274994
Ni       3.55926758      15.89181518       8.83122195       0.60000000       0.00529690      -0.00015120      -0.00052661      -0.00295889
Ni       5.34895062      14.14863751       8.86169845       0.60000000       0.00855481       0.00383878       0.00151306      -0.00398080
Ni       5.34578651      15.89373155       7.10102571       0.60000000       0.03029434      -0.00141069       0.00365662       0.00274676
Ni       3.56309537      14.13105152      10.60253254       0.60000000       0.00232966       0.00126853       0.00089827      -0.00557543
Ni       3.56864626      15.88498849      12.36591629       0.60000000       0.00478658       0.00155942      -0.00042489      -0.00135263
Ni       5.38173336      14.16669568      12.39155462       0.60000000       0.01176365       0.00013784      -0.00118137      -0.00129523
Ni       5.36492276      15.93451276      10.60373043       0.60000000       0.03051467       0.00023830       0.00169560      -0.00079968
Ni       3.57486132      14.12950064      14.12950065       0.60000000       0.00634529       0.00005963      -0.00001933      -0.00001932
Ni       3.58265944      15.88738203      15.88738203       0.60000000       0.01012712       0.00041275       0.00119968       0.00119968
Ni       5.40831153      14.15685266      15.90785892       0.60000000       0.01962502      -0.00334903       0.00123297       0.00155868
Ni       5.40831154      15.90785891      14.15685266       0.60000000       0.01962502      -0.00334903       0.00155867       0.00123298
Ni       3.57798425      14.13614080      17.63154191       0.60000000       0.00735566      -0.00027737      -0.00134246       0.00144993
Ni       3.59131168      15.89517539      19.38259390       0.60000000       0.01323178      -0.00308265      -0.00013358      -0.00092041
Ni       5.42316720      14.16788086      19.36227980       0.60000000       0.02415825       0.00405451      -0.00323063       0.00044903
Ni       5.43955191      15.92103063      17.64921561       0.60000000       0.02662161      -0.00106049      -0.00146084       0.00065509
Ni       3.58637064      14.13853498      21.11532247       0.60000000       0.01390503      -0.00344631      -0.00163699      -0.00182032
Ni       3.60004436      15.89587638      22.86279819       0.60000000       0.01805981       0.00098451       0.00109541      -0.00039902
Ni       5.44488968      14.16026812      22.78812322       0.60000000       0.04667300      -0.00562988      -0.00149613      -0.00306083
Ni       5.46962862      15.92165346      21.09454311       0.60000000       0.03047808      -0.00288631      -0.00177294      -0.00024846
Ni       3.58958630      14.13922130      24.59311461       0.60000000       0.03230725       0.00058296       0.00121503       0.00096106
Ni       3.59034944      15.90784036      26.36711219       0.60000000       0.03518671      -0.00082256       0.00061263       0.00329848
Ni       5.44623259      15.93053353      24.56128125       0.60000000       0.04399682      -0.00262568       0.00341352       0.00205192
Ni       3.57246039      14.17312538      28.12154692       0.60000000       0.54261985       0.00162832      -0.00146967       0.00126523
Ni       3.58780487      15.91769284      29.91585922       0.60000000       0.61511038      -0.00120730      -0.00319143       0.00286448
Ni       5.27250365      14.17242685      33.51663378       0.60000000       0.47525409       0.00236822      -0.00030048      -0.00074138
Ni       2.93666667      13.50866667      34.06533333       0.60000000       0.81885134      -0.19275646      -0.03561484       0.15729994
Ni       2.93666667      15.27066667      35.82733333       0.60000000       0.81547727      -0.21343737      -0.03360363       0.32100971
Ni       4.75231187      13.58353972      35.89714757       0.60000000       0.23026224       0.00113372      -0.00403393      -0.00229773
Ni       5.25561094      15.94800736      35.27710729       0.60000000       0.48289936      -0.00334607      -0.00045790      -0.00142314
Ni       2.93666667      13.50866667      37.58933333       0.60000000       0.53421285      -0.15612864       0.54976719       0.13080730
Ni       3.52400000      15.85800000      40.52600000       0.60000000       0.45121294       0.04092290      -0.02006201      -0.52569756
Ni       5.28600000      14.09600000      40.52600000       0.60000000       0.51094500      -0.10921071       0.08263952      -0.43531536
Ni       4.74573247      15.26433090      37.87590525       0.60000000       0.47824839       0.00743675       0.00448777      -0.00697437
Ni       3.52400000      17.62000000       0.00000000       0.60000000       0.02859254       0.00083592       0.00340598       0.10422688
Ni       3.52400000      19.38200000       1.76200000       0.60000000       0.02968994       0.10174016      -0.22859272      -0.01100230
Ni       5.28600000      17.62000000       1.76200000       0.60000000      -0.00277541       0.05644755       0.09475189       0.17650117
Ni       5.28600000      19.38200000       0.00000000       0.60000000       0.00576942       0.01044523      -0.00378554      -0.00692303
Ni       3.53758482      17.62851670       3.53758378       0.60000000      -0.00511885       0.00290686      -0.00080783       0.00290598
Ni       3.58064635      19.41319453       5.30149609       0.60000000       0.11152927      -0.00355107       0.00188451      -0.00238156
Ni       5.31156085      17.61237291       5.31155962       0.60000000       0.16301418      -0.00361718      -0.00054236      -0.00361854
Ni       5.30149990      19.41319889       3.58065774       0.60000000       0.11153645      -0.00237830       0.00188761      -0.00353987
Ni       3.56057754      17.64635374       7.05654434       0.60000000       0.10913262      -0.00266024      -0.00090444      -0.00310098
Ni       3.53057570      19.37965705       8.81429471       0.60000000       0.15356452      -0.00364021      -0.00307417       0.00013414
Ni       5.36483025      17.71439502       8.82065238       0.60000000       0.22340614      -0.00507307       0.00741842      -0.00009166
Ni       3.55123599      17.63563797      10.59462899       0.60000000       0.00886488      -0.00022953      -0.00420171       0.00003399
Ni       3.55966701      19.37204065      12.37808703       0.60000000       0.00762212      -0.00058549      -0.00228541      -0.00448567
Ni       5.38299600      17.64271401      12.38875695       0.60000000       0.03584769       0.00276864      -0.00099386      -0.00000225
Ni       5.34979661      19.35362052      10.63284949       0.60000000       0.18144799       0.00416295      -0.00061234      -0.00107943
Ni       3.57798425      17.63154191      14.13614080       0.60000000       0.00735566      -0.00027737       0.00144993      -0.00134246
Ni       3.59131168      19.38259390      15.89517539       0.60000000       0.01323178      -0.00308265      -0.00092041      -0.00013358
Ni       5.43955191      17.64921561      15.92103063       0.60000000       0.02662161      -0.00106049       0.00065509      -0.00146084
Ni       5.42316720      19.36227980      14.16788086       0.60000000       0.02415825       0.00405451       0.00044903      -0.00323063
Ni       3.59333863      17.64244973      17.64244973       0.60000000       0.01433030       0.00070370       0.00093903       0.00093903
Ni       3.60764773      19.39020432      19.39020432       0.60000000       0.01811059       0.00110662      -0.00086466      -0.00086466
Ni       5.48200554      17.66155943      19.38615836       0.60000000       0.03415186      -0.00094701      -0.00224480       0.00047626
Ni       5.48200554      19.38615836      17.66155943       0.60000000       0.03415186      -0.00094701       0.00047626      -0.00224480
Ni       3.60558793      17.64629488      21.12959047       0.60000000       0.01794872       0.00084102      -0.00004208      -0.00015938
Ni       3.60713953      19.39392162      22.87896793       0.60000000       0.01873784      -0.00112736      -0.00016026       0.00130791
Ni       5.48200870      17.67062728      22.84417026       0.60000000       0.03261218      -0.00107784       0.00181203       0.00126228
Ni       5.49661676      19.39865548      21.12374408       0.60000000       0.03735953       0.00143227       0.00221433       0.00110566
Ni       3.60002034      17.64905721      24.61937644       0.60000000       0.01739676       0.00039667       0.00149338       0.00371017
Ni       3.58610258      19.39070941      26.38403145       0.60000000       0.01746266       0.00198466       0.00188850       0.00215300
Ni       5.44328448      17.68585767      26.33968509       0.60000000       0.07076714       0.00144357      -0.00016465       0.00582862
Ni       5.46946891      19.41190210      24.60426947       0.60000000       0.03113070       0.00545321      -0.00044869       0.00219494
Ni       3.56709153      17.64729519      28.14326302       0.60000000       0.16854593       0.00067828      -0.00224221       0.00390884
Ni       3.55636545      19.37707480      29.92647766       0.60000000       0.31270370      -0.00380182      -0.00325873       0.00321467
Ni       5.39748322      19.38515286      28.13219935       0.60000000       0.33070066       0.00003270       0.00318080       0.00089075
Ni       3.62185778      17.63700770      31.69561094       0.60000000       0.68552087       0.00279378      -0.00270584       0.00265655
Ni       3.56372277      19.38152309      33.45628074       0.60000000       0.56738299       0.00011078      -0.00402759      -0.00111150
Ni       3.52943686      19.38724280      36.98780563       0.60000000       0.30797518       0.00081083       0.00328139       0.00105397
Ni       5.28442068      17.62044371      37.05066665       0.60000000       0.34445588      -0.00319133      -0.00007294      -0.00321660
Ni       5.30820685      19.33373004      35.20809350       0.60000000       0.46534774      -0.00234960       0.00525313       0.00056847
Ni       2.93666667      17.03266667      37.58933333       0.60000000       1.12491792       2.62298790       3.20094569      -2.58177471
Ni       3.52400000      19.38200000      40.52600000       0.60000000       0.12588456      -0.00791566      -0.09273841      -0.09692585
Ni       5.28600000      17.62000000      40.52600000       0.60000000       0.23955392      -0.11677852      -0.13520813      -0.24249510
Ni       5.28600000      19.38200000      38.76400000       0.60000000       0.14235664      -0.11315912       0.06506414       0.01053346
Ni       3.52400000      21.14400000       0.00000000       0.60000000       0.12663776      -0.01175882       0.08421621       0.10155706
Ni       5.28600000      21.14400000       1.76200000       0.60000000       0.27763248      -0.03364774       0.05708980       0.23428796
Ni       5.28600000      22.90600000       0.00000000       0.60000000       0.28754272      -0.10900778       0.08199334       0.07426971
Ni       3.47520741      21.13173153       3.47520773       0.60000000       0.47456338      -0.00730647      -0.00331323      -0.00730637
Ni       5.07867552      21.77324498       5.07866850       0.60000000       0.92976688      -0.01417408       0.00644719      -0.01418307
Ni       3.60860806      21.11300363       7.02964864       0.60000000       0.42081476      -0.00343987      -0.00373667       0.00430864
Ni       3.58556280      22.80710744       8.84526944       0.60000000       0.54832326      -0.00058857       0.00523994       0.00334753
Ni       3.56672888      21.08851628      10.58909141       0.60000000       0.05328836       0.00144976      -0.00185444      -0.00287635
Ni       3.58812048      22.82810219      12.36418027       0.60000000       0.03448620       0.00127450      -0.00215772      -0.00058719
Ni       5.42062129      21.04097023      12.39380379       0.60000000       0.07638060       0.00136616      -0.00431863      -0.00176226
Ni       3.58637064      21.11532247      14.13853498       0.60000000       0.01390503      -0.00344631      -0.00182032      -0.00163699
Ni       3.60004436      22.86279819      15.89587637       0.60000000       0.01805981       0.00098451      -0.00039902       0.00109541
Ni       5.46962862      21.09454311      15.92165346       0.60000000       0.03047808      -0.00288631      -0.00024846      -0.00177294
Ni       5.44488968      22.78812322      14.16026812       0.60000000       0.04667300      -0.00562988      -0.00306083      -0.00149613
Ni       3.60558793      21.12959047      17.64629488       0.60000000       0.01794872       0.00084102      -0.00015938      -0.00004208
Ni       3.60713953      22.87896793      19.39392162       0.60000000       0.01873784      -0.00112736       0.00130791      -0.00016026
Ni       5.49661676      21.12374408      19.39865548       0.60000000       0.03735953       0.00143227       0.00110566       0.00221433
Ni       5.48200870      22.84417026      17.67062728       0.60000000       0.03261218      -0.00107784       0.00126228       0.00181203
Ni       3.60967140      21.13651826      21.13651826       0.60000000       0.01922951      -0.00110724      -0.00112155      -0.00112155
Ni       3.60085121      22.88470602      22.88470602       0.60000000       0.01592134       0.00431780      -0.00131495      -0.00131495
Ni       5.48388946      21.13411791      22.86613173       0.60000000       0.03493811       0.00264160      -0.00021041       0.00155583
Ni       5.48388946      22.86613173      21.13411791       0.60000000       0.03493811       0.00264160       0.00155583      -0.00021041
Ni       3.59740946      21.13765363      24.63493109       0.60000000       0.01503364       0.00396528       0.00074167       0.00243108
Ni       3.58158785      22.88500671      26.39205148       0.60000000       0.00962991       0.00044560       0.00281748       0.00069260
Ni       5.43403440      21.12822211      26.38073032       0.60000000       0.02819977      -0.00276979       0.00223142      -0.00110954
Ni       5.44893095      22.86638806      24.61758613       0.60000000       0.02385618      -0.00096813      -0.00036268       0.00134807
Ni       3.56525052      21.13370033      28.15108560       0.60000000       0.01965347      -0.00178641       0.00130413       0.00141390
Ni       3.55170213      22.89685701      29.91768342       0.60000000       0.01452804      -0.00356485      -0.00247081       0.00118434
Ni       5.34145352      21.14528445      29.88917210       0.60000000       0.50420114      -0.00194124      -0.00727542       0.00544458
Ni       5.38360692      22.87480176      28.13081707       0.60000000       0.04155966      -0.00836454      -0.00182041      -0.00099317
Ni       3.54486851      21.13825455      31.69382110       0.60000000       0.31257261      -0.00521164      -0.00274646       0.00368034
Ni       3.54520480      22.90225274      33.45329316       0.60000000       0.14557430       0.00098424      -0.00146018       0.00262302
Ni       5.32757967      22.89584826      31.66971531       0.60000000       0.32312049      -0.00627781       0.00773671      -0.00030571
Ni       3.54763701      21.14859567      35.21853398       0.60000000       0.17402576       0.00018373       0.00307917       0.00206273
Ni       3.53839858      22.90455388      36.98832830       0.60000000      -0.00140894       0.00005098       0.00001975       0.00121513
Ni       5.30294056      21.14027519      36.98785217       0.60000000       0.03271334      -0.00405798      -0.00664107      -0.00235769
Ni       5.32736526      22.89118661      35.19038443       0.60000000       0.14873044       0.00123423       0.00145290      -0.00574839
Ni       3.52400000      21.14400000      38.76400000       0.60000000       0.02201823       0.04466120       0.10927008      -0.06799825
Ni       3.52400000      22.90600000      40.52600000       0.60000000       0.02868796       0.00211243      -0.00209165      -0.10247893
Ni       5.28600000      21.14400000      40.52600000       0.60000000       0.00257225       0.01190188       0.00709075       0.00106177
Ni       5.28600000      22.90600000      38.76400000       0.60000000      -0.00393199       0.07632900      -0.00968699      -0.10528557
Ni       3.52400000      24.66800000       0.00000000       0.60000000       0.48884236      -0.02241939       0.02249977       0.42058877
Ni       5.28600000      26.43000000       0.00000000       0.60000000       0.65391867      -0.00166600       0.01053065       0.45143139
Ni       2.93666667      23.49333333       2.93666667       0.60000000       1.25694402       2.61990726      -3.29069038       2.61990698
Ni       2.93666667      25.25533333       4.69866667       0.60000000       0.81199321      -0.46159025       0.09352055      -0.06699976
Ni       5.26320429      24.67226973       5.26320402       0.60000000       0.90380088       0.00302842      -0.00735097       0.00302821
Ni       4.69866667      25.25533333       2.93666667       0.60000000       0.81199315      -0.06699977       0.09352039      -0.46159075
Ni       5.26977925      26.49432613       7.03245731       0.60000000       0.51106020       0.00357408      -0.00328494      -0.00697390
Ni       3.57901722      24.56807744      10.62546869       0.60000000       0.54999029       0.00002633       0.00303945       0.00100892
Ni       3.57296705      26.34419370      12.39985776       0.60000000       0.54509680       0.00065599       0.00055374       0.00031578
Ni       3.58958630      24.59311461      14.13922131       0.60000000       0.03230725       0.00058296       0.00096107       0.00121504
Ni       3.59034944      26.36711219      15.90784036       0.60000000       0.03518671      -0.00082256       0.00329848       0.00061264
Ni       5.44623259      24.56128125      15.93053353       0.60000000       0.04399682      -0.00262568       0.00205193       0.00341353
Ni       3.60002034      24.61937644      17.64905721       0.60000000       0.01739676       0.00039667       0.00371017       0.00149338
Ni       3.58610258      26.38403145      19.39070941       0.60000000       0.01746266       0.00198466       0.00215300       0.00188850
Ni       5.46946891      24.60426947      19.41190210       0.60000000       0.03113070       0.00545321       0.00219494      -0.00044869
Ni       5.44328448      26.33968509      17.68585767       0.60000000       0.07076714       0.00144357       0.00582862      -0.00016465
Ni       3.59740946      24.63493109      21.13765363       0.60000000       0.01503364       0.00396528       0.00243108       0.00074167
Ni       3.58158785      26.39205148      22.88500671       0.60000000       0.00962991       0.00044560       0.00069260       0.00281748
Ni       5.44893095      24.61758613      22.86638806       0.60000000       0.02385618      -0.00096813       0.00134807      -0.00036268
Ni       5.43403440      26.38073032      21.12822211       0.60000000       0.02819977      -0.00276979      -0.00110954       0.00223142
Ni       3.58615220      24.63645465      24.63645465       0.60000000       0.01108551       0.00688667       0.00251654       0.00251654
Ni       3.57030771      26.39533129      26.39533129       0.60000000       0.00660140       0.00562445       0.00138055       0.00138055
Ni       5.40698965      24.61673945      26.36913099       0.60000000       0.01866358       0.00575030       0.00204213       0.00171599
Ni       5.40698965      26.36913099      24.61673945       0.60000000       0.01866358       0.00575030       0.00171599       0.00204213
Ni       3.56615193      24.64393228      28.15286349       0.60000000       0.00525491       0.00078225       0.00046423       0.00213852
Ni       3.55686044      26.40523256      29.91912368       0.60000000       0.00104695       0.00013711       0.00015022      -0.00057834
Ni       5.35931097      24.62855408      29.89326421       0.60000000       0.01173860      -0.00491359       0.00832831      -0.00123978
Ni       5.37153481      26.37510052      28.13014485       0.60000000       0.00889764       0.00730185      -0.00117051      -0.00233779
Ni       3.54899638      24.65788502      31.68550385       0.60000000       0.00409337      -0.00521298       0.00364731       0.00209833
Ni       3.54505636      26.41691739      33.45466190       0.60000000      -0.00255756      -0.00072691       0.00084923       0.00305758
Ni       5.33212032      24.65873531      33.43487161       0.60000000       0.03354687      -0.00305920      -0.00279152      -0.01064800
Ni       5.34029154      26.39509403      31.66255719       0.60000000       0.00048944       0.00156836       0.00100113       0.00470707
Ni       3.54278359      24.66034386      35.22078371       0.60000000       0.00065777       0.00128419       0.00027632       0.00088492
Ni       3.53644903      26.42367907      36.99046544       0.60000000      -0.00539436       0.00416488      -0.00559065      -0.00039267
Ni       5.30992315      24.65597711      36.97920620       0.60000000      -0.00213852       0.00050199      -0.00336708       0.00074032
Ni       5.32014865      26.40981093      35.21074507       0.60000000       0.00021373      -0.00395739       0.00572493       0.00456029
Ni       3.52400000      24.66800000      38.76400000       0.60000000      -0.00110024       0.06673096      -0.01712376      -0.09579831
Ni       3.52400000      26.43000000      40.52600000       0.60000000       0.25955831      -0.25321053       0.24057334       0.15098895
Ni       5.28600000      24.66800000      40.52600000       0.60000000       0.04159483       0.00874223       0.00490023      -0.09687873
Ni       5.28600000      26.43000000      38.76400000       0.60000000       0.00059475       0.07090365      -0.04559590      -0.11810610
Ni       2.93666667      28.77933333       1.17466667       0.60000000       0.35287907      -0.06106888       0.02146292      -0.68318080
Ni       2.93666667      27.01733333       2.93666667       0.60000000       0.50770042      -0.07575906      -0.45746809      -0.07575904
Ni       2.93666667      28.77933333       4.69866667       0.60000000       0.30233119      -0.05798376      -0.05460439       0.10645168
Ni       4.69617448      27.03518921       4.69617447       0.60000000       0.14891721      -0.00161602       0.00725972      -0.00161602
Ni       4.69866667      28.77933333       2.93666667       0.60000000       0.30233119       0.10645168      -0.05460437      -0.05798377
Ni       2.93666667      27.01733333       6.46066667       0.60000000       0.81106139      -0.38468165       0.10199936      -0.05483308
Ni       2.93666667      28.77933333       8.22266667       0.60000000       0.81167242      -0.32748972       0.11961708      -0.07403073
Ni       5.27542056      28.27790833       8.80506021       0.60000000       0.49563582      -0.00011220       0.00492565      -0.00294207
Ni       4.70185600      28.82308096       6.45140459       0.60000000       0.07214635       0.00217106      -0.00809819      -0.00422716
Ni       5.28041042      30.04008756      10.58083292       0.60000000       0.49746395      -0.00392857       0.00531945      -0.00043525
Ni       3.57246039      28.12154692      14.17312539       0.60000000       0.54261985       0.00162832       0.00126524      -0.00146967
Ni       3.58780487      29.91585922      15.91769285       0.60000000       0.61511038      -0.00120730       0.00286448      -0.00319143
Ni       3.56709153      28.14326302      17.64729519       0.60000000       0.16854593       0.00067828       0.00390884      -0.00224221
Ni       3.55636545      29.92647766      19.37707480       0.60000000       0.31270370      -0.00380182       0.00321467      -0.00325873
Ni       5.39748322      28.13219935      19.38515286       0.60000000       0.33070066       0.00003270       0.00089075       0.00318080
Ni       3.56525052      28.15108560      21.13370033       0.60000000       0.01965347      -0.00178641       0.00141390       0.00130413
Ni       3.55170214      29.91768342      22.89685701       0.60000000       0.01452804      -0.00356485       0.00118434      -0.00247081
Ni       5.38360692      28.13081707      22.87480176       0.60000000       0.04155966      -0.00836454      -0.00099317      -0.00182041
Ni       5.34145352      29.88917210      21.14528445       0.60000000       0.50420114      -0.00194124       0.00544458      -0.00727542
Ni       3.56615193      28.15286349      24.64393228       0.60000000       0.00525491       0.00078225       0.00213852       0.00046423
Ni       3.55686044      29.91912368      26.40523256       0.60000000       0.00104695       0.00013711      -0.00057834       0.00015022
Ni       5.37153481      28.13014485      26.37510052       0.60000000       0.00889764       0.00730185      -0.00233779      -0.00117051
Ni       5.35931097      29.89326421      24.62855408       0.60000000       0.01173860      -0.00491359      -0.00123978       0.00832831
Ni       3.55878452      28.15948115      28.15948115       0.60000000       0.00201821       0.00340939       0.00019390       0.00019390
Ni       3.54984079      29.92749536      29.92749536       0.60000000      -0.00180169       0.00152352      -0.00212744      -0.00212744
Ni       5.34492132      28.14446003      29.90014194       0.60000000       0.00236340      -0.00018787      -0.00008588      -0.00024021
Ni       5.34492132      29.90014194      28.14446003       0.60000000       0.00236340      -0.00018787      -0.00024021      -0.00008588
Ni       3.54897571      28.16970739      31.68880650       0.60000000      -0.00235711       0.00069036       0.00021204      -0.00213916
Ni       3.54187168      29.93676263      33.45886354       0.60000000      -0.00383955      -0.00024831      -0.00083475      -0.00058209
Ni       5.32271967      28.16169281      33.44170195       0.60000000      -0.00176262       0.00084664      -0.00290279       0.00298603
Ni       5.32344595      29.91811948      31.67774010       0.60000000      -0.00096705      -0.00083300      -0.00030325       0.00084681
Ni       3.53988372      28.18026646      35.22385316       0.60000000      -0.00392476       0.00368215      -0.00312826       0.00024711
Ni       3.53356934      29.94741197      36.99410173       0.60000000      -0.00718980       0.00086548      -0.00290834      -0.00161855
Ni       5.30362446      28.17998437      36.98659528       0.60000000      -0.00364566       0.00665920      -0.00635954       0.00078041
Ni       5.31130745      29.93233572      35.21645130       0.60000000      -0.00229038      -0.00310760       0.00151458      -0.00040113
Ni       3.52400000      28.19200000      38.76400000       0.60000000       0.00407550      -0.07646901       0.09667744       0.04908860
Ni       3.52400000      29.95400000      40.52600000       0.60000000       8.27245320      26.64621183     -26.64609266     -53.37852739
Ni       5.28600000      28.19200000      40.52600000       0.60000000       0.26753302      -0.23530317       0.23543704       0.14722422
Ni       5.28600000      29.95400000      38.76400000       0.60000000       0.00476332      -0.06786292       0.08086673       0.03942340
Ni       2.93666667      30.54133333      -0.58733333       0.60000000       8.52042205     -24.72339025      24.71801732      55.73786590
Ni       2.93666667      32.30333333       1.17466667       0.60000000      -0.10289444      -0.04775894       0.02469004      -0.74662929
Ni       4.69866667      30.54133333       1.17466667       0.60000000       0.34609313      -0.04042902       0.04029257      -0.67871759
Ni       4.69866667      32.30333333      -0.58733333       0.60000000       8.52099863     -24.71792251      24.71786390      55.73279319
Ni       2.93666667      30.54133333       2.93666667       0.60000000       0.01512856      -0.01913064       0.02580478      -0.01913064
Ni       2.93666667      32.30333333       4.69866667       0.60000000       0.00480465       0.00415715       0.07922450       0.01311373
Ni       4.70017741      30.56812836       4.70017741       0.60000000       0.00361518      -0.00309170       0.00193964      -0.00309170
Ni       4.69866667      32.30333333       2.93666667       0.60000000       0.00480465       0.01311373       0.07922450       0.00415715
Ni       2.93666667      30.54133333       6.46066667       0.60000000       0.29912405      -0.04605234       0.00650780       0.13022883
Ni       2.93666667      32.30333333       8.22266667       0.60000000       0.30132712      -0.00352101       0.02593394       0.16473566
Ni       4.71002716      30.59616795       8.21814482       0.60000000       0.07125391       0.00445040       0.00167816       0.00606993
Ni       4.70837899      32.34279708       6.47005547       0.60000000      -0.00073267      -0.00527994       0.00197982       0.00192690
Ni       2.93666667      30.54133333       9.98466667       0.60000000       0.81301666      -0.27979912       0.12503597      -0.07835731
Ni       2.93666667      32.30333333      11.74666667       0.60000000       0.81522184      -0.24223641       0.13385362      -0.06553927
Ni       5.27994784      31.78699249      12.36785476       0.60000000       0.49630915      -0.00331696      -0.00684958      -0.00375766
Ni       4.71991565      32.36073920       9.99623664       0.60000000       0.07127330       0.01407711       0.01304394       0.00028307
Ni       5.27250365      33.51663378      14.17242685       0.60000000       0.47525409       0.00236822      -0.00074138      -0.00030048
Ni       3.62185778      31.69561094      17.63700770       0.60000000       0.68552087       0.00279378       0.00265655      -0.00270584
Ni       3.56372277      33.45628074      19.38152309       0.60000000       0.56738299       0.00011078      -0.00111150      -0.00402759
Ni       3.54486851      31.69382110      21.13825455       0.60000000       0.31257261      -0.00521164       0.00368034      -0.00274646
Ni       3.54520480      33.45329316      22.90225274       0.60000000       0.14557430       0.00098424       0.00262302      -0.00146018
Ni       5.32757967      31.66971531      22.89584826       0.60000000       0.32312049      -0.00627781      -0.00030571       0.00773671
Ni       3.54899638      31.68550385      24.65788502       0.60000000       0.00409337      -0.00521298       0.00209833       0.00364731
Ni       3.54505636      33.45466190      26.41691739       0.60000000      -0.00255756      -0.00072691       0.00305758       0.00084923
Ni       5.34029154      31.66255719      26.39509403       0.60000000       0.00048944       0.00156836       0.00470707       0.00100113
Ni       5.33212032      33.43487161      24.65873531       0.60000000       0.03354687      -0.00305920      -0.01064800      -0.00279152
Ni       3.54897571      31.68880650      28.16970739       0.60000000      -0.00235711       0.00069036      -0.00213916       0.00021204
Ni       3.54187168      33.45886354      29.93676263       0.60000000      -0.00383955      -0.00024831      -0.00058209      -0.00083475
Ni       5.32344595      31.67774010      29.91811948       0.60000000      -0.00096705      -0.00083300       0.00084681      -0.00030325
Ni       5.32271967      33.44170195      28.16169281       0.60000000      -0.00176262       0.00084664       0.00298603      -0.00290279
Ni       3.54205366      31.69670108      31.69670108       0.60000000      -0.00368807       0.00033608      -0.00076650      -0.00076650
Ni       3.53722444      33.46440339      33.46440339       0.60000000      -0.00463315       0.00014042       0.00074306       0.00074306
Ni       5.31269962      31.68986794      33.45129434       0.60000000      -0.00223495      -0.00090226       0.00048432      -0.00078048
Ni       5.31269962      33.45129434      31.68986794       0.60000000      -0.00223495      -0.00090226      -0.00078048       0.00048432
Ni       3.53691230      31.70407678      35.22733452       0.60000000      -0.00496193      -0.00144060       0.00175743       0.00053684
Ni       3.53149540      33.47188685      36.99638321       0.60000000      -0.00847315      -0.00033223      -0.00043584       0.00052939
Ni       5.29951495      31.70448898      36.99153328       0.60000000      -0.00619304      -0.00111763       0.00005089      -0.00020991
Ni       5.30439344      33.46067978      35.22290620       0.60000000      -0.00347816      -0.00006316       0.00085559       0.00054278
Ni       3.52400000      31.71600000      38.76400000       0.60000000      -0.10041565       0.00026621       0.01015860       0.65789375
Ni       3.52400000      33.47800000      40.52600000       0.60000000       8.28213634      24.06443161     -24.06419325     -55.04401367
Ni       5.28600000      31.71600000      40.52600000       0.60000000       8.27271465      26.64609034     -26.64615193     -53.37772259
Ni       5.28600000      33.47800000      38.76400000       0.60000000      -0.10001515       0.00436351      -0.00069643       0.65298371
Ni       2.93666667      34.06533333      -0.58733333       0.60000000       8.27601468     -24.12993366      24.12479810      55.02991100
Ni       2.93666667      35.82733333       1.17466667       0.60000000      -0.11169399      -0.02870825       0.00696303      -0.77252461
Ni       4.69866667      34.06533333       1.17466667       0.60000000      -0.10027477      -0.02576422       0.02579918      -0.74897546
Ni       4.69866667      35.82733333      -0.58733333       0.60000000       8.27657971     -24.12448226      24.12329487      55.02503914
Ni       2.93666667      34.06533333       2.93666667       0.60000000      -0.01214700      -0.00620087      -0.00323610      -0.00620087
Ni       2.93666667      35.82733333       4.69866667       0.60000000      -0.00857329      -0.00959923       0.01043164       0.03523521
Ni       4.70378770      34.07968045       4.70378770       0.60000000      -0.00536557       0.00489067      -0.00283118       0.00489067
Ni       4.69866667      35.82733333       2.93666667       0.60000000      -0.00857329       0.03523521       0.01043164      -0.00959923
Ni       2.93666667      34.06533333       6.46066667       0.60000000       0.00639479       0.02726580       0.08588706       0.04707048
Ni       2.93666667      35.82733333       8.22266667       0.60000000       0.00875783       0.05033692       0.05975388       0.08767838
Ni       4.71933206      34.10792606       8.24805620       0.60000000       0.00187477       0.00133572      -0.00295481      -0.00307490
Ni       4.70912564      35.83690228       6.47473864       0.60000000      -0.00075185       0.00398267      -0.00844848       0.00715496
Ni       2.93666667      34.06533333       9.98466667       0.60000000       0.30459713       0.05874967       0.02603390       0.21964351
Ni       2.93666667      35.82733333      11.74666667       0.60000000       0.31621555       0.12927541       0.02508873       0.28326250
Ni       4.73477433      34.12388440      11.78537307       0.60000000       0.07597482       0.00143320      -0.00328163       0.00142262
Ni       4.73187351      35.86859138      10.02938197       0.60000000       0.01867981       0.00061798      -0.00528021      -0.00609027
Ni       2.93666667      34.06533333      13.50866667       0.60000000       0.81885134      -0.19275646       0.15729994      -0.03561484
Ni       2.93666667      35.82733333      15.27066667       0.60000000       0.81547727      -0.21343737       0.32100971      -0.03360363
Ni       5.25561094      35.27710729      15.94800736       0.60000000       0.48289936      -0.00334607      -0.00142314      -0.00045790
Ni       4.75231187      35.89714757      13.58353972       0.60000000       0.23026224       0.00113372      -0.00229773      -0.00403393
Ni       3.52943686      36.98780563      19.38724280       0.60000000       0.30797518       0.00081083       0.00105397       0.00328139
Ni       5.30820685      35.20809350      19.33373004       0.60000000       0.46534774      -0.00234960       0.00056847       0.00525313
Ni       5.28442068      37.05066665      17.62044371       0.60000000       0.34445588      -0.00319133      -0.00321660      -0.00007294
Ni       3.54763701      35.21853398      21.14859567       0.60000000       0.17402576       0.00018373       0.00206273       0.00307917
Ni       3.53839858      36.98832830      22.90455388       0.60000000      -0.00140894       0.00005098       0.00121513       0.00001975
Ni       5.32736526      35.19038443      22.89118661       0.60000000       0.14873044       0.00123423      -0.00574839       0.00145290
Ni       5.30294056      36.98785217      21.14027519       0.60000000       0.03271334      -0.00405798      -0.00235769      -0.00664107
Ni       3.54278359      35.22078371      24.66034386       0.60000000       0.00065777       0.00128419       0.00088492       0.00027632
Ni       3.53644903      36.99046544      26.42367907       0.60000000      -0.00539436       0.00416488      -0.00039267      -0.00559065
Ni       5.32014865      35.21074507      26.40981093       0.60000000       0.00021373      -0.00395739       0.00456029       0.00572493
Ni       5.30992315      36.97920620      24.65597711       0.60000000      -0.00213852       0.00050199       0.00074032      -0.00336708
Ni       3.53988372      35.22385316      28.18026646       0.60000000      -0.00392476       0.00368215       0.00024711      -0.00312826
Ni       3.53356934      36.99410173      29.94741197       0.60000000      -0.00718980       0.00086548      -0.00161855      -0.00290834
Ni       5.31130745      35.21645130      29.93233572       0.60000000      -0.00229038      -0.00310760      -0.00040113       0.00151458
Ni       5.30362446      36.98659528      28.17998437       0.60000000      -0.00364566       0.00665920       0.00078041      -0.00635954
Ni       3.53691230      35.22733452      31.70407678       0.60000000      -0.00496193      -0.00144060       0.00053684       0.00175743
Ni       3.53149540      36.99638321      33.47188685       0.60000000      -0.00847315      -0.00033223       0.00052939      -0.00043584
Ni       5.30439344      35.22290620      33.46067978       0.60000000      -0.00347816      -0.00006316       0.00054278       0.00085559
Ni       5.29951495      36.99153328      31.70448898       0.60000000      -0.00619304      -0.00111763      -0.00020991       0.00005089
Ni       3.53345155      35.23159736      35.23159736       0.60000000      -0.00577958      -0.00147161       0.00097065       0.00097065
Ni       3.52800931      36.99962920      36.99962920       0.60000000      -0.01135266       0.00005661       0.00114509       0.00114509
Ni       5.29498092      35.23209378      36.99528985       0.60000000      -0.00775899      -0.00110017       0.00019747       0.00144075
Ni       5.29498092      36.99528985      35.23209378       0.60000000      -0.00775899      -0.00110017       0.00144075       0.00019747
Ni       3.52400000      35.24000000      38.76400000       0.60000000      -0.10894986       0.02687913      -0.02288511       0.73580314
Ni       3.52400000      37.00200000      40.52600000       0.60000000       8.28029594      24.11815032     -24.14757348     -55.03965335
Ni       5.28600000      35.24000000      40.52600000       0.60000000       8.28223973      24.06421012     -24.06438276     -55.04373499
Ni       5.28600000      37.00200000      38.76400000       0.60000000      -0.11059748       0.02217747      -0.01205876       0.73717451
Ni       2.93666667      37.58933333      -0.58733333       0.60000000       8.31319894     -24.12351660      23.93169353      55.04603874
Ni       2.93666667      39.35133333       1.17466667       0.60000000       0.38207649      -0.02700059       0.37560193      -0.61069838
Ni       4.69866667      37.58933333       1.17466667       0.60000000      -0.06548423      -0.00595788      -0.12324708      -0.74052340
Ni       4.69866667      39.35133333      -0.58733333       0.60000000       8.79610002     -24.04325731      23.70607142      55.78391587
Ni       2.93666667      37.58933333       2.93666667       0.60000000       0.03223598      -0.00164170      -0.09729955      -0.00164170
Ni       2.93666667      39.35133333       4.69866667       0.60000000       0.48570439      -0.00122503       0.45170676      -0.00545384
Ni       4.70426552      37.58120825       4.70426552       0.60000000       0.03706029      -0.00099668      -0.01491696      -0.00099668
Ni       4.69866667      39.35133333       2.93666667       0.60000000       0.48570439      -0.00545384       0.45170676      -0.00122503
Ni       2.93666667      37.58933333       6.46066667       0.60000000       0.03569254       0.02439798      -0.09438385       0.04690649
Ni       2.93666667      39.35133333       8.22266667       0.60000000       0.48691107       0.02165919       0.44157564       0.00601975
Ni       4.71371930      37.58360001       8.24041421       0.60000000       0.05142540      -0.00297934      -0.00116642      -0.00146927
Ni       4.69866667      39.35133333       6.46066667       0.60000000       0.48871154       0.04163943       0.39439201       0.03425863
Ni       2.93666667      37.58933333       9.98466667       0.60000000       0.06141496       0.09515938      -0.05348033       0.12006083
Ni       2.93666667      39.35133333      11.74666667       0.60000000       0.66739223      -0.05710141       0.45416037       0.02551154
Ni       4.73837182      37.63616939      11.80946619       0.60000000       0.43250814      -0.00744491      -0.00172082      -0.00279909
Ni       4.69866667      39.35133333       9.98466667       0.60000000       0.66212225      -0.01753524       0.41895070       0.02081379
Ni       2.93666667      37.58933333      13.50866667       0.60000000       0.53421285      -0.15612864       0.13080730       0.54976719
Ni       3.52400000      40.52600000      15.85800000       0.60000000       0.45121294       0.04092290      -0.52569756      -0.02006201
Ni       4.74573247      37.87590525      15.26433090       0.60000000       0.47824839       0.00743675      -0.00697437       0.00448777
Ni       5.28600000      40.52600000      14.09600000       0.60000000       0.51094500      -0.10921071      -0.43531536       0.08263952
Ni       2.93666667      37.58933333      17.03266667       0.60000000       1.12491792       2.62298790      -2.58177471       3.20094569
Ni       3.52400000      40.52600000      19.38200000       0.60000000       0.12588456      -0.00791566      -0.09692585      -0.09273841
Ni       5.28600000      38.76400000      19.38200000       0.60000000       0.14235664      -0.11315912       0.01053346       0.06506414
Ni       5.28600000      40.52600000      17.62000000       0.60000000       0.23955392      -0.11677852      -0.24249510      -0.13520813
Ni       3.52400000      38.76400000      21.14400000       0.60000000       0.02201823       0.04466120      -0.06799825       0.10927008
Ni       3.52400000      40.52600000      22.90600000       0.60000000       0.02868796       0.00211243      -0.10247893      -0.00209165
Ni       5.28600000      38.76400000      22.90600000       0.60000000      -0.00393199       0.07632900      -0.10528557      -0.00968699
Ni       5.28600000      40.52600000      21.14400000       0.60000000       0.00257225       0.01190188       0.00106177       0.00709075
Ni       3.52400000      38.76400000      24.66800000       0.60000000      -0.00110024       0.06673096      -0.09579831      -0.01712376
Ni       3.52400000      40.52600000      26.43000000       0.60000000       0.25955831      -0.25321053       0.15098895       0.24057334
Ni       5.28600000      38.76400000      26.43000000       0.60000000       0.00059475       0.07090365      -0.11810610      -0.04559590
Ni       5.28600000      40.52600000      24.66800000       0.60000000       0.04159483       0.00874223      -0.09687873       0.00490023
Ni       3.52400000      38.76400000      28.19200000       0.60000000       0.00407550      -0.07646901       0.04908860       0.09667744
Ni       3.52400000      40.52600000      29.95400000       0.60000000       8.27245320      26.64621183     -53.37852739     -26.64609266
Ni       5.28600000      38.76400000      29.95400000       0.60000000       0.00476332      -0.06786292       0.03942340       0.08086673
Ni       5.28600000      40.52600000      28.19200000       0.60000000       0.26753302      -0.23530317       0.14722422       0.23543704
Ni       3.52400000      38.76400000      31.71600000       0.60000000      -0.10041565       0.00026621       0.65789375       0.01015860
Ni       3.52400000      40.52600000      33.47800000       0.60000000       8.28213634      24.06443161     -55.04401367     -24.06419325
Ni       5.28600000      38.76400000      33.47800000       0.60000000      -0.10001515       0.00436351       0.65298371      -0.00069643
Ni       5.28600000      40.52600000      31.71600000       0.60000000       8.27271465      26.64609034     -53.37772259     -26.64615193
Ni       3.52400000      38.76400000      35.24000000       0.60000000      -0.10894986       0.02687913       0.73580314      -0.02288511
Ni       3.52400000      40.52600000      37.00200000       0.60000000       8.28029594      24.11815032     -55.03965335     -24.14757348
Ni       5.28600000      38.76400000      37.00200000       0.60000000      -0.11059748       0.02217747       0.73717451      -0.01205876
Ni       5.28600000      40.52600000      35.24000000       0.60000000       8.28223973      24.06421012     -55.04373499     -24.06438276
Ni       3.52400000      38.76400000      38.76400000       0.60000000      -0.18071579       0.02179548       0.45348596       0.45348596
Ni       3.52400000      40.52600000      40.52600000       0.60000000       1.06894911      -6.34824886      -0.14370563      -0.14370563
Ni       5.28600000      38.76400000      40.52600000       0.60000000       8.40027668      24.21821904     -24.76520029     -55.86988004
Ni       5.28600000      40.52600000      38.76400000       0.60000000       8.40027668      24.21821904     -55.86988004     -24.76520029
Ni       7.04800000       0.00000000       0.00000000       0.60000000       0.70643638       0.02863296      -0.31205971      -0.31205971
Ni       7.04800000       1.76200000       1.76200000       0.60000000       0.07999623      -0.00234911       0.09588347       0.09588347
Ni       8.81000000       0.00000000       1.76200000       0.60000000       0.51534525       0.00369420      -0.48544237       0.03363516
Ni       8.81000000       1.76200000       0.00000000       0.60000000       0.51534525       0.00369420       0.03363516      -0.48544237
Ni       7.04800000       0.00000000       3.52400000       0.60000000       0.48830314       0.00609567      -0.47526338       0.00287195
Ni       7.04800000       1.76200000       5.28600000       0.60000000       0.03815484       0.03319085       0.15809458       0.03356750
Ni       8.81000000       0.00000000       5.28600000       0.60000000       0.48875209      -0.00471879      -0.47026262      -0.00481420
Ni       8.81000000       1.76200000       3.52400000       0.60000000       0.03774155       0.02409090       0.15282714       0.03107730
Ni       7.04800000       0.00000000       7.04800000       0.60000000       0.48876950      -0.00471569      -0.47017330      -0.00471569
Ni       7.04800000       1.76200000       8.81000000       0.60000000       0.03420556       0.04275365       0.19799553       0.04441721
Ni       8.81000000       0.00000000       8.81000000       0.60000000       0.29894685      -0.07973583      -0.06764326      -0.07973583
Ni       8.81000000       1.76200000       7.04800000       0.60000000       0.03420556       0.04441718       0.19799551       0.04275367
Ni       7.04800000       0.00000000      10.57200000       0.60000000       0.29894616      -0.07986139      -0.06788333      -0.07964843
Ni       7.04800000       1.76200000      12.33400000       0.60000000       0.00136891       0.07840050       0.12928330       0.06688731
Ni       8.81000000       0.00000000      12.33400000       0.60000000       0.01496121       0.01133742       0.01635166       0.01134259
Ni       8.81000000       1.76200000      10.57200000       0.60000000       0.00152909       0.07756752       0.13793169       0.07818894
Ni       7.04800000       0.00000000      14.09600000       0.60000000       0.01753009       0.00975717       0.02139476       0.00769367
Ni       7.04800000       1.76200000      15.85800000       0.60000000      -0.00219510       0.08090970       0.14160960       0.07524029
Ni       8.81000000       0.00000000      15.85800000       0.60000000      -0.00255630       0.00134074      -0.00845805       0.00168464
Ni       8.81000000       1.76200000      14.09600000       0.60000000      -0.00174925       0.09116585       0.16138544       0.08478108
Ni       7.04800000       0.00000000      17.62000000       0.60000000       0.00044700       0.00447084      -0.00111446       0.00573703
Ni       7.04800000       1.76200000      19.38200000       0.60000000       0.02260542      -0.04275807       0.06454158       0.05818731
Ni       8.81000000       0.00000000      19.38200000       0.60000000      -0.00585423       0.00048813      -0.00460684      -0.00064746
Ni       8.81000000       1.76200000      17.62000000       0.60000000       0.00139372       0.02891957       0.08719733      -0.00389899
Ni       7.04800000       0.00000000      21.14400000       0.60000000       0.01080015       0.01775620      -0.02858060      -0.01082021
Ni       7.04800000       1.76200000      22.90600000       0.60000000       0.48046244       0.06130900       0.26999229      -0.10998944
Ni       8.81000000       0.00000000      22.90600000       0.60000000       0.01151347       0.01091244      -0.01874915      -0.00997738
Ni       8.81000000       1.76200000      21.14400000       0.60000000       0.02220484      -0.04420308       0.11868180      -0.05411753
Ni       7.04800000       0.00000000      24.66800000       0.60000000       0.30022441      -0.08973931       0.05060294       0.09169685
Ni       8.81000000       0.00000000      26.43000000       0.60000000       0.30030037      -0.09065660       0.05155151       0.09066294
Ni       8.81000000       1.76200000      24.66800000       0.60000000       0.49730834       0.10167210       0.26824401      -0.14255907
Ni       7.04800000       0.00000000      28.19200000       0.60000000       0.65765003      -0.00242780       0.44392026       0.00203097
Ni       8.81000000       0.00000000      29.95400000       0.60000000       0.65769860      -0.00251666       0.44383132       0.00172111
Ni       6.46066667       1.17466667      32.30333333       0.60000000       0.34679454      -0.04005340      -0.68084622       0.04033745
Ni       6.46066667      -0.58733333      34.06533333       0.60000000       8.52100495     -24.71790137      55.73285299      24.71789095
Ni       6.46066667       1.17466667      35.82733333       0.60000000      -0.09981927      -0.02576972      -0.75004199       0.02686964
Ni       8.22266667      -0.58733333      35.82733333       0.60000000       8.52100166     -24.71783847      55.73302326      24.71669195
Ni       8.22266667       1.17466667      34.06533333       0.60000000       0.34777568      -0.03954439      -0.68332570       0.04009037
Ni       6.46066667      -0.58733333      37.58933333       0.60000000       8.31450721     -24.12640341      55.04209256      23.93963251
Ni       6.46066667       1.17466667      39.35133333       0.60000000       0.38445741      -0.00950603      -0.60923132       0.37657787
Ni       8.22266667      -0.58733333      39.35133333       0.60000000       8.79684039     -24.05136357      55.78505643      23.71424644
Ni       8.22266667       1.17466667      37.58933333       0.60000000      -0.05584647      -0.02471308      -0.71672742      -0.10348040
Ni       7.04800000       3.52400000       0.00000000       0.60000000       0.48830314       0.00609567       0.00287195      -0.47526338
Ni       7.04800000       5.28600000       1.76200000       0.60000000       0.03815484       0.03319085       0.03356751       0.15809459
Ni       8.81000000       3.52400000       1.76200000       0.60000000       0.03774155       0.02409090       0.03107730       0.15282714
Ni       8.81000000       5.28600000       0.00000000       0.60000000       0.48875209      -0.00471879      -0.00481420      -0.47026262
Ni       7.05447415       3.53143696       3.53143696       0.60000000      -0.00636210       0.00070787       0.00040016       0.00040016
Ni       7.06558163       5.30355961       5.30355961       0.60000000      -0.00339674       0.00000680       0.00066838       0.00066838
Ni       8.82264934       3.53608087       5.29910165       0.60000000      -0.00472697      -0.00034732       0.00081911      -0.00013860
Ni       8.82264934       5.29910165       3.53608087       0.60000000      -0.00472697      -0.00034731      -0.00013860       0.00081911
Ni       7.06143879       3.53608042       7.06143879       0.60000000      -0.00463711       0.00057818       0.00110884       0.00057818
Ni       7.07384184       5.30988934       8.83598612       0.60000000      -0.00241792       0.00050362       0.00275222       0.00025865
Ni       8.82979432       3.54077028       8.82979433       0.60000000      -0.00352383      -0.00191651       0.00072099      -0.00191650
Ni       8.83598611       5.30988935       7.07384185       0.60000000      -0.00241792       0.00025865       0.00275222       0.00050363
Ni       7.06744322       3.54160412      10.59174695       0.60000000      -0.00370098      -0.00031308      -0.00013969      -0.00244819
Ni       7.08477443       5.32172909      12.37094639       0.60000000      -0.00052248      -0.00145941      -0.00032477      -0.00610708
Ni       8.83896211       3.55188528      12.36085149       0.60000000      -0.00083798      -0.00275865       0.00214289       0.00220786
Ni       8.84734730       5.31956952      10.60828089       0.60000000      -0.00016627       0.00070629       0.00033859      -0.00083192
Ni       7.07617725       3.54899353      14.11696973       0.60000000      -0.00085233      -0.00275014       0.00649346       0.00194954
Ni       7.10102606       5.34578575      15.89373031       0.60000000       0.03029521       0.00274718      -0.00141148       0.00365519
Ni       8.83122322       3.55926657      15.89181314       0.60000000       0.00529681      -0.00295760      -0.00015236      -0.00052867
Ni       8.86169881       5.34895062      14.14863713       0.60000000       0.00855448      -0.00398049       0.00383877       0.00151271
Ni       7.05654555       3.56057401      17.64634995       0.60000000       0.10914213      -0.00309935      -0.00266341      -0.00090797
Ni       8.81429693       3.53057493      19.37965602       0.60000000       0.15357105       0.00013608      -0.00364111      -0.00307490
Ni       8.82065728       5.36482724      17.71438861       0.60000000       0.22341557      -0.00008607      -0.00507684       0.00741195
Ni       7.02965396       3.60860100      21.11300823       0.60000000       0.42083944       0.00431296      -0.00344606      -0.00373307
Ni       8.84527157       3.58556220      22.80711035       0.60000000       0.54832240       0.00334864      -0.00058900       0.00524182
Ni       7.03245737       5.26977923      26.49432616       0.60000000       0.51106018      -0.00697386       0.00357405      -0.00328493
Ni       6.46066667       2.93666667      27.01733333       0.60000000       0.81106137      -0.05483307      -0.38468169       0.10199933
Ni       6.45140459       4.70185600      28.82308097       0.60000000       0.07214635      -0.00422715       0.00217106      -0.00809818
Ni       8.22266667       2.93666667      28.77933333       0.60000000       0.81167241      -0.07403073      -0.32748972       0.11961708
Ni       8.80506022       5.27542056      28.27790834       0.60000000       0.49563582      -0.00294206      -0.00011220       0.00492566
Ni       6.46066667       2.93666667      30.54133333       0.60000000       0.29912405       0.13022883      -0.04605235       0.00650781
Ni       6.47005547       4.70837899      32.34279709       0.60000000      -0.00073267       0.00192690      -0.00527994       0.00197982
Ni       8.22266667       2.93666667      32.30333333       0.60000000       0.30132712       0.16473566      -0.00352101       0.02593394
Ni       8.21814482       4.71002716      30.59616795       0.60000000       0.07125391       0.00606993       0.00445040       0.00167817
Ni       6.46066667       2.93666667      34.06533333       0.60000000       0.00639479       0.04707048       0.02726580       0.08588706
Ni       6.47473864       4.70912564      35.83690228       0.60000000      -0.00075185       0.00715496       0.00398267      -0.00844848
Ni       8.22266667       2.93666667      35.82733333       0.60000000       0.00875783       0.08767838       0.05033692       0.05975388
Ni       8.24805620       4.71933206      34.10792606       0.60000000       0.00187477      -0.00307490       0.00133572      -0.00295481
Ni       6.46066667       2.93666667      37.58933333       0.60000000       0.03569254       0.04690649       0.02439798      -0.09438385
Ni       6.46066667       4.69866667      39.35133333       0.60000000       0.48871154       0.03425863       0.04163943       0.39439201
Ni       8.22266667       2.93666667      39.35133333       0.60000000       0.48691107       0.00601975       0.02165919       0.44157564
Ni       8.24041421       4.71371930      37.58360001       0.60000000       0.05142540      -0.00146927      -0.00297934      -0.00116642
Ni       7.04800000       7.04800000       0.00000000       0.60000000       0.48876950      -0.00471569      -0.00471569      -0.47017330
Ni       7.04800000       8.81000000       1.76200000       0.60000000       0.03420556       0.04275367       0.04441722       0.19799554
Ni       8.81000000       7.04800000       1.76200000       0.60000000       0.03420556       0.04441720       0.04275367       0.19799553
Ni       8.81000000       8.81000000       0.00000000       0.60000000       0.29894685      -0.07973583      -0.07973583      -0.06764326
Ni       7.06143879       7.06143879       3.53608042       0.60000000      -0.00463711       0.00057818       0.00057818       0.00110884
Ni       7.07384184       8.83598612       5.30988934       0.60000000      -0.00241792       0.00050363       0.00025865       0.00275222
Ni       8.83598612       7.07384185       5.30988935       0.60000000      -0.00241792       0.00025865       0.00050363       0.00275223
Ni       8.82979432       8.82979433       3.54077028       0.60000000      -0.00352383      -0.00191650      -0.00191650       0.00072099
Ni       7.07570722       7.07570722       7.07570721       0.60000000      -0.00309322       0.00014328       0.00014328       0.00014328
Ni       7.08310017       8.84749917       8.84749917       0.60000000      -0.00325491       0.00323197       0.00176731       0.00176731
Ni       8.84749916       7.08310019       8.84749917       0.60000000      -0.00325491       0.00176730       0.00323199       0.00176732
Ni       8.84749916       8.84749917       7.08310019       0.60000000      -0.00325492       0.00176731       0.00176732       0.00323200
Ni       7.08266979       7.08266980      10.60817626       0.60000000      -0.00168879       0.00431429       0.00431429      -0.00165810
Ni       7.09603650       8.86078864      12.37674998       0.60000000       0.00586699       0.00184172      -0.00104402       0.00210538
Ni       8.86078865       7.09603659      12.37674993       0.60000000       0.00586694      -0.00104404       0.00184180       0.00210540
Ni       8.85549816       8.85549821      10.61757339       0.60000000      -0.00347702       0.00777016       0.00777019       0.00739208
Ni       7.10470248       7.10470248      14.14641573       0.60000000       0.01148876      -0.00478718      -0.00478707      -0.00104165
Ni       7.16401347       8.87208113      15.96889549       0.60000000       0.12274515      -0.00024949      -0.00092214       0.00647482
Ni       8.87208186       7.16401348      15.96889435       0.60000000       0.12274538      -0.00092125      -0.00024960       0.00647343
Ni       8.86297756       8.86297767      14.13882972       0.60000000       0.16665343      -0.00242415      -0.00242397       0.00302397
Ni       7.07938978       7.07938656      17.78060943       0.60000000       0.32173168       0.00026760       0.00026279      -0.01588994
Ni       8.78173802       8.78173852      18.28899561       0.60000000       0.47266470       0.03009122       0.03009206      -0.00168420
Ni       6.07502600       6.07516262      19.82930051       0.60000000       0.56927956      -0.01463710      -0.01450691      -0.00832601
Ni       5.47071045       8.69982096      20.87673361       0.60000000       0.59174312      -0.00386250       0.00489425       0.00533016
Ni       8.69983149       5.47070536      20.87674286       0.60000000       0.59176994       0.00490042      -0.00386645       0.00533691
Ni       7.84393560       7.84393303      20.26998700       0.60000000       0.80643343      -0.01964174      -0.01964437      -0.04410899
Ni       7.03114640       7.03114635      24.79081338       0.60000000       1.04706002      -0.00054171      -0.00054177       0.00089395
Ni       7.04010303       8.79125607      26.54916005       0.60000000       0.53692649      -0.00033145      -0.00702812      -0.00332286
Ni       8.79125609       7.04010302      26.54916005       0.60000000       0.53692648      -0.00702809      -0.00033146      -0.00332285
Ni       8.78132307       8.78132306      24.80811666       0.60000000       1.05503061      -0.00037436      -0.00037439       0.00345632
Ni       7.04207019       7.04207018      28.28081575       0.60000000       0.01898736       0.00193029       0.00193027      -0.00062541
Ni       7.05308588       8.81605777      30.04447794       0.60000000       0.00818133       0.00748833       0.00306116       0.00703002
Ni       8.81605777       7.05308588      30.04447794       0.60000000       0.00818133       0.00306117       0.00748833       0.00703003
Ni       8.80813999       8.80813999      28.31130539       0.60000000       0.02048610       0.00352282       0.00352281      -0.01433333
Ni       6.46499869       6.46499869      30.60569768       0.60000000      -0.00474427       0.00738391       0.00738391      -0.00132796
Ni       6.48615301       8.24604002      32.37397990       0.60000000      -0.00496798       0.01125015       0.00142872       0.02036696
Ni       8.24604002       6.48615301      32.37397991       0.60000000      -0.00496798       0.00142872       0.01125015       0.02036696
Ni       8.83755128       8.83755128      31.78632858       0.60000000      -0.00307453      -0.00220102      -0.00220102       0.01144823
Ni       6.48965611       6.48965611      34.11600483       0.60000000      -0.00330510       0.00794113       0.00794113       0.01014604
Ni       6.51289984       8.27970783      35.87501789       0.60000000       0.01455094      -0.00825311      -0.00394790       0.00861641
Ni       8.27970783       6.51289984      35.87501789       0.60000000       0.01455094      -0.00394790      -0.00825311       0.00861641
Ni       8.28304339       8.28304339      34.14038828       0.60000000       0.00246699      -0.00426107      -0.00426107      -0.02035474
Ni       6.48065251       6.48065251      37.58417453       0.60000000       0.05179470      -0.00023808      -0.00023808      -0.00402936
Ni       6.46066667       8.22266667      39.35133333       0.60000000       0.66161630       0.00337349       0.01797989       0.43414064
Ni       8.22266667       6.46066667      39.35133333       0.60000000       0.66161630       0.01797989       0.00337349       0.43414064
Ni       8.28750251       8.28750251      37.64930947       0.60000000       0.45169854       0.01035404       0.01035404       0.00987869
Ni       7.04800000      10.57200000       0.00000000       0.60000000       0.29894616      -0.07986139      -0.07964843      -0.06788333
Ni       7.04800000      12.33400000       1.76200000       0.60000000       0.00136891       0.07840050       0.06688732       0.12928332
Ni       8.81000000      10.57200000       1.76200000       0.60000000       0.00152909       0.07756751       0.07818895       0.13793169
Ni       8.81000000      12.33400000       0.00000000       0.60000000       0.01496121       0.01133742       0.01134259       0.01635166
Ni       7.06744322      10.59174695       3.54160412       0.60000000      -0.00370098      -0.00031308      -0.00244819      -0.00013969
Ni       7.08477443      12.37094639       5.32172909       0.60000000      -0.00052248      -0.00145941      -0.00610708      -0.00032477
Ni       8.84734730      10.60828089       5.31956952       0.60000000      -0.00016627       0.00070629      -0.00083191       0.00033859
Ni       8.83896210      12.36085150       3.55188528       0.60000000      -0.00083798      -0.00275865       0.00220787       0.00214290
Ni       7.08266979      10.60817626       7.08266980       0.60000000      -0.00168879       0.00431429      -0.00165811       0.00431430
Ni       7.09603650      12.37674997       8.86078865       0.60000000       0.00586699       0.00184172       0.00210537      -0.00104401
Ni       8.85549815      10.61757338       8.85549822       0.60000000      -0.00347702       0.00777015       0.00739208       0.00777020
Ni       8.86078864      12.37674994       7.09603660       0.60000000       0.00586694      -0.00104405       0.00210541       0.00184182
Ni       7.09858209      10.62382361      10.62382362       0.60000000       0.00136139       0.00506940       0.00272756       0.00272757
Ni       7.14632144      12.41170040      12.41170042       0.60000000       0.01305738       0.00130694      -0.00216906      -0.00216903
Ni       8.87912946      10.63398398      12.38942898       0.60000000       0.02627551       0.00299909       0.00291632       0.00923026
Ni       8.87912945      12.38942897      10.63398400       0.60000000       0.02627551       0.00299908       0.00923025       0.00291634
Ni       7.14830105      10.63012040      14.17823396       0.60000000       0.12181574       0.00282386      -0.00518654       0.01000713
Ni       7.21460001      12.37055193      15.95489896       0.60000000       0.27315000      -0.00447265       0.00584388      -0.00326713
Ni       8.95813623      12.41209812      14.19084529       0.60000000       0.27985958      -0.00331155       0.00300823       0.00082426
Ni       7.24033295      10.58527167      17.70821093       0.60000000       0.32933202       0.00508144       0.00304081      -0.00478707
Ni       7.26338596      12.40349705      19.31446756       0.60000000       0.19880608       0.00069156      -0.00797684       0.00073733
Ni       7.33977931      10.44201359      20.76541281       0.60000000       0.53224050       0.00230294      -0.00025144       0.01016244
Ni       5.42709873      10.58663382      22.66850926       0.60000000       0.57454559      -0.00257368       0.00316602       0.00167861
Ni       5.40033211      12.40414264      24.49318680       0.60000000       0.55725405      -0.00235834       0.00249597       0.00015970
Ni       8.79239413      10.54096199      26.54863613       0.60000000       0.54089033       0.00552386       0.00056043      -0.00675506
Ni       7.25472689      12.35626691      22.65399835       0.60000000       0.57467272      -0.00254651       0.00346587      -0.00328241
Ni       7.05523548      10.56379191      28.31153146       0.60000000       0.51980556      -0.00178121       0.00455806      -0.00455512
Ni       7.06248218      12.35624780      30.04656000       0.60000000       0.51836641      -0.00215339       0.00234454      -0.00472397
Ni       8.83125458      10.59385889      30.04608578       0.60000000       0.00965342       0.00368410       0.00103286      -0.01177574
Ni       8.81978573      12.32785556      28.28172824       0.60000000       0.52011336       0.00093132       0.00573051      -0.00132250
Ni       7.06590069      10.60288110      31.78410464       0.60000000       0.01293974      -0.00094459       0.00353434       0.00904480
Ni       7.07352492      12.40933521      33.49745709       0.60000000       0.02077386      -0.00727418       0.00481344      -0.00090539
Ni       8.85647323      10.63343089      33.50332207       0.60000000       0.00832050       0.00740101       0.00685645      -0.01090189
Ni       8.84399133      12.40266573      31.74832184       0.60000000       0.01324809      -0.00234467      -0.00735605       0.00281829
Ni       6.51296205      10.04189950      34.13349276       0.60000000       0.00324576      -0.00783966       0.00583333      -0.00103438
Ni       6.53939993      11.84218783      35.89188734       0.60000000       0.27543199       0.00431633       0.00429204       0.00574227
Ni       8.32071764      10.08944064      35.90360697       0.60000000       0.27745898      -0.00104332      -0.00187178      -0.00804439
Ni       8.87560336      12.43358827      35.19687521       0.60000000       0.15789050      -0.00329242      -0.00186573       0.00123673
Ni       6.51814017      10.05314896      37.64840098       0.60000000       0.45348301      -0.00831624      -0.00131424      -0.00790462
Ni       7.04800000      12.33400000      40.52600000       0.60000000       0.45656822      -0.01900949       0.01847610      -0.29425185
Ni       8.81000000      10.57200000      40.52600000       0.60000000       0.45476125       0.00411686       0.00669421      -0.30493166
Ni       8.78402504      12.33001527      38.68470959       0.60000000       0.41629501      -0.00273104       0.00319156       0.00273079
Ni       7.04800000      14.09600000       0.00000000       0.60000000       0.01753009       0.00975717       0.00769367       0.02139476
Ni       7.04800000      15.85800000       1.76200000       0.60000000      -0.00219510       0.08090968       0.07524051       0.14160978
Ni       8.81000000      14.09600000       1.76200000       0.60000000      -0.00174925       0.09116578       0.08478119       0.16138548
Ni       8.81000000      15.85800000       0.00000000       0.60000000      -0.00255630       0.00134074       0.00168464      -0.00845805
Ni       7.07617726      14.11696974       3.54899353       0.60000000      -0.00085232      -0.00275013       0.00194955       0.00649347
Ni       7.10102604      15.89373035       5.34578577       0.60000000       0.03029518       0.00274717       0.00365523      -0.00141146
Ni       8.86169879      14.14863716       5.34895063       0.60000000       0.00855448      -0.00398051       0.00151273       0.00383878
Ni       8.83122317      15.89181321       3.55926659       0.60000000       0.00529681      -0.00295765      -0.00052861      -0.00015233
Ni       7.10470247      14.14641573       7.10470249       0.60000000       0.01148876      -0.00478718      -0.00104164      -0.00478707
Ni       7.16401346      15.96889547       8.87208116       0.60000000       0.12274516      -0.00024950       0.00647479      -0.00092211
Ni       8.86297754      14.13882973       8.86297769       0.60000000       0.16665343      -0.00242417       0.00302398      -0.00242396
Ni       8.87208181      15.96889440       7.16401349       0.60000000       0.12274536      -0.00092129       0.00647348      -0.00024958
Ni       7.14830104      14.17823394      10.63012043       0.60000000       0.12181574       0.00282386       0.01000711      -0.00518651
Ni       7.21460001      15.95489895      12.37055195       0.60000000       0.27315000      -0.00447265      -0.00326715       0.00584390
Ni       8.95813622      14.19084527      12.41209815       0.60000000       0.27985958      -0.00331156       0.00082423       0.00300826
Ni       7.22245987      14.18951305      14.18951307       0.60000000       0.03561961      -0.00205375       0.00031531       0.00031533
Ni       7.30156806      15.93551910      15.93551911       0.60000000       0.05289887      -0.00308654      -0.00113159      -0.00113159
Ni       9.10173507      14.16640805      15.97725906       0.60000000       0.45136200      -0.00520620       0.00080840      -0.00207811
Ni       9.10173508      15.97725906      14.16640806       0.60000000       0.45136200      -0.00520620      -0.00207812       0.00080841
Ni       7.24939622      14.17815288      17.63653719       0.60000000       0.17543070       0.00063796       0.00200986       0.00188647
Ni       7.36069648      15.92385310      19.35229399       0.60000000       0.05143007       0.00038955      -0.00105432       0.00389138
Ni       9.26211507      15.94072150      17.64754385       0.60000000       0.22581953       0.00698027      -0.00122527       0.00066760
Ni       7.32346959      14.16083265      21.02136572       0.60000000       0.07275403       0.00072997      -0.00122806       0.00157756
Ni       7.33501673      15.92838537      22.79108031       0.60000000       0.05566930      -0.00539871      -0.00083584       0.00222577
Ni       7.23694745      14.18013944      24.49489654       0.60000000       0.55944663      -0.00165333       0.00156103      -0.00527746
Ni       5.39117025      14.20403542      26.30317367       0.60000000       0.55076214       0.00125176       0.00132984       0.00248769
Ni       5.40172303      15.99283207      28.12115847       0.60000000       0.64930216       0.00087210      -0.00117033       0.00760217
Ni       8.83042168      14.14343541      29.98109191       0.60000000       0.50287023      -0.00249176      -0.00296404       0.00110465
Ni       7.23632943      15.98614491      26.32171979       0.60000000       0.55591137       0.00199061       0.00104617      -0.00163127
Ni       7.03322837      14.19739367      31.73649551       0.60000000       0.38513499       0.00480504      -0.00945122      -0.00419831
Ni       7.05271482      15.97674152      33.46976933       0.60000000       0.22544563      -0.00110093      -0.00919738      -0.00529168
Ni       8.85287930      14.20815998      33.43199293       0.60000000       0.01022239      -0.00011393       0.00002250      -0.00272635
Ni       8.78939595      15.97716268      31.65636132       0.60000000       0.23878857      -0.00000954      -0.00472039      -0.00432820
Ni       7.07838814      14.19617758      35.21675127       0.60000000       0.15375504       0.00096856      -0.00158467       0.00368608
Ni       7.05681593      15.89015450      36.99191449       0.60000000       0.17651870       0.00125320       0.00140846      -0.00413500
Ni       8.84818389      14.15857422      36.95969775       0.60000000       0.16304108       0.00187625       0.00294255      -0.00315452
Ni       8.87664576      15.95179647      35.17801827       0.60000000       0.01434410      -0.00060694       0.00030589      -0.00097343
Ni       6.97135531      14.09082658      38.67721789       0.60000000       0.43199520       0.00712293       0.01072698       0.00694014
Ni       7.04800000      15.85800000      40.52600000       0.60000000       0.12452905      -0.12233026      -0.14477213      -0.25180025
Ni       8.81000000      14.09600000      40.52600000       0.60000000       0.01702448      -0.17210016      -0.11117166      -0.27445151
Ni       8.81000000      15.85800000      38.76400000       0.60000000       0.02996164       0.09110086      -0.03144667      -0.12927740
Ni       7.04800000      17.62000000       0.00000000       0.60000000       0.00044701       0.00447084       0.00573703      -0.00111447
Ni       7.04800000      19.38200000       1.76200000       0.60000000       0.02260539      -0.04275787       0.05818740       0.06454143
Ni       8.81000000      17.62000000       1.76200000       0.60000000       0.00139371       0.02891936      -0.00389885       0.08719745
Ni       8.81000000      19.38200000       0.00000000       0.60000000      -0.00585423       0.00048814      -0.00064746      -0.00460685
Ni       7.05654551      17.64635005       3.56057410       0.60000000       0.10914189      -0.00309940      -0.00090788      -0.00266333
Ni       8.82065713      17.71438880       5.36482732       0.60000000       0.22341533      -0.00008624       0.00741214      -0.00507674
Ni       8.81429687      19.37965605       3.53057495       0.60000000       0.15357089       0.00013602      -0.00307487      -0.00364109
Ni       7.07938969      17.78060944       7.07938665       0.60000000       0.32173168       0.00026747      -0.01588993       0.00026291
Ni       8.78173802      18.28899562       8.78173852       0.60000000       0.47266469       0.03009121      -0.00168420       0.03009207
Ni       7.24033296      17.70821091      10.58527169       0.60000000       0.32933203       0.00508144      -0.00478709       0.00304083
Ni       7.26338596      19.31446755      12.40349706       0.60000000       0.19880608       0.00069156       0.00073733      -0.00797684
Ni       7.24939622      17.63653719      14.17815288       0.60000000       0.17543070       0.00063796       0.00188647       0.00200986
Ni       7.36069648      19.35229400      15.92385310       0.60000000       0.05143007       0.00038955       0.00389138      -0.00105431
Ni       9.26211507      17.64754385      15.94072150       0.60000000       0.22581953       0.00698027       0.00066760      -0.00122527
Ni       7.37260665      17.66787940      17.66787940       0.60000000       0.05264516      -0.00337799      -0.00183294      -0.00183294
Ni       7.41176562      19.39683181      19.39683181       0.60000000       0.05690155      -0.00284953      -0.00138433      -0.00138433
Ni       9.33778075      17.66988818      19.37516942       0.60000000       0.09676942       0.00334120       0.00081881      -0.00039042
Ni       9.33778075      19.37516942      17.66988818       0.60000000       0.09676942       0.00334120      -0.00039042       0.00081881
Ni       7.39842359      17.66848007      21.09455941       0.60000000       0.04670550      -0.00542473      -0.00141837       0.00242775
Ni       7.39500236      19.41319529      22.84995577       0.60000000       0.04596634       0.00524169       0.00097758       0.00141625
Ni       9.34390896      19.40529253      21.11873292       0.60000000       0.08456421      -0.00136390      -0.00278732       0.00062348
Ni       7.33410408      17.70025465      24.57921122       0.60000000       0.05439862       0.00441669      -0.00033153       0.00082207
Ni       7.31895117      19.43759757      26.37790856       0.60000000       0.09434099       0.00018829      -0.00043971      -0.00060260
Ni       7.27455954      17.76016815      28.16988262       0.60000000       0.74506957      -0.00423275       0.00632949       0.00449932
Ni       6.29640218      16.62773871      31.22028325       0.60000000       0.95315020       0.00206261      -0.03001974      -0.02225014
Ni       6.41823465      18.37345715      33.01079557       0.60000000       0.85260161      -0.05649833      -0.04886581      -0.00293220
Ni       8.82921109      17.76553342      33.37082635       0.60000000       0.16029880      -0.01396566      -0.00713043      -0.01030142
Ni       8.17003399      18.28855249      31.01214573       0.60000000       0.85719027      -0.01299039      -0.01109973      -0.00406726
Ni       7.10043558      17.65760359      35.25906556       0.60000000       0.20733585      -0.01084384      -0.00524773      -0.00364718
Ni       7.06863336      19.39466305      37.00331318       0.60000000       0.03372774      -0.01286119      -0.00633430      -0.00900972
Ni       8.85830156      17.64658231      36.98931719       0.60000000       0.01092074      -0.01252290      -0.00817298      -0.00730852
Ni       8.85608411      19.40884017      35.19807712       0.60000000       0.14836024      -0.00170075      -0.00381446      -0.00370288
Ni       7.04800000      17.62000000      38.76400000       0.60000000       0.13146725       0.10089714      -0.10494059      -0.02268404
Ni       7.04800000      19.38200000      40.52600000       0.60000000       0.00065603       0.01371670       0.01310308       0.01089333
Ni       8.81000000      17.62000000      40.52600000       0.60000000      -0.00120812       0.00921784       0.00672745       0.01049166
Ni       8.81000000      19.38200000      38.76400000       0.60000000      -0.00144931       0.13866545       0.06627114      -0.09278630
Ni       7.04800000      21.14400000       0.00000000       0.60000000       0.01080016       0.01775620      -0.01082021      -0.02858063
Ni       7.04800000      22.90600000       1.76200000       0.60000000       0.48046246       0.06130898      -0.10998972       0.26999254
Ni       8.81000000      21.14400000       1.76200000       0.60000000       0.02220486      -0.04420334      -0.05411757       0.11868188
Ni       8.81000000      22.90600000       0.00000000       0.60000000       0.01151347       0.01091244      -0.00997738      -0.01874916
Ni       7.02965383      21.11300812       3.60860118       0.60000000       0.42083883       0.00431285      -0.00373316      -0.00344591
Ni       8.84527151      22.80711028       3.58556221       0.60000000       0.54832242       0.00334861       0.00524177      -0.00058899
Ni       6.07502932      19.82930052       6.07515930       0.60000000       0.56927956      -0.01463393      -0.00832600      -0.01451008
Ni       5.47071032      20.87673383       8.69982121       0.60000000       0.59174377      -0.00386259       0.00533032       0.00489440
Ni       7.84393554      20.26998700       7.84393309       0.60000000       0.80643342      -0.01964180      -0.04410899      -0.01964431
Ni       8.69983123      20.87674264       5.47070549       0.60000000       0.59176928       0.00490026       0.00533675      -0.00386636
Ni       7.33977930      20.76541284      10.44201363       0.60000000       0.53224051       0.00230291       0.01016248      -0.00025141
Ni       7.32346959      21.02136572      14.16083265       0.60000000       0.07275403       0.00072997       0.00157756      -0.00122806
Ni       7.33501673      22.79108031      15.92838537       0.60000000       0.05566930      -0.00539871       0.00222577      -0.00083584
Ni       7.39842359      21.09455941      17.66848007       0.60000000       0.04670550      -0.00542473       0.00242775      -0.00141837
Ni       7.39500236      22.84995577      19.41319529       0.60000000       0.04596634       0.00524169       0.00141625       0.00097758
Ni       9.34390896      21.11873292      19.40529253       0.60000000       0.08456421      -0.00136390       0.00062348      -0.00278732
Ni       7.40682501      21.12782870      21.12782870       0.60000000       0.05531582       0.00433040       0.00360634       0.00360634
Ni       7.36168872      22.86015814      22.86015814       0.60000000       0.04620784       0.00168318       0.00211226       0.00211226
Ni       9.31490125      21.14226393      22.86491178       0.60000000       0.09005128       0.00093122       0.00000951      -0.00075014
Ni       9.31490125      22.86491178      21.14226393       0.60000000       0.09005128       0.00093122      -0.00075014       0.00000951
Ni       7.35415526      21.14081338      24.61567361       0.60000000       0.04919352       0.00292510       0.00174751       0.00065686
Ni       7.26787266      22.85505709      26.38116117       0.60000000       0.16074330       0.00071213      -0.00232861       0.00004704
Ni       9.21826328      22.85706895      24.60915918       0.60000000       0.20465662      -0.00035677      -0.00046482       0.00113528
Ni       7.26170255      21.12262815      28.16920944       0.60000000       0.35137993       0.00127432       0.00153979       0.00174026
Ni       7.16717700      22.84928624      29.90299713       0.60000000       0.36284715      -0.01186609       0.02174653      -0.00670072
Ni       7.12718997      22.86775616      33.37680961       0.60000000       0.33422378       0.01610506      -0.01108372       0.00187438
Ni       8.83818016      21.04172958      33.32621139       0.60000000       0.46082601       0.03752041       0.04876770       0.03342412
Ni       9.03033567      22.69846981      31.51166288       0.60000000       0.49149002      -0.00762125      -0.01555243       0.01633559
Ni       7.06657885      21.10772679      35.17664187       0.60000000       0.29077151      -0.01077518       0.00423215      -0.01649157
Ni       7.07455073      22.89120029      36.96973683       0.60000000       0.00464805      -0.01500029       0.00368179       0.01333093
Ni       8.83953900      21.15012686      36.97392671       0.60000000       0.00774464      -0.01954350      -0.02838479       0.00648798
Ni       8.85733213      22.85864045      35.15606021       0.60000000       0.02798370       0.01780727       0.00440341       0.02390079
Ni       7.04800000      21.14400000      38.76400000       0.60000000      -0.00139985       0.07650019       0.04759366      -0.05916533
Ni       7.04800000      22.90600000      40.52600000       0.60000000       0.00068868       0.00377531      -0.00412109       0.00272952
Ni       8.81000000      21.14400000      40.52600000       0.60000000      -0.00493944      -0.00057187      -0.00027271       0.00886647
Ni       8.81000000      22.90600000      38.76400000       0.60000000      -0.00101979       0.08954954      -0.01230089      -0.14125162
Ni       7.04800000      24.66800000       0.00000000       0.60000000       0.30022441      -0.08973931       0.09169685       0.05060295
Ni       8.81000000      24.66800000       1.76200000       0.60000000       0.49730835       0.10167209      -0.14255915       0.26824406
Ni       8.81000000      26.43000000       0.00000000       0.60000000       0.30030037      -0.09065660       0.09066294       0.05155151
Ni       7.03245737      26.49432616       5.26977923       0.60000000       0.51106018      -0.00697386      -0.00328493       0.00357405
Ni       7.03114640      24.79081338       7.03114635       0.60000000       1.04706002      -0.00054171       0.00089395      -0.00054177
Ni       7.04010303      26.54916005       8.79125607       0.60000000       0.53692649      -0.00033145      -0.00332286      -0.00702812
Ni       8.78132307      24.80811666       8.78132306       0.60000000       1.05503061      -0.00037436       0.00345632      -0.00037439
Ni       8.79125609      26.54916005       7.04010302       0.60000000       0.53692648      -0.00702809      -0.00332285      -0.00033146
Ni       5.42709872      22.66850934      10.58663389       0.60000000       0.57454556      -0.00257368       0.00167866       0.00316604
Ni       5.40033211      24.49318683      12.40414266       0.60000000       0.55725404      -0.00235834       0.00015972       0.00249599
Ni       7.25472690      22.65399836      12.35626693       0.60000000       0.57467271      -0.00254651      -0.00328240       0.00346588
Ni       8.79239413      26.54863613      10.54096199       0.60000000       0.54089033       0.00552386      -0.00675506       0.00056043
Ni       7.23694745      24.49489655      14.18013945       0.60000000       0.55944663      -0.00165333      -0.00527746       0.00156103
Ni       7.33410408      24.57921122      17.70025465       0.60000000       0.05439862       0.00441669       0.00082207      -0.00033153
Ni       7.31895117      26.37790856      19.43759757       0.60000000       0.09434099       0.00018829      -0.00060260      -0.00043971
Ni       7.35415526      24.61567361      21.14081338       0.60000000       0.04919352       0.00292510       0.00065686       0.00174751
Ni       7.26787266      26.38116117      22.85505709       0.60000000       0.16074330       0.00071213       0.00004704      -0.00232861
Ni       9.21826328      24.60915918      22.85706895       0.60000000       0.20465662      -0.00035677       0.00113528      -0.00046482
Ni       7.28183278      24.59811846      24.59811846       0.60000000       0.04045852      -0.00135250      -0.00470206      -0.00470206
Ni       7.21468853      26.35410939      26.35410939       0.60000000       0.02276371      -0.00232257      -0.00037136      -0.00037136
Ni       9.08294843      24.58894410      26.34918311       0.60000000       0.27712172      -0.00093789      -0.00196222       0.00095558
Ni       9.08294843      26.34918311      24.58894410       0.60000000       0.27712172      -0.00093789       0.00095558      -0.00196222
Ni       7.20645833      24.60137449      28.12641870       0.60000000       0.13320851       0.00039484       0.00250550      -0.01247167
Ni       7.14978635      26.37149395      29.88117562       0.60000000       0.01101465      -0.00017643       0.00834367      -0.00303842
Ni       8.99153177      26.35342364      28.11441660       0.60000000       0.04660687       0.00216832       0.00831375      -0.00485610
Ni       7.13158656      24.62310935      31.64557983       0.60000000       0.08201174      -0.00023760      -0.00035075      -0.00345846
Ni       7.10696613      26.39298177      33.42630925       0.60000000       0.00646304       0.00851885       0.00583720      -0.00447274
Ni       8.89810674      24.60718959      33.37543118       0.60000000       0.16823131      -0.00202117      -0.02840527      -0.02048894
Ni       8.88826328      26.39154900      31.65405685       0.60000000       0.15765423       0.00845262       0.00380837       0.00625296
Ni       7.10298775      24.63593409      35.18379001       0.60000000       0.00961935      -0.00544359       0.00475367      -0.00596486
Ni       7.07468803      26.41128600      36.97758943       0.60000000      -0.00195698       0.00980588      -0.00413809      -0.00150509
Ni       8.84192502      24.64366153      36.96559331       0.60000000       0.00181081      -0.01310627       0.01414179       0.02667924
Ni       8.86598946      26.39193762      35.18468949       0.60000000       0.00673700       0.00031513      -0.00037339      -0.01019468
Ni       7.04800000      24.66800000      38.76400000       0.60000000      -0.00290365       0.08656265      -0.05378599      -0.14466248
Ni       7.04800000      26.43000000      40.52600000       0.60000000       0.04259266      -0.00478327       0.00493366      -0.08259709
Ni       8.81000000      24.66800000      40.52600000       0.60000000       0.00131968       0.00374963      -0.00373097       0.00479993
Ni       8.81000000      26.43000000      38.76400000       0.60000000      -0.00239580       0.08678940      -0.07232080      -0.15509099
Ni       7.04800000      28.19200000       0.00000000       0.60000000       0.65765003      -0.00242780       0.00203097       0.44392026
Ni       8.81000000      29.95400000       0.00000000       0.60000000       0.65769860      -0.00251666       0.00172111       0.44383132
Ni       6.46066667      27.01733333       2.93666667       0.60000000       0.81106137      -0.05483307       0.10199933      -0.38468169
Ni       6.45140459      28.82308097       4.70185600       0.60000000       0.07214635      -0.00422715      -0.00809818       0.00217106
Ni       8.80506022      28.27790834       5.27542056       0.60000000       0.49563582      -0.00294206       0.00492566      -0.00011220
Ni       8.22266667      28.77933333       2.93666667       0.60000000       0.81167241      -0.07403073       0.11961708      -0.32748972
Ni       7.04207019      28.28081575       7.04207018       0.60000000       0.01898736       0.00193028      -0.00062541       0.00193027
Ni       7.05308588      30.04447794       8.81605777       0.60000000       0.00818133       0.00748833       0.00703002       0.00306116
Ni       8.80813999      28.31130539       8.80813999       0.60000000       0.02048610       0.00352282      -0.01433333       0.00352281
Ni       8.81605777      30.04447794       7.05308588       0.60000000       0.00818133       0.00306117       0.00703003       0.00748833
Ni       7.05523548      28.31153146      10.56379191       0.60000000       0.51980556      -0.00178121      -0.00455512       0.00455806
Ni       7.06248218      30.04656000      12.35624780       0.60000000       0.51836641      -0.00215339      -0.00472397       0.00234454
Ni       8.81978573      28.28172824      12.32785556       0.60000000       0.52011336       0.00093132      -0.00132250       0.00573051
Ni       8.83125458      30.04608578      10.59385889       0.60000000       0.00965342       0.00368410      -0.01177574       0.00103286
Ni       5.39117025      26.30317368      14.20403543       0.60000000       0.55076213       0.00125176       0.00248770       0.00132985
Ni       5.40172303      28.12115847      15.99283208       0.60000000       0.64930216       0.00087210       0.00760217      -0.00117032
Ni       7.23632943      26.32171979      15.98614491       0.60000000       0.55591137       0.00199061      -0.00163127       0.00104618
Ni       8.83042168      29.98109191      14.14343541       0.60000000       0.50287023      -0.00249176       0.00110465      -0.00296404
Ni       7.27455954      28.16988262      17.76016815       0.60000000       0.74506957      -0.00423275       0.00449932       0.00632949
Ni       7.26170255      28.16920944      21.12262815       0.60000000       0.35137993       0.00127432       0.00174026       0.00153979
Ni       7.16717700      29.90299713      22.84928624       0.60000000       0.36284715      -0.01186609      -0.00670072       0.02174653
Ni       7.20645833      28.12641870      24.60137449       0.60000000       0.13320851       0.00039484      -0.01247167       0.00250550
Ni       7.14978635      29.88117562      26.37149395       0.60000000       0.01101465      -0.00017643      -0.00303842       0.00834367
Ni       8.99153177      28.11441660      26.35342364       0.60000000       0.04660687       0.00216832      -0.00485610       0.00831375
Ni       7.15608485      28.12025770      28.12025770       0.60000000       0.00667696      -0.00511843       0.00150295       0.00150295
Ni       7.10815306      29.90194166      29.90194166       0.60000000       0.00048765      -0.00056668       0.00026336       0.00026336
Ni       8.90055621      28.14162752      29.89196191       0.60000000       0.01054227      -0.00117372      -0.00021224       0.00097307
Ni       8.90055621      29.89196191      28.14162752       0.60000000       0.01054227      -0.00117372       0.00097307      -0.00021224
Ni       7.10660415      28.14919573      31.66238812       0.60000000       0.00106201      -0.00082010      -0.00181983       0.00199711
Ni       7.08889458      29.91931432      33.44032916       0.60000000      -0.00154598      -0.00238788       0.00097261      -0.00102674
Ni       8.87075042      28.15553587      33.42742276       0.60000000       0.00482038       0.00182354       0.00732107       0.00451428
Ni       8.86839460      29.91227146      31.66830945       0.60000000      -0.00138979      -0.00174324      -0.00176770      -0.00049944
Ni       7.08724461      28.16289979      35.20500957       0.60000000      -0.00026351      -0.00089293       0.00151642       0.00476626
Ni       7.06810231      29.93731720      36.98497145       0.60000000      -0.00363206      -0.00264899       0.00294545       0.00184551
Ni       8.83737634      28.17040108      36.97703515       0.60000000      -0.00139015       0.00159237      -0.00023581       0.00133375
Ni       8.85049370      29.92339608      35.20619962       0.60000000      -0.00083290      -0.00136200       0.00058318      -0.00036848
Ni       7.04800000      28.19200000      38.76400000       0.60000000       0.00114075       0.07392663      -0.05974543      -0.12233263
Ni       7.04800000      29.95400000      40.52600000       0.60000000       0.26766514      -0.23525248       0.23525397       0.14774628
Ni       8.81000000      28.19200000      40.52600000       0.60000000       0.04261735      -0.00477618       0.00485223      -0.08245841
Ni       8.81000000      29.95400000      38.76400000       0.60000000       0.00115760       0.07390714      -0.06561105      -0.12234451
Ni       6.46066667      32.30333333       1.17466667       0.60000000       0.34679454      -0.04005340       0.04033745      -0.68084622
Ni       6.46066667      30.54133333       2.93666667       0.60000000       0.29912405       0.13022883       0.00650781      -0.04605235
Ni       6.47005547      32.34279709       4.70837899       0.60000000      -0.00073267       0.00192690       0.00197982      -0.00527994
Ni       8.21814482      30.59616795       4.71002716       0.60000000       0.07125391       0.00606993       0.00167817       0.00445040
Ni       8.22266667      32.30333333       2.93666667       0.60000000       0.30132712       0.16473566       0.02593394      -0.00352101
Ni       6.46499869      30.60569768       6.46499869       0.60000000      -0.00474427       0.00738391      -0.00132796       0.00738391
Ni       6.48615301      32.37397990       8.24604002       0.60000000      -0.00496798       0.01125015       0.02036696       0.00142872
Ni       8.83755128      31.78632858       8.83755128       0.60000000      -0.00307453      -0.00220102       0.01144823      -0.00220102
Ni       8.24604002      32.37397991       6.48615301       0.60000000      -0.00496798       0.00142872       0.02036696       0.01125015
Ni       7.06590069      31.78410464      10.60288110       0.60000000       0.01293974      -0.00094459       0.00904480       0.00353434
Ni       7.07352492      33.49745709      12.40933521       0.60000000       0.02077386      -0.00727418      -0.00090539       0.00481344
Ni       8.84399133      31.74832184      12.40266573       0.60000000       0.01324809      -0.00234467       0.00281829      -0.00735605
Ni       8.85647323      33.50332207      10.63343089       0.60000000       0.00832050       0.00740101      -0.01090189       0.00685645
Ni       7.03322837      31.73649551      14.19739367       0.60000000       0.38513499       0.00480504      -0.00419831      -0.00945122
Ni       7.05271482      33.46976933      15.97674152       0.60000000       0.22544563      -0.00110093      -0.00529168      -0.00919738
Ni       8.78939595      31.65636132      15.97716268       0.60000000       0.23878857      -0.00000954      -0.00432820      -0.00472039
Ni       8.85287930      33.43199293      14.20815998       0.60000000       0.01022239      -0.00011393      -0.00272636       0.00002250
Ni       6.29640218      31.22028325      16.62773871       0.60000000       0.95315020       0.00206261      -0.02225014      -0.03001974
Ni       6.41823465      33.01079557      18.37345715       0.60000000       0.85260161      -0.05649833      -0.00293220      -0.04886581
Ni       8.17003399      31.01214573      18.28855249       0.60000000       0.85719027      -0.01299039      -0.00406726      -0.01109973
Ni       8.82921109      33.37082635      17.76553342       0.60000000       0.16029880      -0.01396566      -0.01030142      -0.00713043
Ni       7.12718997      33.37680961      22.86775616       0.60000000       0.33422378       0.01610506       0.00187438      -0.01108372
Ni       9.03033567      31.51166288      22.69846981       0.60000000       0.49149002      -0.00762125       0.01633559      -0.01555243
Ni       8.83818016      33.32621139      21.04172958       0.60000000       0.46082601       0.03752041       0.03342412       0.04876770
Ni       7.13158656      31.64557983      24.62310935       0.60000000       0.08201174      -0.00023760      -0.00345846      -0.00035075
Ni       7.10696613      33.42630925      26.39298177       0.60000000       0.00646304       0.00851885      -0.00447274       0.00583720
Ni       8.88826328      31.65405685      26.39154900       0.60000000       0.15765423       0.00845262       0.00625296       0.00380837
Ni       8.89810674      33.37543118      24.60718959       0.60000000       0.16823131      -0.00202117      -0.02048894      -0.02840527
Ni       7.10660415      31.66238812      28.14919573       0.60000000       0.00106201      -0.00082010       0.00199711      -0.00181983
Ni       7.08889458      33.44032916      29.91931432       0.60000000      -0.00154598      -0.00238788      -0.00102674       0.00097261
Ni       8.86839460      31.66830945      29.91227146       0.60000000      -0.00138979      -0.00174324      -0.00049944      -0.00176770
Ni       8.87075042      33.42742276      28.15553587       0.60000000       0.00482038       0.00182354       0.00451428       0.00732107
Ni       7.08844863      31.67749557      31.67749557       0.60000000      -0.00199388      -0.00044380       0.00136146       0.00136146
Ni       7.07748256      33.45006597      33.45006597       0.60000000      -0.00259168      -0.00029864       0.00047596       0.00047596
Ni       8.85330836      31.68058563      33.44114430       0.60000000      -0.00260492      -0.00018857      -0.00016876      -0.00016219
Ni       8.85330836      33.44114430      31.68058563       0.60000000      -0.00260492      -0.00018857      -0.00016219      -0.00016876
Ni       7.07572897      31.69134770      35.21520094       0.60000000      -0.00251585      -0.00154261      -0.00007656      -0.00095537
Ni       7.06142611      33.46542937      36.99126298       0.60000000      -0.00612266       0.00021906      -0.00093719       0.00018391
Ni       8.82956777      31.69870517      36.98571905       0.60000000      -0.00372254      -0.00098944       0.00032138      -0.00002212
Ni       8.83689121      33.45334724      35.21578420       0.60000000      -0.00274747      -0.00033736       0.00062689       0.00098591
Ni       7.04800000      31.71600000      38.76400000       0.60000000       0.00486696      -0.06762890       0.07183340       0.03626658
Ni       7.04800000      33.47800000      40.52600000       0.60000000       8.27274142      26.64616308     -26.64613645     -53.37764361
Ni       8.81000000      31.71600000      40.52600000       0.60000000       0.26762423      -0.23520146       0.23527137       0.14759518
Ni       8.81000000      33.47800000      38.76400000       0.60000000       0.00483349      -0.07144109       0.07251932       0.03882056
Ni       6.46066667      34.06533333      -0.58733333       0.60000000       8.52100495     -24.71790137      24.71789095      55.73285299
Ni       6.46066667      35.82733333       1.17466667       0.60000000      -0.09981927      -0.02576972       0.02686964      -0.75004199
Ni       8.22266667      34.06533333       1.17466667       0.60000000       0.34777568      -0.03954439       0.04009037      -0.68332570
Ni       8.22266667      35.82733333      -0.58733333       0.60000000       8.52100166     -24.71783847      24.71669195      55.73302326
Ni       6.46066667      34.06533333       2.93666667       0.60000000       0.00639479       0.04707048       0.08588706       0.02726580
Ni       6.47473864      35.83690228       4.70912564       0.60000000      -0.00075185       0.00715496      -0.00844848       0.00398267
Ni       8.24805620      34.10792606       4.71933206       0.60000000       0.00187477      -0.00307490      -0.00295481       0.00133572
Ni       8.22266667      35.82733333       2.93666667       0.60000000       0.00875783       0.08767838       0.05975388       0.05033692
Ni       6.48965611      34.11600483       6.48965611       0.60000000      -0.00330510       0.00794113       0.01014604       0.00794113
Ni       6.51289984      35.87501789       8.27970783       0.60000000       0.01455094      -0.00825311       0.00861641      -0.00394790
Ni       8.28304339      34.14038828       8.28304339       0.60000000       0.00246699      -0.00426107      -0.02035474      -0.00426107
Ni       8.27970783      35.87501789       6.51289984       0.60000000       0.01455094      -0.00394790       0.00861641      -0.00825311
Ni       6.51296205      34.13349276      10.04189950       0.60000000       0.00324576      -0.00783966      -0.00103438       0.00583333
Ni       6.53939993      35.89188734      11.84218783       0.60000000       0.27543199       0.00431633       0.00574227       0.00429204
Ni       8.87560336      35.19687521      12.43358827       0.60000000       0.15789050      -0.00329242       0.00123673      -0.00186573
Ni       8.32071764      35.90360697      10.08944064       0.60000000       0.27745898      -0.00104332      -0.00804439      -0.00187178
Ni       7.07838814      35.21675127      14.19617758       0.60000000       0.15375504       0.00096856       0.00368608      -0.00158467
Ni       7.05681593      36.99191449      15.89015450       0.60000000       0.17651870       0.00125320      -0.00413500       0.00140846
Ni       8.87664576      35.17801827      15.95179647       0.60000000       0.01434410      -0.00060694      -0.00097343       0.00030589
Ni       8.84818389      36.95969775      14.15857422       0.60000000       0.16304108       0.00187625      -0.00315452       0.00294255
Ni       7.10043558      35.25906556      17.65760359       0.60000000       0.20733585      -0.01084384      -0.00364718      -0.00524773
Ni       7.06863336      37.00331318      19.39466305       0.60000000       0.03372774      -0.01286119      -0.00900972      -0.00633430
Ni       8.85608411      35.19807712      19.40884017       0.60000000       0.14836024      -0.00170075      -0.00370288      -0.00381446
Ni       8.85830156      36.98931719      17.64658231       0.60000000       0.01092074      -0.01252290      -0.00730852      -0.00817298
Ni       7.06657885      35.17664187      21.10772679       0.60000000       0.29077151      -0.01077518      -0.01649157       0.00423215
Ni       7.07455073      36.96973683      22.89120029       0.60000000       0.00464805      -0.01500029       0.01333093       0.00368179
Ni       8.85733213      35.15606021      22.85864045       0.60000000       0.02798370       0.01780727       0.02390079       0.00440341
Ni       8.83953900      36.97392671      21.15012686       0.60000000       0.00774464      -0.01954350       0.00648798      -0.02838479
Ni       7.10298775      35.18379001      24.63593409       0.60000000       0.00961935      -0.00544359      -0.00596486       0.00475367
Ni       7.07468803      36.97758943      26.41128600       0.60000000      -0.00195698       0.00980588      -0.00150509      -0.00413809
Ni       8.86598946      35.18468949      26.39193762       0.60000000       0.00673700       0.00031513      -0.01019468      -0.00037339
Ni       8.84192502      36.96559331      24.64366153       0.60000000       0.00181081      -0.01310627       0.02667924       0.01414179
Ni       7.08724461      35.20500957      28.16289979       0.60000000      -0.00026351      -0.00089293       0.00476626       0.00151642
Ni       7.06810231      36.98497145      29.93731720       0.60000000      -0.00363206      -0.00264899       0.00184551       0.00294545
Ni       8.85049370      35.20619962      29.92339608       0.60000000      -0.00083290      -0.00136200      -0.00036848       0.00058318
Ni       8.83737634      36.97703515      28.17040108       0.60000000      -0.00139015       0.00159237       0.00133375      -0.00023581
Ni       7.07572897      35.21520094      31.69134770       0.60000000      -0.00251585      -0.00154261      -0.00095537      -0.00007656
Ni       7.06142611      36.99126298      33.46542937       0.60000000      -0.00612266       0.00021906       0.00018391      -0.00093719
Ni       8.83689121      35.21578420      33.45334724       0.60000000      -0.00274747      -0.00033736       0.00098591       0.00062689
Ni       8.82956777      36.98571905      31.69870517       0.60000000      -0.00372254      -0.00098944      -0.00002212       0.00032138
Ni       7.06559940      35.22350622      35.22350622       0.60000000      -0.00391248      -0.00067440       0.00028828       0.00028828
Ni       7.05411001      36.99718673      36.99718673       0.60000000      -0.01064104      -0.00199112       0.00024775       0.00024775
Ni       8.82137337      35.22847464      36.99202308       0.60000000      -0.00638664      -0.00064045       0.00083770      -0.00037502
Ni       8.82137337      36.99202308      35.22847464       0.60000000      -0.00638664      -0.00064045      -0.00037502       0.00083770
Ni       7.04800000      35.24000000      38.76400000       0.60000000      -0.10010121       0.00136193      -0.00059475       0.65357108
Ni       7.04800000      37.00200000      40.52600000       0.60000000       8.28624053      24.06585258     -24.09551699     -55.06171218
Ni       8.81000000      35.24000000      40.52600000       0.60000000       8.27266682      26.64614577     -26.64626854     -53.37791225
Ni       8.81000000      37.00200000      38.76400000       0.60000000      -0.10217808      -0.01000298       0.01628916       0.65748545
Ni       6.46066667      37.58933333      -0.58733333       0.60000000       8.31450721     -24.12640341      23.93963251      55.04209256
Ni       6.46066667      39.35133333       1.17466667       0.60000000       0.38445741      -0.00950603       0.37657787      -0.60923132
Ni       8.22266667      37.58933333       1.17466667       0.60000000      -0.05584647      -0.02471308      -0.10348040      -0.71672742
Ni       8.22266667      39.35133333      -0.58733333       0.60000000       8.79684039     -24.05136357      23.71424644      55.78505643
Ni       6.46066667      37.58933333       2.93666667       0.60000000       0.03569254       0.04690649      -0.09438385       0.02439798
Ni       6.46066667      39.35133333       4.69866667       0.60000000       0.48871154       0.03425863       0.39439201       0.04163943
Ni       8.24041421      37.58360001       4.71371930       0.60000000       0.05142540      -0.00146927      -0.00116642      -0.00297934
Ni       8.22266667      39.35133333       2.93666667       0.60000000       0.48691107       0.00601975       0.44157564       0.02165919
Ni       6.48065251      37.58417453       6.48065251       0.60000000       0.05179470      -0.00023808      -0.00402936      -0.00023808
Ni       6.46066667      39.35133333       8.22266667       0.60000000       0.66161630       0.00337349       0.43414064       0.01797989
Ni       8.28750251      37.64930947       8.28750251       0.60000000       0.45169854       0.01035404       0.00987869       0.01035404
Ni       8.22266667      39.35133333       6.46066667       0.60000000       0.66161630       0.01797989       0.43414064       0.00337349
Ni       6.51814017      37.64840098      10.05314896       0.60000000       0.45348301      -0.00831624      -0.00790462      -0.00131424
Ni       7.04800000      40.52600000      12.33400000       0.60000000       0.45656822      -0.01900949      -0.29425185       0.01847610
Ni       8.78402504      38.68470959      12.33001527       0.60000000       0.41629501      -0.00273104       0.00273079       0.00319156
Ni       8.81000000      40.52600000      10.57200000       0.60000000       0.45476125       0.00411686      -0.30493166       0.00669421
Ni       6.97135531      38.67721789      14.09082658       0.60000000       0.43199520       0.00712293       0.00694014       0.01072698
Ni       7.04800000      40.52600000      15.85800000       0.60000000       0.12452905      -0.12233026      -0.25180025      -0.14477213
Ni       8.81000000      38.76400000      15.85800000       0.60000000       0.02996164       0.09110086      -0.12927740      -0.03144667
Ni       8.81000000      40.52600000      14.09600000       0.60000000       0.01702448      -0.17210016      -0.27445151      -0.11117166
Ni       7.04800000      38.76400000      17.62000000       0.60000000       0.13146725       0.10089714      -0.02268404      -0.10494059
Ni       7.04800000      40.52600000      19.38200000       0.60000000       0.00065603       0.01371670       0.01089333       0.01310308
Ni       8.81000000      38.76400000      19.38200000       0.60000000      -0.00144931       0.13866545      -0.09278630       0.06627114
Ni       8.81000000      40.52600000      17.62000000       0.60000000      -0.00120812       0.00921784       0.01049166       0.00672745
Ni       7.04800000      38.76400000      21.14400000       0.60000000      -0.00139985       0.07650019      -0.05916533       0.04759366
Ni       7.04800000      40.52600000      22.90600000       0.60000000       0.00068868       0.00377531       0.00272952      -0.00412109
Ni       8.81000000      38.76400000      22.90600000       0.60000000      -0.00101979       0.08954954      -0.14125162      -0.01230089
Ni       8.81000000      40.52600000      21.14400000       0.60000000      -0.00493944      -0.00057187       0.00886647      -0.00027271
Ni       7.04800000      38.76400000      24.66800000       0.60000000      -0.00290365       0.08656265      -0.14466248      -0.05378599
Ni       7.04800000      40.52600000      26.43000000       0.60000000       0.04259266      -0.00478327      -0.08259709       0.00493366
Ni       8.81000000      38.76400000      26.43000000       0.60000000      -0.00239580       0.08678940      -0.15509099      -0.07232080
Ni       8.81000000      40.52600000      24.66800000       0.60000000       0.00131968       0.00374963       0.00479993      -0.00373097
Ni       7.04800000      38.76400000      28.19200000       0.60000000       0.00114075       0.07392663      -0.12233263      -0.05974543
Ni       7.04800000      40.52600000      29.95400000       0.60000000       0.26766514      -0.23525248       0.14774628       0.23525397
Ni       8.81000000      38.76400000      29.95400000       0.60000000       0.00115760       0.07390714      -0.12234451      -0.06561105
Ni       8.81000000      40.52600000      28.19200000       0.60000000       0.04261735      -0.00477618      -0.08245841       0.00485223
Ni       7.04800000      38.76400000      31.71600000       0.60000000       0.00486696      -0.06762890       0.03626658       0.07183340
Ni       7.04800000      40.52600000      33.47800000       0.60000000       8.27274142      26.64616308     -53.37764361     -26.64613645
Ni       8.81000000      38.76400000      33.47800000       0.60000000       0.00483349      -0.07144109       0.03882056       0.07251932
Ni       8.81000000      40.52600000      31.71600000       0.60000000       0.26762423      -0.23520146       0.14759518       0.23527137
Ni       7.04800000      38.76400000      35.24000000       0.60000000      -0.10010121       0.00136193       0.65357108      -0.00059475
Ni       7.04800000      40.52600000      37.00200000       0.60000000       8.28624053      24.06585258     -55.06171218     -24.09551699
Ni       8.81000000      38.76400000      37.00200000       0.60000000      -0.10217808      -0.01000298       0.65748545       0.01628916
Ni       8.81000000      40.52600000      35.24000000       0.60000000       8.27266682      26.64614577     -53.37791225     -26.64626854
Ni       7.04800000      38.76400000      38.76400000       0.60000000      -0.18060128       0.02210960       0.44699166       0.44699166
Ni       7.04800000      40.52600000      40.52600000       0.60000000       1.06895558      -6.34862155      -0.14383040      -0.14383040
Ni       8.81000000      38.76400000      40.52600000       0.60000000       8.40600602      24.16605473     -24.71316136     -55.89250782
Ni       8.81000000      40.52600000      38.76400000       0.60000000       8.40600602      24.16605473     -55.89250782     -24.71316136
Ni      10.57200000       0.00000000       0.00000000       0.60000000       0.70644637       0.02657740      -0.31137473      -0.31137473
Ni      10.57200000       1.76200000       1.76200000       0.60000000       0.08009691      -0.00279136       0.10327820       0.10327820
Ni      12.33400000       0.00000000       1.76200000       0.60000000       0.51122747      -0.02175652      -0.48794194       0.04919298
Ni      12.33400000       1.76200000       0.00000000       0.60000000       0.51122747      -0.02175652       0.04919298      -0.48794194
Ni      10.57200000       0.00000000       3.52400000       0.60000000       0.48850975      -0.00475759      -0.46932055      -0.00793262
Ni      10.57200000       1.76200000       5.28600000       0.60000000       0.03406476       0.03750567       0.19513181       0.04199170
Ni      12.33400000       0.00000000       5.28600000       0.60000000       0.29911984      -0.07382196      -0.07379613      -0.08019925
Ni      12.33400000       1.76200000       3.52400000       0.60000000       0.03344735       0.01414161       0.17442713       0.03715019
Ni      10.57200000       0.00000000       7.04800000       0.60000000       0.29894616      -0.07964843      -0.06788333      -0.07986139
Ni      10.57200000       1.76200000       8.81000000       0.60000000       0.00152909       0.07818898       0.13793170       0.07756751
Ni      12.33400000       0.00000000       8.81000000       0.60000000       0.01496122       0.01134259       0.01635166       0.01133742
Ni      12.33400000       1.76200000       7.04800000       0.60000000       0.00136892       0.06688770       0.12928360       0.07840058
Ni      10.57200000       0.00000000      10.57200000       0.60000000       0.01527853       0.01118405       0.01748424       0.01118405
Ni      10.57200000       1.76200000      12.33400000       0.60000000      -0.00120130       0.09575350       0.17463870       0.09351222
Ni      12.33400000       0.00000000      12.33400000       0.60000000      -0.00255990       0.00122186      -0.01092872       0.00122186
Ni      12.33400000       1.76200000      10.57200000       0.60000000      -0.00120128       0.09351295       0.17463907       0.09575308
Ni      10.57200000       0.00000000      14.09600000       0.60000000      -0.00279092       0.00102564      -0.01053743       0.00123192
Ni      10.57200000       1.76200000      15.85800000       0.60000000      -0.00096839       0.07257681       0.16385788       0.04844039
Ni      12.33400000       0.00000000      15.85800000       0.60000000      -0.00347439      -0.00016844      -0.01362518       0.00033455
Ni      12.33400000       1.76200000      14.09600000       0.60000000       0.00082814       0.08823909       0.19785195       0.07955938
Ni      10.57200000       0.00000000      17.62000000       0.60000000      -0.00489867      -0.00037513      -0.00876378       0.00055588
Ni      10.57200000       1.76200000      19.38200000       0.60000000      -0.00046751       0.09680403       0.08372633      -0.03331304
Ni      12.33400000       0.00000000      19.38200000       0.60000000      -0.00408579      -0.00011857      -0.01138101      -0.00035953
Ni      12.33400000       1.76200000      17.62000000       0.60000000      -0.00020216       0.10279302       0.16423002       0.00964318
Ni      10.57200000       0.00000000      21.14400000       0.60000000      -0.00396231      -0.00071783      -0.01158898      -0.00129148
Ni      10.57200000       1.76200000      22.90600000       0.60000000       0.02233285       0.06859298       0.18226192      -0.17516571
Ni      12.33400000       0.00000000      22.90600000       0.60000000      -0.00214112      -0.00039624      -0.01799267      -0.00067506
Ni      12.33400000       1.76200000      21.14400000       0.60000000       0.00214682       0.08095505       0.18021300      -0.07342065
Ni      10.57200000       0.00000000      24.66800000       0.60000000       0.01151668       0.00972478      -0.01716668      -0.00986972
Ni      10.57200000       1.76200000      26.43000000       0.60000000       0.49783914       0.10658707       0.26633470      -0.13839388
Ni      12.33400000       0.00000000      26.43000000       0.60000000       0.01126147       0.00972602      -0.01612035      -0.00989570
Ni      12.33400000       1.76200000      24.66800000       0.60000000       0.02400269       0.11450892       0.22015055      -0.20184030
Ni      10.57200000       0.00000000      28.19200000       0.60000000       0.30026115      -0.09075106       0.05161439       0.09059736
Ni      12.33400000       0.00000000      29.95400000       0.60000000       0.30022037      -0.09105920       0.05130114       0.09076439
Ni      12.33400000       1.76200000      28.19200000       0.60000000       0.49695506       0.11446810       0.25996212      -0.12209278
Ni      10.57200000       0.00000000      31.71600000       0.60000000       0.65774664      -0.00256155       0.44352092       0.00141631
Ni      12.33400000       0.00000000      33.47800000       0.60000000       0.65780017      -0.00264016       0.44320389       0.00104830
Ni       9.98466667       1.17466667      35.82733333       0.60000000       0.34892450      -0.03834586      -0.68539169       0.04136017
Ni       9.98466667      -0.58733333      37.58933333       0.60000000       8.55883200     -24.71907736      55.75068612      24.53319239
Ni       9.98466667       1.17466667      39.35133333       0.60000000       0.39424693      -0.01335813      -0.56950783       0.39527695
Ni      11.74666667      -0.58733333      39.35133333       0.60000000       9.03216289     -24.55414532      56.55324125      24.31961602
Ni      11.74666667       1.17466667      37.58933333       0.60000000       0.39633784       0.01782633      -0.64172358      -0.03789169
Ni      10.57200000       3.52400000       0.00000000       0.60000000       0.48850975      -0.00475759      -0.00793262      -0.46932055
Ni      10.57200000       5.28600000       1.76200000       0.60000000       0.03406476       0.03750570       0.04199169       0.19513185
Ni      12.33400000       3.52400000       1.76200000       0.60000000       0.03344735       0.01414171       0.03715017       0.17442720
Ni      12.33400000       5.28600000       0.00000000       0.60000000       0.29911984      -0.07382196      -0.08019924      -0.07379613
Ni      10.58081053       3.53414403       3.53414403       0.60000000      -0.00594090      -0.00110301      -0.00075009      -0.00075008
Ni      10.59687340       5.30964717       5.30964717       0.60000000      -0.00209380      -0.00138086       0.00143167       0.00143167
Ni      12.35023002       3.54026578       5.30401071       0.60000000      -0.00395393       0.00030480       0.00319494       0.00103721
Ni      12.35023002       5.30401067       3.54026579       0.60000000      -0.00395395       0.00030480       0.00103718       0.00319496
Ni      10.59174692       3.54160412       7.06744323       0.60000000      -0.00370096      -0.00244821      -0.00013970      -0.00031307
Ni      10.60828088       5.31956951       8.84734731       0.60000000      -0.00016626      -0.00083193       0.00033858       0.00070629
Ni      12.36085154       3.55188529       8.83896206       0.60000000      -0.00083791       0.00220786       0.00214290      -0.00275864
Ni      12.37094637       5.32172907       7.08477445       0.60000000      -0.00052243      -0.00610712      -0.00032479      -0.00145938
Ni      10.60080803       3.55116693      10.60080799       0.60000000      -0.00065047       0.00145142       0.00305597       0.00145142
Ni      10.62650278       5.34600886      12.38866620       0.60000000       0.00527022      -0.00334712       0.00279865       0.00231789
Ni      12.36986051       3.56524941      12.36986014       0.60000000       0.00341206      -0.00115839       0.00170129      -0.00115864
Ni      12.38866641       5.34600884      10.62650258       0.60000000       0.00527026       0.00231800       0.00279864      -0.00334724
Ni      10.60253313       3.56309522      14.13105085       0.60000000       0.00232959      -0.00557498       0.00126839       0.00089776
Ni      10.60373214       5.36492265      15.93451097       0.60000000       0.03051461      -0.00079791       0.00023810       0.00169378
Ni      12.36591681       3.56864610      15.88498801       0.60000000       0.00478650      -0.00135210       0.00155928      -0.00042535
Ni      12.39155518       5.38173345      14.16669512       0.60000000       0.01176359      -0.00129468       0.00013793      -0.00118192
Ni      10.59463025       3.55123533      17.63563696       0.60000000       0.00886484       0.00003537      -0.00023041      -0.00420248
Ni      10.63285013       5.34979676      19.35361954       0.60000000       0.18144900      -0.00107940       0.00416319      -0.00061269
Ni      12.37808702       3.55966701      19.37204069       0.60000000       0.00762199      -0.00448576      -0.00058538      -0.00228528
Ni      12.38875720       5.38299603      17.64271357       0.60000000       0.03584756      -0.00000228       0.00276873      -0.00099412
Ni      10.58909162       3.56672922      21.08851680       0.60000000       0.05328683      -0.00287639       0.00145010      -0.00185403
Ni      12.36418067       3.58812024      22.82810256       0.60000000       0.03448586      -0.00058706       0.00127447      -0.00215750
Ni      12.39380356       5.42062145      21.04097025       0.60000000       0.07637993      -0.00176247       0.00136634      -0.00431850
Ni      10.62546965       3.57901698      24.56807869       0.60000000       0.54998983       0.00100964       0.00002616       0.00304041
Ni      12.39985814       3.57296699      26.34419418       0.60000000       0.54509668       0.00031617       0.00065595       0.00055421
Ni      10.58083293       5.28041042      30.04008757       0.60000000       0.49746394      -0.00043524      -0.00392857       0.00531946
Ni       9.98466667       2.93666667      30.54133333       0.60000000       0.81301666      -0.07835731      -0.27979912       0.12503597
Ni       9.99623664       4.71991565      32.36073920       0.60000000       0.07127330       0.00028307       0.01407711       0.01304394
Ni      11.74666667       2.93666667      32.30333333       0.60000000       0.81522184      -0.06553927      -0.24223641       0.13385362
Ni      12.36785476       5.27994784      31.78699249       0.60000000       0.49630915      -0.00375766      -0.00331696      -0.00684958
Ni       9.98466667       2.93666667      34.06533333       0.60000000       0.30459713       0.21964351       0.05874967       0.02603390
Ni      10.02938197       4.73187351      35.86859138       0.60000000       0.01867981      -0.00609027       0.00061798      -0.00528021
Ni      11.74666667       2.93666667      35.82733333       0.60000000       0.31621555       0.28326250       0.12927541       0.02508873
Ni      11.78537307       4.73477433      34.12388440       0.60000000       0.07597482       0.00142262       0.00143320      -0.00328163
Ni       9.98466667       2.93666667      37.58933333       0.60000000       0.06141496       0.12006083       0.09515938      -0.05348033
Ni       9.98466667       4.69866667      39.35133333       0.60000000       0.66212225       0.02081379      -0.01753524       0.41895070
Ni      11.74666667       2.93666667      39.35133333       0.60000000       0.66739223       0.02551154      -0.05710141       0.45416037
Ni      11.80946619       4.73837182      37.63616939       0.60000000       0.43250814      -0.00279909      -0.00744491      -0.00172082
Ni      10.57200000       7.04800000       0.00000000       0.60000000       0.29894616      -0.07964843      -0.07986139      -0.06788333
Ni      10.57200000       8.81000000       1.76200000       0.60000000       0.00152909       0.07818896       0.07756751       0.13793170
Ni      12.33400000       7.04800000       1.76200000       0.60000000       0.00136892       0.06688746       0.07840053       0.12928342
Ni      12.33400000       8.81000000       0.00000000       0.60000000       0.01496122       0.01134259       0.01133742       0.01635166
Ni      10.59174694       7.06744323       3.54160412       0.60000000      -0.00370097      -0.00244820      -0.00031307      -0.00013969
Ni      10.60828088       8.84734731       5.31956952       0.60000000      -0.00016627      -0.00083192       0.00070630       0.00033859
Ni      12.37094639       7.08477444       5.32172909       0.60000000      -0.00052246      -0.00610710      -0.00145940      -0.00032477
Ni      12.36085151       8.83896209       3.55188528       0.60000000      -0.00083796       0.00220786      -0.00275865       0.00214290
Ni      10.60817625       7.08266980       7.08266981       0.60000000      -0.00168879      -0.00165811       0.00431430       0.00431430
Ni      10.61757336       8.85549820       8.85549821       0.60000000      -0.00347703       0.00739207       0.00777019       0.00777019
Ni      12.37674997       7.09603655       8.86078864       0.60000000       0.00586697       0.00210540       0.00184177      -0.00104402
Ni      12.37674995       8.86078865       7.09603659       0.60000000       0.00586694       0.00210540      -0.00104403       0.00184180
Ni      10.62382362       7.09858217      10.62382359       0.60000000       0.00136136       0.00272757       0.00506946       0.00272757
Ni      10.63398396       8.87912962      12.38942889       0.60000000       0.02627552       0.00291629       0.00299925       0.00923018
Ni      12.41170054       7.14632164      12.41170023       0.60000000       0.01305736      -0.00216893       0.00130713      -0.00216920
Ni      12.38942897       8.87912957      10.63398393       0.60000000       0.02627551       0.00923026       0.00299919       0.00291629
Ni      10.63012077       7.14830131      14.17823345       0.60000000       0.12181565      -0.00518617       0.00282418       0.01000660
Ni      12.37055226       7.21460021      15.95489867       0.60000000       0.27314985       0.00584419      -0.00447245      -0.00326738
Ni      12.41209825       8.95813641      14.19084520       0.60000000       0.27985954       0.00300837      -0.00331136       0.00082417
Ni      10.58527186       7.24033350      17.70821018       0.60000000       0.32933207       0.00304075       0.00508205      -0.00478778
Ni      12.40349722       7.26338608      19.31446714       0.60000000       0.19880609      -0.00797690       0.00069170       0.00073696
Ni      10.44201524       7.33977887      20.76541394       0.60000000       0.53224082      -0.00025011       0.00230193       0.01016425
Ni      10.58663647       5.42709818      22.66851257       0.60000000       0.57454447       0.00316723      -0.00257386       0.00168061
Ni      10.54096200       8.79239413      26.54863613       0.60000000       0.54089032       0.00056044       0.00552385      -0.00675505
Ni      12.40414361       5.40033207      24.49318783       0.60000000       0.55725369       0.00249668      -0.00235838       0.00016045
Ni      12.35626748       7.25472717      22.65399872       0.60000000       0.57467245       0.00346640      -0.00254641      -0.00328186
Ni      10.56379192       7.05523548      28.31153146       0.60000000       0.51980556       0.00455807      -0.00178122      -0.00455511
Ni      10.59385889       8.83125458      30.04608578       0.60000000       0.00965342       0.00103287       0.00368410      -0.01177574
Ni      12.35624780       7.06248218      30.04656000       0.60000000       0.51836641       0.00234454      -0.00215340      -0.00472397
Ni      12.32785557       8.81978573      28.28172825       0.60000000       0.52011336       0.00573051       0.00093132      -0.00132250
Ni      10.60288110       7.06590069      31.78410464       0.60000000       0.01293974       0.00353434      -0.00094459       0.00904480
Ni      10.63343089       8.85647324      33.50332207       0.60000000       0.00832050       0.00685645       0.00740101      -0.01090189
Ni      12.40933521       7.07352492      33.49745709       0.60000000       0.02077386       0.00481344      -0.00727418      -0.00090539
Ni      12.40266573       8.84399133      31.74832184       0.60000000       0.01324809      -0.00735605      -0.00234467       0.00281829
Ni      10.04189950       6.51296205      34.13349276       0.60000000       0.00324576       0.00583333      -0.00783966      -0.00103438
Ni      10.08944064       8.32071764      35.90360697       0.60000000       0.27745898      -0.00187178      -0.00104332      -0.00804439
Ni      11.84218783       6.53939993      35.89188734       0.60000000       0.27543199       0.00429204       0.00431633       0.00574227
Ni      12.43358827       8.87560336      35.19687521       0.60000000       0.15789050      -0.00186573      -0.00329242       0.00123673
Ni      10.05314896       6.51814017      37.64840098       0.60000000       0.45348301      -0.00131424      -0.00831624      -0.00790462
Ni      10.57200000       8.81000000      40.52600000       0.60000000       0.45476125       0.00669421       0.00411686      -0.30493165
Ni      12.33400000       7.04800000      40.52600000       0.60000000       0.45656822       0.01847610      -0.01900949      -0.29425185
Ni      12.33001527       8.78402504      38.68470959       0.60000000       0.41629501       0.00319156      -0.00273104       0.00273079
Ni      10.57200000      10.57200000       0.00000000       0.60000000       0.01527853       0.01118405       0.01118405       0.01748424
Ni      10.57200000      12.33400000       1.76200000       0.60000000      -0.00120131       0.09575336       0.09351229       0.17463861
Ni      12.33400000      10.57200000       1.76200000       0.60000000      -0.00120130       0.09351255       0.09575321       0.17463874
Ni      12.33400000      12.33400000       0.00000000       0.60000000      -0.00255990       0.00122186       0.00122186      -0.01092871
Ni      10.60080802      10.60080801       3.55116693       0.60000000      -0.00065048       0.00145142       0.00145142       0.00305598
Ni      10.62650273      12.38866625       5.34600888       0.60000000       0.00527021      -0.00334715       0.00231792       0.00279867
Ni      12.38866632      10.62650267       5.34600887       0.60000000       0.00527022       0.00231795      -0.00334718       0.00279867
Ni      12.36986038      12.36986026       3.56524940       0.60000000       0.00341205      -0.00115848      -0.00115856       0.00170128
Ni      10.62382360      10.62382360       7.09858220       0.60000000       0.00136136       0.00272756       0.00272757       0.00506948
Ni      10.63398392      12.38942891       8.87912965       0.60000000       0.02627551       0.00291626       0.00923020       0.00299928
Ni      12.38942893      10.63398394       8.87912962       0.60000000       0.02627551       0.00923021       0.00291629       0.00299925
Ni      12.41170043      12.41170033       7.14632170       0.60000000       0.01305735      -0.00216903      -0.00216911       0.00130719
Ni      10.62448183      10.62448188      10.62448190       0.60000000       0.00832353       0.01265787       0.01265792       0.01265794
Ni      10.65622463      12.39927601      12.39927603       0.60000000       0.06668037      -0.00499602       0.00208660       0.00208662
Ni      12.39927603      10.65622470      12.39927599       0.60000000       0.06668038       0.00208663      -0.00499595       0.00208658
Ni      12.39927600      12.39927601      10.65622472       0.60000000       0.06668038       0.00208660       0.00208661      -0.00499592
Ni      10.61877370      10.61877370      14.22310481       0.60000000       0.34074383      -0.00386075      -0.00386074      -0.00901984
Ni      12.34295073      12.34295073      14.25919624       0.60000000       0.40715208      -0.01031112      -0.01031112       0.01235280
Ni       9.69965752       9.69965713      16.33162659       0.60000000       0.52539206       0.00532008       0.00531947      -0.02357451
Ni       9.58560513      11.44524485      18.44331424       0.60000000       0.35738408       0.01035418       0.01433122      -0.01333606
Ni      11.44524495       9.58560525      18.44331416       0.60000000       0.35738410       0.01433161       0.01035441      -0.01333626
Ni      11.47810947      11.47810948      16.62188874       0.60000000       0.68567412       0.00351848       0.00351852      -0.01108488
Ni       9.77097971       9.77097935      20.29548059       0.60000000       0.60361172       0.01568827       0.01568747       0.00610976
Ni       9.17708501      12.25043706      20.88911766       0.60000000       0.45631750       0.00408889      -0.00311520       0.00248340
Ni      12.25043735       9.17708511      20.88911763       0.60000000       0.45631738      -0.00311482       0.00408885       0.00248342
Ni      11.58583844      11.58583847      20.06943562       0.60000000       0.30527642       0.00338363       0.00338362      -0.01141333
Ni      10.51390762      10.51390762      24.78510779       0.60000000       1.20939902       0.00438973       0.00438973       0.00110008
Ni      10.53692508      12.27892867      26.48025563       0.60000000       0.67780018       0.00688538       0.00862043       0.00224142
Ni      12.27892868      10.53692508      26.48025563       0.60000000       0.67780018       0.00862044       0.00688538       0.00224142
Ni      12.76510335      12.76510335      22.17917407       0.60000000       0.83899767      -0.00239946      -0.00239947      -0.01168304
Ni      10.57474887      10.57474887      28.28319840       0.60000000       0.02123203      -0.00116346      -0.00116346       0.00147277
Ni      10.61244011      12.38045520      29.98297587       0.60000000       0.00989174      -0.00069526      -0.00762883       0.00386133
Ni      12.38045520      10.61244011      29.98297588       0.60000000       0.00989174      -0.00762883      -0.00069526       0.00386133
Ni      12.34267677      12.34267677      28.17227902       0.60000000       0.04983771      -0.00080949      -0.00080949      -0.00267811
Ni      10.62677575      10.62677575      31.74873935       0.60000000      -0.00336959      -0.00732379      -0.00732379       0.00710047
Ni      10.65042161      12.43256776      33.43559312       0.60000000       0.00478892       0.00130156      -0.00202377      -0.00365812
Ni      12.43256776      10.65042161      33.43559312       0.60000000       0.00478892      -0.00202377       0.00130156      -0.00365812
Ni      12.42148160      12.42148160      31.66665841       0.60000000       0.00389141      -0.00393775      -0.00393775       0.00292107
Ni      10.65805465      10.65805465      35.19712587       0.60000000       0.15815571       0.00192889       0.00192889       0.00459178
Ni      10.62822652      12.40011955      36.94948474       0.60000000       0.16277113       0.00156074       0.00138401      -0.00570976
Ni      12.40011955      10.62822652      36.94948474       0.60000000       0.16277113       0.00138401       0.00156074      -0.00570976
Ni      12.43330294      12.43330294      35.16363916       0.60000000       0.01010103      -0.00125172      -0.00125172      -0.00806946
Ni      10.55418829      10.55418829      38.67520264       0.60000000       0.41572300       0.01507346       0.01507346       0.01848030
Ni      10.57200000      12.33400000      40.52600000       0.60000000       0.01374407      -0.12820944      -0.13079898      -0.24887069
Ni      12.33400000      10.57200000      40.52600000       0.60000000       0.01374407      -0.13079898      -0.12820944      -0.24887069
Ni      12.33400000      12.33400000      38.76400000       0.60000000       0.01533307       0.08344577       0.08344578      -0.24066391
Ni      10.57200000      14.09600000       0.00000000       0.60000000      -0.00279092       0.00102564       0.00123192      -0.01053743
Ni      10.57200000      15.85800000       1.76200000       0.60000000      -0.00096839       0.07257666       0.04844053       0.16385790
Ni      12.33400000      14.09600000       1.76200000       0.60000000       0.00082814       0.08823889       0.07955959       0.19785177
Ni      12.33400000      15.85800000       0.00000000       0.60000000      -0.00347439      -0.00016844       0.00033455      -0.01362517
Ni      10.60253307      14.13105091       3.56309522       0.60000000       0.00232959      -0.00557503       0.00089780       0.00126839
Ni      10.60373205      15.93451106       5.36492266       0.60000000       0.03051461      -0.00079800       0.00169387       0.00023812
Ni      12.39155505      14.16669525       5.38173347       0.60000000       0.01176358      -0.00129480      -0.00118180       0.00013795
Ni      12.36591675      15.88498806       3.56864609       0.60000000       0.00478650      -0.00135216      -0.00042530       0.00155927
Ni      10.63012071      14.17823352       7.14830134       0.60000000       0.12181564      -0.00518622       0.01000666       0.00282421
Ni      12.41209819      14.19084526       8.95813646       0.60000000       0.27985952       0.00300830       0.00082424      -0.00331131
Ni      12.37055221      15.95489873       7.21460024       0.60000000       0.27314983       0.00584413      -0.00326731      -0.00447242
Ni      10.61877366      14.22310482      10.61877374       0.60000000       0.34074383      -0.00386079      -0.00901984      -0.00386070
Ni      12.34295071      14.25919625      12.34295075       0.60000000       0.40715208      -0.01031114       0.01235281      -0.01031110
Ni      10.79369099      14.20657494      14.20657496       0.60000000       0.55382232       0.00712922       0.00426579       0.00426581
Ni      11.23323602      15.96191648      15.96191647       0.60000000       0.65545247       0.00577644      -0.00638790      -0.00638790
Ni      11.46026105      13.38453659      18.31335252       0.60000000       0.39960220       0.01117218      -0.01327224       0.00171678
Ni       9.19153730      14.05476091      19.22709018       0.60000000       0.21779219       0.00054693      -0.00094393       0.00626375
Ni       9.25120710      15.86988054      21.02237884       0.60000000       0.07792181       0.00607832       0.00059442       0.00457502
Ni      11.05946957      14.00665671      20.91212808       0.60000000       0.32874932       0.00939244      -0.00691006       0.00903992
Ni      11.15604227      15.80624516      19.28803471       0.60000000       0.29017444       0.00570095      -0.00103650       0.00493200
Ni       9.12241000      14.12604904      22.71104577       0.60000000       0.56951122       0.00470177      -0.00358129       0.00276960
Ni       9.11336582      15.94212518      24.55245196       0.60000000       0.56583483       0.00504791      -0.00638078      -0.00721037
Ni      12.27437616      13.99330186      26.24133745       0.60000000       0.68094933       0.00845458       0.00633938      -0.00619640
Ni      11.06552039      15.82246448      22.81027759       0.60000000       0.53197938       0.00969076       0.00158881      -0.00813284
Ni      10.58885404      14.08646107      28.16958720       0.60000000       0.52321736       0.00029953       0.00216023      -0.00266108
Ni      10.60229246      15.92012894      29.86104610       0.60000000       0.49024176      -0.00096155      -0.00665378      -0.00053569
Ni      12.39159563      14.15892026      29.85707512       0.60000000       0.02375750       0.00009637       0.00132260       0.00036910
Ni      12.33794771      15.82849146      27.96740561       0.60000000       0.50651064      -0.00136944       0.00808640       0.00875645
Ni      10.63235761      14.19878175      31.66473853       0.60000000       0.01971436      -0.00345918       0.00314757       0.00474797
Ni      10.63519243      15.99680708      33.35583973       0.60000000       0.00928654      -0.00547916       0.00512442       0.00704054
Ni      12.43621985      14.22067973      33.36965269       0.60000000       0.00838497      -0.00253490      -0.00249356      -0.00681162
Ni      12.41430126      15.98271654      31.54672495       0.60000000       0.02808366       0.00316506       0.00052319       0.00147900
Ni      10.65419180      14.20267522      35.16206216       0.60000000       0.01039508      -0.00035063       0.00222409      -0.00419438
Ni      10.62788058      15.90840277      36.95931172       0.60000000       0.01003270       0.00076808       0.00156258      -0.00235412
Ni      12.39613287      14.15891352      36.95019484       0.60000000       0.01177224      -0.00327554      -0.00287292      -0.00098571
Ni      12.42767508      15.96682403      35.12810046       0.60000000       0.01413904      -0.00273296       0.00199758       0.00390246
Ni      10.57200000      14.09600000      38.76400000       0.60000000       0.01656211       0.09086427       0.08534205      -0.21411888
Ni      10.57200000      15.85800000      40.52600000       0.60000000      -0.00217241       0.00265137       0.00343758       0.01484322
Ni      12.33400000      14.09600000      40.52600000       0.60000000      -0.00139359       0.00241630       0.00281059       0.01768391
Ni      12.33400000      15.85800000      38.76400000       0.60000000       0.00653731       0.16388781       0.13817920      -0.22596150
Ni      10.57200000      17.62000000       0.00000000       0.60000000      -0.00489867      -0.00037513       0.00055588      -0.00876378
Ni      10.57200000      19.38200000       1.76200000       0.60000000      -0.00046751       0.09680392      -0.03331304       0.08372636
Ni      12.33400000      17.62000000       1.76200000       0.60000000      -0.00020216       0.10279293       0.00964324       0.16423002
Ni      12.33400000      19.38200000       0.00000000       0.60000000      -0.00408579      -0.00011857      -0.00035953      -0.01138101
Ni      10.59463020      17.63563700       3.55123534       0.60000000       0.00886484       0.00003532      -0.00420244      -0.00023039
Ni      10.63285011      19.35361957       5.34979675       0.60000000       0.18144897      -0.00107941      -0.00061267       0.00416318
Ni      12.38875718      17.64271359       5.38299603       0.60000000       0.03584756      -0.00000231      -0.00099409       0.00276873
Ni      12.37808702      19.37204069       3.55966701       0.60000000       0.00762199      -0.00448576      -0.00228528      -0.00058538
Ni      10.58527182      17.70821023       7.24033349       0.60000000       0.32933205       0.00304071      -0.00478772       0.00508205
Ni      12.40349722      19.31446715       7.26338608       0.60000000       0.19880608      -0.00797691       0.00073698       0.00069170
Ni       9.69965755      16.33162659       9.69965710       0.60000000       0.52539204       0.00532013      -0.02357451       0.00531941
Ni       9.58560513      18.44331424      11.44524485       0.60000000       0.35738409       0.01035419      -0.01333607       0.01433122
Ni      11.47810948      16.62188874      11.47810947       0.60000000       0.68567411       0.00351849      -0.01108489       0.00351850
Ni      11.44524495      18.44331416       9.58560525       0.60000000       0.35738409       0.01433161      -0.01333625       0.01035440
Ni      11.46026105      18.31335252      13.38453659       0.60000000       0.39960219       0.01117218       0.00171678      -0.01327224
Ni      11.37721343      17.69475391      17.69475391       0.60000000       0.32491864       0.01837175      -0.00757295      -0.00757295
Ni      11.36663758      19.41995937      19.41995937       0.60000000       0.28825918       0.00166343      -0.00671337      -0.00671337
Ni      11.17204982      17.59023476      21.11857764       0.60000000       0.25544291       0.00551875       0.00385222       0.00059264
Ni       9.25418463      17.65887081      22.83382968       0.60000000       0.07495526       0.00206988      -0.00101445       0.00029384
Ni       9.24485536      19.45162747      24.64691482       0.60000000       0.08146350       0.00167049      -0.00087394       0.00295729
Ni      11.05497832      17.66114645      24.64776303       0.60000000       0.54433770       0.00129934      -0.00632026      -0.00638433
Ni      11.15914016      19.39253604      22.91747905       0.60000000       0.26562504       0.00595952       0.00288985       0.00490485
Ni       9.12273861      17.75426431      26.39659894       0.60000000       0.56391130      -0.00080890      -0.00104633      -0.00162069
Ni       9.17782668      19.51988284      28.34286131       0.60000000       0.56513869       0.00251094       0.00206446       0.00405292
Ni      12.34152211      17.72236356      29.67384938       0.60000000       0.34496911      -0.00041268      -0.00618590      -0.00029296
Ni      11.05507905      19.48292080      26.54351549       0.60000000       0.43503426      -0.00153757       0.00049472       0.00225313
Ni      10.59156339      17.75962133      31.52939769       0.60000000       0.22035799      -0.00071654       0.00110694      -0.00530455
Ni      10.67325780      19.46547766      33.31280617       0.60000000       0.16089089      -0.00130294       0.01275004       0.00647794
Ni      12.43406327      17.74492547      33.29112873       0.60000000       0.02544079      -0.00520278      -0.00858124      -0.00902249
Ni      12.35654699      19.52861967      31.41905478       0.60000000       0.09055426      -0.00097344      -0.00987203      -0.00012339
Ni      10.64774274      17.70533935      35.14575694       0.60000000       0.01509015      -0.00374192       0.01116216      -0.00806088
Ni      10.62180271      19.41116508      36.96275996       0.60000000       0.00819913      -0.00105536      -0.02255269       0.02988628
Ni      12.39441977      17.67122078      36.94446149       0.60000000       0.01372780       0.00072142      -0.00723950       0.00065247
Ni      12.43187548      19.45200952      35.12024735       0.60000000       0.02310508       0.01678219      -0.01161264      -0.00366288
Ni      10.57200000      17.62000000      38.76400000       0.60000000       0.00376817       0.18764624       0.09435680      -0.13705688
Ni      10.57200000      19.38200000      40.52600000       0.60000000      -0.00387217      -0.00046940       0.00004672       0.01225167
Ni      12.33400000      17.62000000      40.52600000       0.60000000      -0.00223727      -0.00018230       0.00044823       0.01758779
Ni      12.33400000      19.38200000      38.76400000       0.60000000       0.00599812       0.16983161       0.08498192      -0.23394025
Ni      10.57200000      21.14400000       0.00000000       0.60000000      -0.00396231      -0.00071783      -0.00129148      -0.01158898
Ni      10.57200000      22.90600000       1.76200000       0.60000000       0.02233286       0.06859288      -0.17516575       0.18226197
Ni      12.33400000      21.14400000       1.76200000       0.60000000       0.00214682       0.08095505      -0.07342065       0.18021299
Ni      12.33400000      22.90600000       0.00000000       0.60000000      -0.00214112      -0.00039624      -0.00067506      -0.01799268
Ni      10.58909161      21.08851678       3.56672921       0.60000000       0.05328687      -0.00287639      -0.00185403       0.00145009
Ni      12.39380356      21.04097024       5.42062144       0.60000000       0.07637995      -0.00176246      -0.00431850       0.00136633
Ni      12.36418066      22.82810255       3.58812025       0.60000000       0.03448587      -0.00058706      -0.00215751       0.00127447
Ni      10.44201520      20.76541391       7.33977889       0.60000000       0.53224081      -0.00025015       0.01016421       0.00230196
Ni       9.77097970      20.29548059       9.77097936       0.60000000       0.60361172       0.01568826       0.00610976       0.01568748
Ni       9.17708501      20.88911766      12.25043707       0.60000000       0.45631750       0.00408889       0.00248340      -0.00311519
Ni      11.58583844      20.06943562      11.58583847       0.60000000       0.30527641       0.00338363      -0.01141333       0.00338362
Ni      12.25043734      20.88911763       9.17708511       0.60000000       0.45631738      -0.00311483       0.00248342       0.00408885
Ni       9.19153730      19.22709018      14.05476092       0.60000000       0.21779219       0.00054693       0.00626374      -0.00094393
Ni       9.25120710      21.02237884      15.86988054       0.60000000       0.07792181       0.00607832       0.00457502       0.00059442
Ni      11.15604226      19.28803471      15.80624516       0.60000000       0.29017444       0.00570095       0.00493200      -0.00103650
Ni      11.05946957      20.91212808      14.00665671       0.60000000       0.32874932       0.00939245       0.00903992      -0.00691006
Ni      11.17204982      21.11857764      17.59023476       0.60000000       0.25544291       0.00551875       0.00059264       0.00385222
Ni      11.33505008      21.14380260      21.14380260       0.60000000       0.30358056      -0.00401983      -0.00449228      -0.00449228
Ni      11.26765755      22.86662262      22.86662262       0.60000000       0.36651294       0.00400307       0.00006559       0.00006559
Ni      11.13276702      21.18497428      24.74489026       0.60000000       0.30668086      -0.00471335       0.00032526       0.00259724
Ni       9.18646361      21.19808014      26.49773362       0.60000000       0.22147889       0.00257766       0.00244033       0.00082371
Ni       9.61187559      21.99171252      29.04428089       0.60000000       0.46889297       0.00602804      -0.00171149      -0.00485685
Ni      11.54848505      20.16438643      29.04273644       0.60000000       0.31757568       0.00735486      -0.00073757       0.00021083
Ni      11.48183669      21.99662698      27.21193926       0.60000000       0.45032014       0.00601094       0.00114645       0.00679219
Ni       9.84751835      20.18221929      30.97830995       0.60000000       0.48457448      -0.01400069      -0.00893922      -0.00079095
Ni      10.64779827      22.84667581      33.34253055       0.60000000       0.32678439       0.02262947       0.01970852      -0.00097653
Ni      12.44502995      21.20557520      33.29353114       0.60000000       0.17162128      -0.00359623      -0.00849793      -0.00823847
Ni      11.58293023      21.88099045      30.98860101       0.60000000       0.60101684      -0.01568620      -0.00270222      -0.00221099
Ni      10.63637988      21.14948418      35.15431294       0.60000000       0.03690419       0.00198994       0.01246456       0.00857258
Ni      10.61099567      22.89812387      36.95858505       0.60000000       0.00559855       0.01307440      -0.00014776       0.03909551
Ni      12.39343315      21.16637223      36.94543697       0.60000000       0.01310515       0.01667741      -0.02522055       0.03622084
Ni      12.42797022      22.91262059      35.14640339       0.60000000       0.04087467       0.00386626      -0.01608408       0.00221785
Ni      10.57200000      21.14400000      38.76400000       0.60000000       0.00075655       0.13099167       0.03206673      -0.17994071
Ni      10.57200000      22.90600000      40.52600000       0.60000000      -0.00349664      -0.00027634       0.00001978       0.01355761
Ni      12.33400000      21.14400000      40.52600000       0.60000000      -0.00225314      -0.00017344       0.00020101       0.01733685
Ni      12.33400000      22.90600000      38.76400000       0.60000000       0.00368976       0.14793544       0.00314051      -0.24958713
Ni      10.57200000      24.66800000       0.00000000       0.60000000       0.01151668       0.00972478      -0.00986972      -0.01716668
Ni      10.57200000      26.43000000       1.76200000       0.60000000       0.49783914       0.10658707      -0.13839391       0.26633473
Ni      12.33400000      24.66800000       1.76200000       0.60000000       0.02400269       0.11450887      -0.20184033       0.22015059
Ni      12.33400000      26.43000000       0.00000000       0.60000000       0.01126147       0.00972602      -0.00989570      -0.01612035
Ni      10.62546962      24.56807866       3.57901699       0.60000000       0.54998985       0.00100962       0.00304039       0.00002616
Ni      12.39985813      26.34419416       3.57296699       0.60000000       0.54509668       0.00031616       0.00055420       0.00065595
Ni      10.58663640      22.66851249       5.42709819       0.60000000       0.57454449       0.00316720       0.00168056      -0.00257386
Ni      10.54096200      26.54863613       8.79239413       0.60000000       0.54089032       0.00056044      -0.00675505       0.00552385
Ni      12.35626746      22.65399871       7.25472716       0.60000000       0.57467245       0.00346639      -0.00328187      -0.00254641
Ni      12.40414359      24.49318781       5.40033207       0.60000000       0.55725370       0.00249666       0.00016043      -0.00235838
Ni      10.51390762      24.78510779      10.51390762       0.60000000       1.20939902       0.00438973       0.00110008       0.00438973
Ni      10.53692508      26.48025563      12.27892867       0.60000000       0.67780018       0.00688538       0.00224142       0.00862043
Ni      12.76510335      22.17917407      12.76510335       0.60000000       0.83899767      -0.00239946      -0.01168304      -0.00239946
Ni      12.27892868      26.48025563      10.53692508       0.60000000       0.67780018       0.00862044       0.00224142       0.00688538
Ni       9.12241000      22.71104577      14.12604904       0.60000000       0.56951121       0.00470178       0.00276960      -0.00358129
Ni       9.11336582      24.55245196      15.94212518       0.60000000       0.56583483       0.00504791      -0.00721037      -0.00638078
Ni      11.06552039      22.81027759      15.82246448       0.60000000       0.53197938       0.00969076      -0.00813284       0.00158881
Ni      12.27437616      26.24133745      13.99330186       0.60000000       0.68094933       0.00845458      -0.00619640       0.00633938
Ni       9.25418463      22.83382968      17.65887081       0.60000000       0.07495526       0.00206989       0.00029384      -0.00101445
Ni       9.24485536      24.64691482      19.45162747       0.60000000       0.08146350       0.00167049       0.00295729      -0.00087394
Ni      11.15914016      22.91747905      19.39253604       0.60000000       0.26562504       0.00595952       0.00490485       0.00288985
Ni      11.05497832      24.64776303      17.66114645       0.60000000       0.54433770       0.00129934      -0.00638433      -0.00632026
Ni      11.13276702      24.74489026      21.18497428       0.60000000       0.30668086      -0.00471335       0.00259724       0.00032526
Ni      11.07519010      24.60328446      24.60328446       0.60000000       0.43861314      -0.00497572      -0.00022841      -0.00022841
Ni      10.87932049      26.36121932      26.36121932       0.60000000       0.08929014      -0.00086627      -0.00085145      -0.00085145
Ni      10.67234464      26.37210278      29.91986067       0.60000000       0.33633788       0.00796398       0.00760798       0.00250543
Ni      10.68747518      24.42837989      28.18377443       0.60000000       0.60012029       0.00707406      -0.00455975      -0.00208778
Ni      12.47425337      26.35811634      28.26222385       0.60000000       0.39148140      -0.00070215       0.00055740      -0.00162331
Ni       8.94141033      24.56905388      29.90631289       0.60000000       0.37376856      -0.01541007       0.01028740      -0.01044278
Ni      10.66322004      26.39127283      33.39386047       0.60000000       0.15049694      -0.00603196       0.01237736       0.00329993
Ni      12.44258424      24.65345423      33.36491643       0.60000000       0.31305098      -0.00981032      -0.00678081      -0.03485597
Ni      12.49358038      26.43571419      31.60247187       0.60000000       0.34890749      -0.00515144      -0.00164269       0.01472763
Ni      10.63650722      24.63133754      35.17361441       0.60000000       0.03487823      -0.00427193       0.01154467      -0.00820324
Ni      10.60769017      26.40806821      36.97020851       0.60000000       0.00236196       0.00377210      -0.00429406      -0.01042947
Ni      12.39151561      24.66129429      36.95833145       0.60000000       0.00870237      -0.01549651      -0.01632703      -0.01854106
Ni      12.42054875      26.40565297      35.17102217       0.60000000       0.01383890      -0.00746732      -0.01106752      -0.01432386
Ni      10.57200000      24.66800000      38.76400000       0.60000000      -0.00045518       0.11011307      -0.05232563      -0.19694102
Ni      10.57200000      26.43000000      40.52600000       0.60000000       0.00124745       0.00380891      -0.00356668       0.00422740
Ni      12.33400000      24.66800000      40.52600000       0.60000000      -0.00301063      -0.00004161       0.00037174       0.01478151
Ni      12.33400000      26.43000000      38.76400000       0.60000000       0.00150273       0.14330649      -0.04977523      -0.20442567
Ni      10.57200000      28.19200000       0.00000000       0.60000000       0.30026115      -0.09075106       0.09059736       0.05161439
Ni      12.33400000      28.19200000       1.76200000       0.60000000       0.49695506       0.11446810      -0.12209279       0.25996213
Ni      12.33400000      29.95400000       0.00000000       0.60000000       0.30022037      -0.09105920       0.09076439       0.05130115
Ni      10.58083293      30.04008757       5.28041042       0.60000000       0.49746394      -0.00043524       0.00531946      -0.00392857
Ni      10.56379192      28.31153146       7.05523548       0.60000000       0.51980556       0.00455807      -0.00455511      -0.00178122
Ni      10.59385889      30.04608578       8.83125458       0.60000000       0.00965342       0.00103287      -0.01177574       0.00368410
Ni      12.32785557      28.28172825       8.81978573       0.60000000       0.52011336       0.00573051      -0.00132250       0.00093132
Ni      12.35624780      30.04656000       7.06248218       0.60000000       0.51836641       0.00234454      -0.00472397      -0.00215340
Ni      10.57474887      28.28319840      10.57474887       0.60000000       0.02123203      -0.00116346       0.00147277      -0.00116346
Ni      10.61244011      29.98297587      12.38045520       0.60000000       0.00989174      -0.00069526       0.00386133      -0.00762883
Ni      12.34267677      28.17227902      12.34267677       0.60000000       0.04983771      -0.00080949      -0.00267811      -0.00080949
Ni      12.38045520      29.98297588      10.61244011       0.60000000       0.00989174      -0.00762883       0.00386133      -0.00069526
Ni      10.58885404      28.16958720      14.08646107       0.60000000       0.52321736       0.00029953      -0.00266108       0.00216023
Ni      10.60229246      29.86104610      15.92012894       0.60000000       0.49024176      -0.00096155      -0.00053569      -0.00665378
Ni      12.33794771      27.96740561      15.82849146       0.60000000       0.50651064      -0.00136944       0.00875645       0.00808640
Ni      12.39159563      29.85707512      14.15892026       0.60000000       0.02375750       0.00009637       0.00036910       0.00132260
Ni       9.12273861      26.39659894      17.75426431       0.60000000       0.56391130      -0.00080890      -0.00162069      -0.00104633
Ni       9.17782668      28.34286131      19.51988284       0.60000000       0.56513869       0.00251094       0.00405292       0.00206446
Ni      11.05507905      26.54351549      19.48292080       0.60000000       0.43503426      -0.00153757       0.00225313       0.00049472
Ni      12.34152211      29.67384938      17.72236356       0.60000000       0.34496911      -0.00041268      -0.00029296      -0.00618590
Ni       9.18646361      26.49773362      21.19808015       0.60000000       0.22147889       0.00257766       0.00082371       0.00244033
Ni       9.61187559      29.04428089      21.99171252       0.60000000       0.46889297       0.00602804      -0.00485685      -0.00171149
Ni      11.48183669      27.21193926      21.99662698       0.60000000       0.45032014       0.00601094       0.00679219       0.00114645
Ni      11.54848505      29.04273644      20.16438643       0.60000000       0.31757568       0.00735486       0.00021083      -0.00073757
Ni      10.67234464      29.91986067      26.37210278       0.60000000       0.33633788       0.00796398       0.00250543       0.00760798
Ni      12.47425337      28.26222385      26.35811634       0.60000000       0.39148140      -0.00070215      -0.00162331       0.00055740
Ni      10.68747518      28.18377443      24.42837989       0.60000000       0.60012029       0.00707406      -0.00208778      -0.00455975
Ni      10.72040153      28.14814368      28.14814368       0.60000000       0.02863055       0.00180643       0.00280679       0.00280679
Ni      10.66216917      29.90870069      29.90870069       0.60000000       0.00824822      -0.00392030      -0.00081901      -0.00081901
Ni      12.50117641      28.18676509      29.90851614       0.60000000       0.08228001       0.00063948      -0.00502058       0.00650821
Ni      12.50117641      29.90851614      28.18676509       0.60000000       0.08228001       0.00063948       0.00650821      -0.00502058
Ni      10.66254712      28.16806797      31.65503145       0.60000000       0.03317777       0.00767817       0.00129701       0.00278550
Ni      10.63710449      29.91722274      33.43104095       0.60000000      -0.00025670       0.00025530      -0.00179420      -0.00231489
Ni      12.43571503      28.16186635      33.40390653       0.60000000       0.01558953       0.00926720       0.00568217       0.00480504
Ni      12.44307656      29.91648206      31.65848418       0.60000000       0.02689888      -0.00016594       0.00134556      -0.00212852
Ni      10.62988205      28.15479083      35.18903112       0.60000000       0.00332225       0.00601330       0.00665821       0.00706625
Ni      10.60007220      29.93110910      36.97872305       0.60000000      -0.00190914       0.00004315       0.00442282       0.00211105
Ni      12.37644229      28.16972736      36.96944548       0.60000000       0.00330177      -0.00404662      -0.00848188      -0.00394093
Ni      12.39398154      29.91836067      35.19561040       0.60000000       0.00281149       0.00351883       0.00469335       0.00097264
Ni      10.57200000      28.19200000      38.76400000       0.60000000      -0.00223149       0.09484835      -0.06755905      -0.15099033
Ni      10.57200000      29.95400000      40.52600000       0.60000000       0.04253974      -0.00476798       0.00489856      -0.08272878
Ni      12.33400000      28.19200000      40.52600000       0.60000000       0.00133274       0.00372979      -0.00348446       0.00446821
Ni      12.33400000      29.95400000      38.76400000       0.60000000      -0.00239822       0.09987174      -0.06974799      -0.15094006
Ni      10.57200000      31.71600000       0.00000000       0.60000000       0.65774664      -0.00256155       0.00141631       0.44352092
Ni      12.33400000      33.47800000       0.00000000       0.60000000       0.65780017      -0.00264016       0.00104830       0.44320389
Ni       9.98466667      30.54133333       2.93666667       0.60000000       0.81301666      -0.07835731       0.12503597      -0.27979912
Ni       9.99623664      32.36073920       4.71991565       0.60000000       0.07127330       0.00028307       0.01304394       0.01407711
Ni      12.36785476      31.78699249       5.27994784       0.60000000       0.49630915      -0.00375766      -0.00684958      -0.00331696
Ni      11.74666667      32.30333333       2.93666667       0.60000000       0.81522184      -0.06553927       0.13385362      -0.24223641
Ni      10.60288110      31.78410464       7.06590069       0.60000000       0.01293974       0.00353434       0.00904480      -0.00094459
Ni      10.63343089      33.50332207       8.85647324       0.60000000       0.00832050       0.00685645      -0.01090189       0.00740101
Ni      12.40266573      31.74832184       8.84399133       0.60000000       0.01324809      -0.00735605       0.00281829      -0.00234467
Ni      12.40933521      33.49745709       7.07352492       0.60000000       0.02077386       0.00481344      -0.00090539      -0.00727418
Ni      10.62677575      31.74873935      10.62677575       0.60000000      -0.00336959      -0.00732379       0.00710047      -0.00732379
Ni      10.65042161      33.43559312      12.43256776       0.60000000       0.00478892       0.00130156      -0.00365812      -0.00202377
Ni      12.42148160      31.66665841      12.42148160       0.60000000       0.00389141      -0.00393775       0.00292107      -0.00393775
Ni      12.43256776      33.43559312      10.65042161       0.60000000       0.00478892      -0.00202377      -0.00365812       0.00130156
Ni      10.63235761      31.66473853      14.19878175       0.60000000       0.01971436      -0.00345918       0.00474797       0.00314757
Ni      10.63519243      33.35583973      15.99680708       0.60000000       0.00928654      -0.00547916       0.00704054       0.00512442
Ni      12.41430126      31.54672495      15.98271654       0.60000000       0.02808366       0.00316506       0.00147900       0.00052319
Ni      12.43621985      33.36965269      14.22067973       0.60000000       0.00838497      -0.00253490      -0.00681162      -0.00249356
Ni      10.59156339      31.52939769      17.75962133       0.60000000       0.22035799      -0.00071654      -0.00530455       0.00110694
Ni      10.67325780      33.31280617      19.46547766       0.60000000       0.16089089      -0.00130294       0.00647794       0.01275004
Ni      12.35654699      31.41905478      19.52861967       0.60000000       0.09055426      -0.00097344      -0.00012339      -0.00987203
Ni      12.43406327      33.29112873      17.74492547       0.60000000       0.02544079      -0.00520278      -0.00902249      -0.00858124
Ni       9.84751835      30.97830995      20.18221929       0.60000000       0.48457448      -0.01400069      -0.00079095      -0.00893922
Ni      10.64779827      33.34253055      22.84667581       0.60000000       0.32678439       0.02262947      -0.00097653       0.01970852
Ni      11.58293023      30.98860101      21.88099045       0.60000000       0.60101684      -0.01568620      -0.00221099      -0.00270222
Ni      12.44502995      33.29353114      21.20557520       0.60000000       0.17162128      -0.00359623      -0.00823847      -0.00849793
Ni       8.94141033      29.90631289      24.56905388       0.60000000       0.37376856      -0.01541007      -0.01044278       0.01028740
Ni      10.66322004      33.39386047      26.39127283       0.60000000       0.15049694      -0.00603196       0.00329993       0.01237736
Ni      12.49358038      31.60247187      26.43571419       0.60000000       0.34890749      -0.00515144       0.01472763      -0.00164269
Ni      12.44258424      33.36491643      24.65345423       0.60000000       0.31305098      -0.00981032      -0.03485597      -0.00678081
Ni      10.66254712      31.65503145      28.16806797       0.60000000       0.03317777       0.00767817       0.00278550       0.00129701
Ni      10.63710449      33.43104095      29.91722274       0.60000000      -0.00025670       0.00025530      -0.00231489      -0.00179420
Ni      12.44307656      31.65848418      29.91648206       0.60000000       0.02689888      -0.00016594      -0.00212852       0.00134556
Ni      12.43571503      33.40390653      28.16186635       0.60000000       0.01558953       0.00926720       0.00480504       0.00568217
Ni      10.63761024      31.67159553      31.67159553       0.60000000      -0.00300705      -0.00179995       0.00076640       0.00076640
Ni      10.61482951      33.44361164      33.44361164       0.60000000      -0.00283656      -0.00148728       0.00063396       0.00063396
Ni      12.39833152      31.67617503      33.43427331       0.60000000       0.00159232      -0.00081436      -0.00027210      -0.00084817
Ni      12.39833152      33.43427331      31.67617503       0.60000000       0.00159232      -0.00081436      -0.00084817      -0.00027210
Ni      10.61192584      31.68506627      35.20881584       0.60000000      -0.00105613      -0.00092591      -0.00012953      -0.00085531
Ni      10.58987994      33.46140604      36.98668145       0.60000000      -0.00355650      -0.00077426      -0.00044172      -0.00004641
Ni      12.36227236      31.69450960      36.98068627       0.60000000      -0.00229511       0.00028902       0.00013506      -0.00012546
Ni      12.37021825      33.44791593      35.21126182       0.60000000      -0.00087716      -0.00075792       0.00066493       0.00016016
Ni      10.57200000      31.71600000      38.76400000       0.60000000       0.00103252       0.07214634      -0.06548929      -0.11959074
Ni      10.57200000      33.47800000      40.52600000       0.60000000       0.26755030      -0.23521172       0.23525925       0.14732804
Ni      12.33400000      31.71600000      40.52600000       0.60000000       0.04243774      -0.00481344       0.00488668      -0.08310621
Ni      12.33400000      33.47800000      38.76400000       0.60000000       0.00087847       0.07460872      -0.06049951      -0.12142565
Ni       9.98466667      35.82733333       1.17466667       0.60000000       0.34892450      -0.03834586       0.04136017      -0.68539169
Ni       9.98466667      34.06533333       2.93666667       0.60000000       0.30459713       0.21964351       0.02603390       0.05874967
Ni      10.02938197      35.86859138       4.73187351       0.60000000       0.01867981      -0.00609027      -0.00528021       0.00061798
Ni      11.78537307      34.12388440       4.73477433       0.60000000       0.07597482       0.00142262      -0.00328163       0.00143320
Ni      11.74666667      35.82733333       2.93666667       0.60000000       0.31621555       0.28326250       0.02508873       0.12927541
Ni      10.04189950      34.13349276       6.51296205       0.60000000       0.00324576       0.00583333      -0.00103438      -0.00783966
Ni      10.08944064      35.90360697       8.32071764       0.60000000       0.27745898      -0.00187178      -0.00804439      -0.00104332
Ni      12.43358827      35.19687521       8.87560336       0.60000000       0.15789050      -0.00186573       0.00123673      -0.00329242
Ni      11.84218783      35.89188734       6.53939993       0.60000000       0.27543199       0.00429204       0.00574227       0.00431633
Ni      10.65805465      35.19712587      10.65805465       0.60000000       0.15815571       0.00192889       0.00459178       0.00192889
Ni      10.62822652      36.94948474      12.40011955       0.60000000       0.16277113       0.00156074      -0.00570976       0.00138401
Ni      12.43330294      35.16363916      12.43330294       0.60000000       0.01010103      -0.00125172      -0.00806946      -0.00125172
Ni      12.40011955      36.94948474      10.62822652       0.60000000       0.16277113       0.00138401      -0.00570976       0.00156074
Ni      10.65419180      35.16206216      14.20267522       0.60000000       0.01039508      -0.00035063      -0.00419438       0.00222409
Ni      10.62788058      36.95931172      15.90840277       0.60000000       0.01003270       0.00076808      -0.00235412       0.00156258
Ni      12.42767508      35.12810046      15.96682403       0.60000000       0.01413904      -0.00273296       0.00390246       0.00199758
Ni      12.39613287      36.95019484      14.15891352       0.60000000       0.01177224      -0.00327554      -0.00098571      -0.00287292
Ni      10.64774274      35.14575694      17.70533935       0.60000000       0.01509015      -0.00374192      -0.00806088       0.01116216
Ni      10.62180271      36.96275996      19.41116508       0.60000000       0.00819913      -0.00105536       0.02988628      -0.02255269
Ni      12.43187548      35.12024735      19.45200952       0.60000000       0.02310508       0.01678219      -0.00366288      -0.01161264
Ni      12.39441977      36.94446149      17.67122078       0.60000000       0.01372780       0.00072142       0.00065247      -0.00723950
Ni      10.63637988      35.15431294      21.14948418       0.60000000       0.03690419       0.00198994       0.00857258       0.01246456
Ni      10.61099567      36.95858505      22.89812387       0.60000000       0.00559855       0.01307440       0.03909551      -0.00014776
Ni      12.42797022      35.14640339      22.91262059       0.60000000       0.04087467       0.00386626       0.00221785      -0.01608408
Ni      12.39343315      36.94543697      21.16637223       0.60000000       0.01310515       0.01667741       0.03622084      -0.02522055
Ni      10.63650722      35.17361441      24.63133754       0.60000000       0.03487823      -0.00427193      -0.00820324       0.01154467
Ni      10.60769017      36.97020851      26.40806821       0.60000000       0.00236196       0.00377210      -0.01042947      -0.00429406
Ni      12.42054875      35.17102217      26.40565297       0.60000000       0.01383890      -0.00746732      -0.01432386      -0.01106752
Ni      12.39151561      36.95833145      24.66129429       0.60000000       0.00870237      -0.01549651      -0.01854106      -0.01632703
Ni      10.62988205      35.18903112      28.15479083       0.60000000       0.00332225       0.00601330       0.00706625       0.00665821
Ni      10.60007220      36.97872305      29.93110910       0.60000000      -0.00190914       0.00004315       0.00211105       0.00442282
Ni      12.39398154      35.19561040      29.91836067       0.60000000       0.00281149       0.00351883       0.00097264       0.00469335
Ni      12.37644229      36.96944548      28.16972736       0.60000000       0.00330177      -0.00404662      -0.00394093      -0.00848188
Ni      10.61192584      35.20881584      31.68506627       0.60000000      -0.00105613      -0.00092591      -0.00085531      -0.00012953
Ni      10.58987994      36.98668145      33.46140604       0.60000000      -0.00355650      -0.00077426      -0.00004641      -0.00044172
Ni      12.37021825      35.21126182      33.44791593       0.60000000      -0.00087716      -0.00075792       0.00016016       0.00066493
Ni      12.36227236      36.98068627      31.69450960       0.60000000      -0.00229511       0.00028902      -0.00012546       0.00013506
Ni      10.59468295      35.21866437      35.21866437       0.60000000      -0.00260860      -0.00016206       0.00045414       0.00045414
Ni      10.57962887      36.99446119      36.99446119       0.60000000      -0.00861922      -0.00011614      -0.00083378      -0.00083378
Ni      12.35010584      35.22446329      36.98703403       0.60000000      -0.00352328      -0.00005870      -0.00043926      -0.00001411
Ni      12.35010584      36.98703403      35.22446329       0.60000000      -0.00352328      -0.00005870      -0.00001411      -0.00043926
Ni      10.57200000      35.24000000      38.76400000       0.60000000       0.00457975      -0.07575261       0.07681420       0.03872160
Ni      10.57200000      37.00200000      40.52600000       0.60000000       8.27658488      26.64779675     -26.67743546     -53.39595344
Ni      12.33400000      35.24000000      40.52600000       0.60000000       0.26753860      -0.23538193       0.23516741       0.14720505
Ni      12.33400000      37.00200000      38.76400000       0.60000000       0.00309656      -0.08472362       0.08878852       0.03854216
Ni       9.98466667      37.58933333      -0.58733333       0.60000000       8.55883200     -24.71907736      24.53319239      55.75068612
Ni       9.98466667      39.35133333       1.17466667       0.60000000       0.39424693      -0.01335813       0.39527695      -0.56950783
Ni      11.74666667      37.58933333       1.17466667       0.60000000       0.39633784       0.01782633      -0.03789169      -0.64172358
Ni      11.74666667      39.35133333      -0.58733333       0.60000000       9.03216289     -24.55414532      24.31961602      56.55324125
Ni       9.98466667      37.58933333       2.93666667       0.60000000       0.06141496       0.12006083      -0.05348033       0.09515938
Ni       9.98466667      39.35133333       4.69866667       0.60000000       0.66212225       0.02081379       0.41895070      -0.01753524
Ni      11.80946619      37.63616939       4.73837182       0.60000000       0.43250814      -0.00279909      -0.00172082      -0.00744491
Ni      11.74666667      39.35133333       2.93666667       0.60000000       0.66739223       0.02551154       0.45416037      -0.05710141
Ni      10.05314896      37.64840098       6.51814017       0.60000000       0.45348301      -0.00131424      -0.00790462      -0.00831624
Ni      10.57200000      40.52600000       8.81000000       0.60000000       0.45476125       0.00669421      -0.30493165       0.00411686
Ni      12.33001527      38.68470959       8.78402504       0.60000000       0.41629501       0.00319156       0.00273079      -0.00273104
Ni      12.33400000      40.52600000       7.04800000       0.60000000       0.45656822       0.01847610      -0.29425185      -0.01900949
Ni      10.55418829      38.67520264      10.55418829       0.60000000       0.41572300       0.01507346       0.01848030       0.01507346
Ni      10.57200000      40.52600000      12.33400000       0.60000000       0.01374407      -0.12820944      -0.24887069      -0.13079898
Ni      12.33400000      38.76400000      12.33400000       0.60000000       0.01533307       0.08344577      -0.24066391       0.08344578
Ni      12.33400000      40.52600000      10.57200000       0.60000000       0.01374407      -0.13079898      -0.24887069      -0.12820944
Ni      10.57200000      38.76400000      14.09600000       0.60000000       0.01656211       0.09086427      -0.21411888       0.08534205
Ni      10.57200000      40.52600000      15.85800000       0.60000000      -0.00217241       0.00265137       0.01484322       0.00343758
Ni      12.33400000      38.76400000      15.85800000       0.60000000       0.00653731       0.16388781      -0.22596150       0.13817920
Ni      12.33400000      40.52600000      14.09600000       0.60000000      -0.00139359       0.00241630       0.01768391       0.00281059
Ni      10.57200000      38.76400000      17.62000000       0.60000000       0.00376817       0.18764624      -0.13705688       0.09435680
Ni      10.57200000      40.52600000      19.38200000       0.60000000      -0.00387217      -0.00046940       0.01225167       0.00004672
Ni      12.33400000      38.76400000      19.38200000       0.60000000       0.00599812       0.16983161      -0.23394025       0.08498192
Ni      12.33400000      40.52600000      17.62000000       0.60000000      -0.00223727      -0.00018230       0.01758779       0.00044823
Ni      10.57200000      38.76400000      21.14400000       0.60000000       0.00075655       0.13099167      -0.17994071       0.03206673
Ni      10.57200000      40.52600000      22.90600000       0.60000000      -0.00349664      -0.00027634       0.01355761       0.00001978
Ni      12.33400000      38.76400000      22.90600000       0.60000000       0.00368976       0.14793544      -0.24958713       0.00314051
Ni      12.33400000      40.52600000      21.14400000       0.60000000      -0.00225314      -0.00017344       0.01733685       0.00020101
Ni      10.57200000      38.76400000      24.66800000       0.60000000      -0.00045518       0.11011307      -0.19694102      -0.05232563
Ni      10.57200000      40.52600000      26.43000000       0.60000000       0.00124745       0.00380891       0.00422740      -0.00356668
Ni      12.33400000      38.76400000      26.43000000       0.60000000       0.00150273       0.14330649      -0.20442567      -0.04977523
Ni      12.33400000      40.52600000      24.66800000       0.60000000      -0.00301063      -0.00004161       0.01478151       0.00037174
Ni      10.57200000      38.76400000      28.19200000       0.60000000      -0.00223149       0.09484835      -0.15099033      -0.06755905
Ni      10.57200000      40.52600000      29.95400000       0.60000000       0.04253974      -0.00476798      -0.08272878       0.00489856
Ni      12.33400000      38.76400000      29.95400000       0.60000000      -0.00239822       0.09987174      -0.15094006      -0.06974799
Ni      12.33400000      40.52600000      28.19200000       0.60000000       0.00133274       0.00372979       0.00446821      -0.00348446
Ni      10.57200000      38.76400000      31.71600000       0.60000000       0.00103252       0.07214634      -0.11959074      -0.06548929
Ni      10.57200000      40.52600000      33.47800000       0.60000000       0.26755030      -0.23521172       0.14732804       0.23525925
Ni      12.33400000      38.76400000      33.47800000       0.60000000       0.00087847       0.07460872      -0.12142565      -0.06049951
Ni      12.33400000      40.52600000      31.71600000       0.60000000       0.04243774      -0.00481344      -0.08310621       0.00488668
Ni      10.57200000      38.76400000      35.24000000       0.60000000       0.00457975      -0.07575261       0.03872160       0.07681420
Ni      10.57200000      40.52600000      37.00200000       0.60000000       8.27658488      26.64779675     -53.39595344     -26.67743546
Ni      12.33400000      38.76400000      37.00200000       0.60000000       0.00309656      -0.08472362       0.03854216       0.08878852
Ni      12.33400000      40.52600000      35.24000000       0.60000000       0.26753860      -0.23538193       0.14720505       0.23516741
Ni      10.57200000      38.76400000      38.76400000       0.60000000      -0.16420959      -0.05327447       0.41246332       0.41246332
Ni      10.57200000      40.52600000      40.52600000       0.60000000       1.07993514      -6.44908196      -0.11373619      -0.11373619
Ni      12.33400000      38.76400000      40.52600000       0.60000000       8.39656984      26.80048553     -27.29449958     -54.16577546
Ni      12.33400000      40.52600000      38.76400000       0.60000000       8.39656984      26.80048553     -54.16577546     -27.29449958
Ni      14.09600000       0.00000000       0.00000000       0.60000000       0.50099704      -0.23271563      -0.10671897      -0.10671897
Ni      14.09600000       1.76200000       1.76200000       0.60000000       0.06276564      -0.00941870       0.13089193       0.13089193
Ni      15.85800000       0.00000000       1.76200000       0.60000000       0.14162186      -0.08608216      -0.09284263      -0.00462455
Ni      15.85800000       1.76200000       0.00000000       0.60000000       0.14162185      -0.08608215      -0.00462454      -0.09284263
Ni      14.09600000       0.00000000       3.52400000       0.60000000       0.29360480      -0.07290277      -0.08515447      -0.09733380
Ni      14.09600000       1.76200000       5.28600000       0.60000000       0.00105425       0.03084890       0.09713095       0.07206247
Ni      15.85800000       0.00000000       5.28600000       0.60000000       0.03635219       0.00335374       0.10087381       0.01128286
Ni      15.85800000       1.76200000       3.52400000       0.60000000      -0.00113385       0.02692207       0.09176404       0.05286319
Ni      14.09600000       0.00000000       7.04800000       0.60000000       0.01753011       0.00769366       0.02139471       0.00975716
Ni      14.09600000       1.76200000       8.81000000       0.60000000      -0.00174918       0.08478359       0.16138758       0.09116534
Ni      15.85800000       0.00000000       8.81000000       0.60000000      -0.00255622       0.00168462      -0.00845831       0.00134076
Ni      15.85800000       1.76200000       7.04800000       0.60000000      -0.00219503       0.07524679       0.14161518       0.08090961
Ni      14.09600000       0.00000000      10.57200000       0.60000000      -0.00279090       0.00123191      -0.01053749       0.00102565
Ni      14.09600000       1.76200000      12.33400000       0.60000000       0.00082816       0.07956040       0.19785256       0.08823796
Ni      15.85800000       0.00000000      12.33400000       0.60000000      -0.00347437       0.00033454      -0.01362522      -0.00016843
Ni      15.85800000       1.76200000      10.57200000       0.60000000      -0.00096834       0.04844251       0.16386074       0.07257415
Ni      14.09600000       0.00000000      14.09600000       0.60000000      -0.00297059       0.00009495      -0.01529583       0.00009495
Ni      14.09600000       1.76200000      15.85800000       0.60000000       0.00152948       0.08582244       0.21484892       0.05674930
Ni      15.85800000       0.00000000      15.85800000       0.60000000      -0.00243640       0.00006808      -0.01698921       0.00006808
Ni      15.85800000       1.76200000      14.09600000       0.60000000       0.00152949       0.05674972       0.21484928       0.08582169
Ni      14.09600000       0.00000000      17.62000000       0.60000000      -0.00287557      -0.00016365      -0.01560253       0.00013493
Ni      14.09600000       1.76200000      19.38200000       0.60000000       0.00281178       0.13221722       0.19115768      -0.00934897
Ni      15.85800000       0.00000000      19.38200000       0.60000000      -0.00180745      -0.00001381      -0.01912115      -0.00018738
Ni      15.85800000       1.76200000      17.62000000       0.60000000       0.00306398       0.08802155       0.23496983       0.04476746
Ni      14.09600000       0.00000000      21.14400000       0.60000000      -0.00223048      -0.00014760      -0.01768101      -0.00069578
Ni      14.09600000       1.76200000      22.90600000       0.60000000       0.00528101       0.07755358       0.25604721      -0.11595534
Ni      15.85800000       0.00000000      22.90600000       0.60000000      -0.00112520      -0.00000391      -0.02128293      -0.00036925
Ni      15.85800000       1.76200000      21.14400000       0.60000000       0.00505162       0.09369042       0.25968848      -0.03676059
Ni      14.09600000       0.00000000      24.66800000       0.60000000      -0.00168253      -0.00014793      -0.01928148      -0.00016152
Ni      14.09600000       1.76200000      26.43000000       0.60000000       0.02361746       0.14982969       0.22246350      -0.17749515
Ni      15.85800000       0.00000000      26.43000000       0.60000000      -0.00187681       0.00026576      -0.01867726       0.00036627
Ni      15.85800000       1.76200000      24.66800000       0.60000000       0.00603022       0.08577135       0.27901189      -0.12242498
Ni      14.09600000       0.00000000      28.19200000       0.60000000       0.01118134       0.00977576      -0.01638103      -0.01022369
Ni      14.09600000       1.76200000      29.95400000       0.60000000       0.49521124       0.11859829       0.25849864      -0.10568509
Ni      15.85800000       0.00000000      29.95400000       0.60000000       0.01168022       0.00972374      -0.01875361      -0.01062019
Ni      15.85800000       1.76200000      28.19200000       0.60000000       0.02345234       0.12216912       0.21527138      -0.09776217
Ni      14.09600000       0.00000000      31.71600000       0.60000000       0.30012798      -0.09148506       0.05102502       0.09108083
Ni      15.85800000       0.00000000      33.47800000       0.60000000       0.30004266      -0.09279525       0.04985637       0.09076319
Ni      15.85800000       1.76200000      31.71600000       0.60000000       0.49313794       0.11603156       0.26322981      -0.09254229
Ni      14.09600000       0.00000000      35.24000000       0.60000000       0.65416909      -0.01079442       0.45090045       0.00028789
Ni      15.85800000       0.00000000      37.00200000       0.60000000       0.49042322      -0.02174354       0.42148505       0.01753150
Ni      13.50866667       1.17466667      39.35133333       0.60000000       0.77646460       0.18713713      -0.58519574       0.49478321
Ni      15.85800000       0.00000000      40.52600000       0.60000000       0.22086419      -0.28417611       0.16719302      -0.17007489
Ni      15.85800000       1.76200000      38.76400000       0.60000000       1.00192668      -3.40861073      -2.66964439       2.70816968
Ni      14.09600000       3.52400000       0.00000000       0.60000000       0.29360480      -0.07290276      -0.09733380      -0.08515447
Ni      14.09600000       5.28600000       1.76200000       0.60000000       0.00105423       0.03084832       0.07206218       0.09713043
Ni      15.85800000       3.52400000       1.76200000       0.60000000      -0.00113381       0.02692120       0.05286287       0.09176314
Ni      15.85800000       5.28600000       0.00000000       0.60000000       0.03635217       0.00335376       0.01128287       0.10087389
Ni      14.10182759       3.53482695       3.53482702       0.60000000      -0.00444199       0.00200473       0.00422365       0.00422371
Ni      14.12454679       5.31909855       5.31909863       0.60000000      -0.00147086       0.00428309       0.00413547       0.00413555
Ni      15.86318338       3.53931450       5.30644504       0.60000000       0.00208370       0.00096458       0.00274420       0.00235363
Ni      15.86318299       5.30644490       3.53931443       0.60000000       0.00208396       0.00096429       0.00235345       0.00274410
Ni      14.11696998       3.54899364       7.07617728       0.60000000      -0.00085218       0.00194972       0.00649359      -0.00274999
Ni      14.14863745       5.34895064       8.86169851       0.60000000       0.00855471       0.00151300       0.00383879      -0.00398073
Ni      15.89181468       3.55926731       8.83122225       0.60000000       0.00529687      -0.00052713      -0.00015151      -0.00295858
Ni      15.89373124       5.34578631       7.10102579       0.60000000       0.03029457       0.00365626      -0.00141090       0.00274686
Ni      14.13105144       3.56309532      10.60253261       0.60000000       0.00232964       0.00089820       0.00126849      -0.00557539
Ni      14.16669576       5.38173343      12.39155454       0.60000000       0.01176362      -0.00118131       0.00013792      -0.00129529
Ni      15.88498844       3.56864620      12.36591634       0.60000000       0.00478655      -0.00042493       0.00155937      -0.00135257
Ni      15.93451238       5.36492275      10.60373079       0.60000000       0.03051464       0.00169520       0.00023827      -0.00079930
Ni      14.12950081       3.57486126      14.12950048       0.60000000       0.00634527      -0.00001917       0.00005959      -0.00001948
Ni      14.15685279       5.40831156      15.90785875       0.60000000       0.01962493       0.00123306      -0.00334901       0.00155855
Ni      15.88738202       3.58265943      15.88738201       0.60000000       0.01012708       0.00119968       0.00041274       0.00119967
Ni      15.90785893       5.40831155      14.15685262       0.60000000       0.01962498       0.00155871      -0.00334901       0.00123291
Ni      14.13614080       3.57798424      17.63154190       0.60000000       0.00735558      -0.00134253      -0.00027734       0.00144996
Ni      14.16788077       5.42316720      19.36227978       0.60000000       0.02415819      -0.00323076       0.00405454       0.00044903
Ni      15.89517537       3.59131168      19.38259390       0.60000000       0.01323178      -0.00013360      -0.00308264      -0.00092041
Ni      15.92103062       5.43955189      17.64921561       0.60000000       0.02662158      -0.00146084      -0.00106051       0.00065508
Ni      14.13853495       3.58637069      21.11532245       0.60000000       0.01390503      -0.00163707      -0.00344625      -0.00182034
Ni      14.16026808       5.44488970      22.78812323       0.60000000       0.04667285      -0.00149613      -0.00562988      -0.00306080
Ni      15.89587635       3.60004437      22.86279818       0.60000000       0.01805980       0.00109538       0.00098452      -0.00039904
Ni      15.92165343       5.46962863      21.09454309       0.60000000       0.03047809      -0.00177297      -0.00288630      -0.00024848
Ni      14.13922153       3.58958620      24.59311482       0.60000000       0.03230718       0.00121519       0.00058289       0.00096123
Ni      15.90784046       3.59034941      26.36711229       0.60000000       0.03518670       0.00061274      -0.00082260       0.00329858
Ni      15.93053352       5.44623258      24.56128126       0.60000000       0.04399677       0.00341355      -0.00262569       0.00205195
Ni      14.17312554       3.57246038      28.12154710       0.60000000       0.54261981      -0.00146950       0.00162832       0.00126542
Ni      15.91769290       3.58780487      29.91585929       0.60000000       0.61511036      -0.00319137      -0.00120730       0.00286456
Ni      14.17242685       5.27250365      33.51663378       0.60000000       0.47525409      -0.00030048       0.00236822      -0.00074138
Ni      13.50866667       2.93666667      34.06533333       0.60000000       0.81885134      -0.03561484      -0.19275646       0.15729994
Ni      13.58353972       4.75231187      35.89714757       0.60000000       0.23026224      -0.00403393       0.00113372      -0.00229773
Ni      15.27066667       2.93666667      35.82733333       0.60000000       0.81547727      -0.03360363      -0.21343737       0.32100971
Ni      15.94800736       5.25561094      35.27710729       0.60000000       0.48289936      -0.00045790      -0.00334607      -0.00142314
Ni      13.50866667       2.93666667      37.58933333       0.60000000       0.53421285       0.54976719      -0.15612864       0.13080731
Ni      14.09600000       5.28600000      40.52600000       0.60000000       0.51094500       0.08263952      -0.10921071      -0.43531536
Ni      15.85800000       3.52400000      40.52600000       0.60000000       0.45121294      -0.02006201       0.04092290      -0.52569756
Ni      15.26433090       4.74573247      37.87590525       0.60000000       0.47824838       0.00448777       0.00743675      -0.00697437
Ni      14.09600000       7.04800000       0.00000000       0.60000000       0.01753010       0.00769367       0.00975716       0.02139474
Ni      14.09600000       8.81000000       1.76200000       0.60000000      -0.00174922       0.08478208       0.09116560       0.16138625
Ni      15.85800000       7.04800000       1.76200000       0.60000000      -0.00219507       0.07524285       0.08090965       0.14161178
Ni      15.85800000       8.81000000       0.00000000       0.60000000      -0.00255627       0.00168463       0.00134075      -0.00845815
Ni      14.11696983       7.07617727       3.54899357       0.60000000      -0.00085227       0.00194961      -0.00275008       0.00649351
Ni      14.14863727       8.86169869       5.34895063       0.60000000       0.00855457       0.00151283      -0.00398059       0.00383879
Ni      15.89373068       7.10102595       5.34578597       0.60000000       0.03029495       0.00365562       0.00274705      -0.00141126
Ni      15.89181376       8.83122283       3.55926686       0.60000000       0.00529683      -0.00052805      -0.00295800      -0.00015203
Ni      14.14641574       7.10470248       7.10470248       0.60000000       0.01148876      -0.00104163      -0.00478714      -0.00478710
Ni      14.13882976       8.86297759       8.86297762       0.60000000       0.16665344       0.00302400      -0.00242410      -0.00242404
Ni      15.96889522       7.16401347       8.87208130       0.60000000       0.12274520       0.00647447      -0.00024952      -0.00092192
Ni      15.96889472       8.87208163       7.16401347       0.60000000       0.12274531       0.00647386      -0.00092151      -0.00024957
Ni      14.17823392       7.14830119      10.63012042       0.60000000       0.12181570       0.01000707       0.00282401      -0.00518650
Ni      14.19084537       8.95813638      12.41209809       0.60000000       0.27985955       0.00082434      -0.00331140       0.00300820
Ni      15.95489898       7.21460014      12.37055195       0.60000000       0.27314992      -0.00326709      -0.00447252       0.00584387
Ni      14.18951320       7.22246001      14.18951295       0.60000000       0.03561954       0.00031548      -0.00205360       0.00031521
Ni      14.16640814       9.10173519      15.97725905       0.60000000       0.45136193       0.00080852      -0.00520607      -0.00207814
Ni      15.93551916       7.30156809      15.93551907       0.60000000       0.05289886      -0.00113152      -0.00308651      -0.00113165
Ni      15.97725913       9.10173517      14.16640804       0.60000000       0.45136195      -0.00207801      -0.00520607       0.00080836
Ni      14.17815304       7.24939624      17.63653708       0.60000000       0.17543071       0.00201002       0.00063798       0.00188637
Ni      15.92385312       7.36069647      19.35229399       0.60000000       0.05143008      -0.00105429       0.00038954       0.00389138
Ni      15.94072156       9.26211507      17.64754385       0.60000000       0.22581952      -0.00122517       0.00698027       0.00066758
Ni      14.16083263       7.32346962      21.02136563       0.60000000       0.07275397      -0.00122813       0.00073001       0.00157746
Ni      15.92838535       7.33501674      22.79108027       0.60000000       0.05566928      -0.00083584      -0.00539871       0.00222573
Ni      14.18013969       7.23694757      24.49489671       0.60000000       0.55944655       0.00156132      -0.00165326      -0.00527724
Ni      14.20403580       5.39117029      26.30317405       0.60000000       0.55076204       0.00133020       0.00125179       0.00248804
Ni      14.14343542       8.83042168      29.98109191       0.60000000       0.50287023      -0.00296404      -0.00249176       0.00110465
Ni      15.99283225       5.40172307      28.12115865       0.60000000       0.64930211      -0.00117011       0.00087214       0.00760239
Ni      15.98614502       7.23632948      26.32171986       0.60000000       0.55591134       0.00104634       0.00199066      -0.00163115
Ni      14.19739367       7.03322837      31.73649551       0.60000000       0.38513499      -0.00945122       0.00480503      -0.00419832
Ni      14.20815998       8.85287930      33.43199293       0.60000000       0.01022239       0.00002250      -0.00011393      -0.00272636
Ni      15.97674152       7.05271482      33.46976933       0.60000000       0.22544563      -0.00919737      -0.00110094      -0.00529169
Ni      15.97716268       8.78939595      31.65636132       0.60000000       0.23878857      -0.00472039      -0.00000954      -0.00432821
Ni      14.19617758       7.07838814      35.21675127       0.60000000       0.15375504      -0.00158466       0.00096856       0.00368608
Ni      14.15857422       8.84818389      36.95969775       0.60000000       0.16304108       0.00294255       0.00187625      -0.00315452
Ni      15.89015450       7.05681593      36.99191449       0.60000000       0.17651870       0.00140846       0.00125320      -0.00413500
Ni      15.95179647       8.87664576      35.17801827       0.60000000       0.01434410       0.00030589      -0.00060694      -0.00097343
Ni      14.09082658       6.97135531      38.67721789       0.60000000       0.43199520       0.01072698       0.00712293       0.00694014
Ni      14.09600000       8.81000000      40.52600000       0.60000000       0.01702448      -0.11117166      -0.17210016      -0.27445151
Ni      15.85800000       7.04800000      40.52600000       0.60000000       0.12452905      -0.14477213      -0.12233026      -0.25180026
Ni      15.85800000       8.81000000      38.76400000       0.60000000       0.02996164      -0.03144667       0.09110087      -0.12927740
Ni      14.09600000      10.57200000       0.00000000       0.60000000      -0.00279091       0.00123192       0.00102565      -0.01053745
Ni      14.09600000      12.33400000       1.76200000       0.60000000       0.00082814       0.07955996       0.08823849       0.19785199
Ni      15.85800000      10.57200000       1.76200000       0.60000000      -0.00096837       0.04844129       0.07257571       0.16385892
Ni      15.85800000      12.33400000       0.00000000       0.60000000      -0.00347438       0.00033454      -0.00016844      -0.01362519
Ni      14.13105112      10.60253289       3.56309526       0.60000000       0.00232960       0.00089796      -0.00557517       0.00126843
Ni      14.16669547      12.39155483       5.38173346       0.60000000       0.01176359      -0.00118159      -0.00129501       0.00013795
Ni      15.93451156      10.60373157       5.36492269       0.60000000       0.03051462       0.00169437      -0.00079849       0.00023817
Ni      15.88498821      12.36591659       3.56864613       0.60000000       0.00478652      -0.00042515      -0.00135232       0.00155931
Ni      14.17823368      10.63012061       7.14830129       0.60000000       0.12181567       0.01000681      -0.00518632       0.00282414
Ni      14.19084531      12.41209817       8.95813643       0.60000000       0.27985954       0.00082427       0.00300829      -0.00331134
Ni      15.95489884      12.37055211       7.21460021       0.60000000       0.27314986      -0.00326722       0.00584403      -0.00447245
Ni      14.22310485      10.61877371      10.61877369       0.60000000       0.34074384      -0.00901981      -0.00386074      -0.00386076
Ni      14.25919628      12.34295073      12.34295072       0.60000000       0.40715208       0.01235284      -0.01031112      -0.01031114
Ni      14.20657501      10.79369108      14.20657495       0.60000000       0.55382229       0.00426588       0.00712933       0.00426579
Ni      15.96191642      11.23323605      15.96191656       0.60000000       0.65545241      -0.00638790       0.00577647      -0.00638784
Ni      13.38453660      11.46026108      18.31335252       0.60000000       0.39960215      -0.01327221       0.01117223       0.00171676
Ni      14.05476101       9.19153735      19.22709009       0.60000000       0.21779218      -0.00094379       0.00054700       0.00626363
Ni      14.00665677      11.05946964      20.91212805       0.60000000       0.32874929      -0.00690996       0.00939253       0.00903988
Ni      15.86988056       9.25120712      21.02237880       0.60000000       0.07792181       0.00059445       0.00607834       0.00457498
Ni      15.80624519      11.15604228      19.28803469       0.60000000       0.29017443      -0.00103645       0.00570096       0.00493194
Ni      14.12604918       9.12241011      22.71104578       0.60000000       0.56951116      -0.00358110       0.00470187       0.00276966
Ni      13.99330186      12.27437616      26.24133745       0.60000000       0.68094933       0.00633938       0.00845458      -0.00619640
Ni      15.94212525       9.11336587      24.55245197       0.60000000       0.56583480      -0.00638067       0.00504796      -0.00721032
Ni      15.82246452      11.06552043      22.81027758       0.60000000       0.53197936       0.00158888       0.00969081      -0.00813284
Ni      14.08646107      10.58885404      28.16958720       0.60000000       0.52321736       0.00216023       0.00029953      -0.00266108
Ni      14.15892026      12.39159563      29.85707512       0.60000000       0.02375750       0.00132260       0.00009637       0.00036910
Ni      15.92012894      10.60229246      29.86104610       0.60000000       0.49024176      -0.00665378      -0.00096155      -0.00053569
Ni      15.82849146      12.33794771      27.96740561       0.60000000       0.50651064       0.00808640      -0.00136944       0.00875645
Ni      14.19878175      10.63235761      31.66473853       0.60000000       0.01971436       0.00314757      -0.00345919       0.00474797
Ni      14.22067973      12.43621985      33.36965269       0.60000000       0.00838497      -0.00249356      -0.00253490      -0.00681162
Ni      15.99680708      10.63519243      33.35583973       0.60000000       0.00928654       0.00512443      -0.00547916       0.00704054
Ni      15.98271654      12.41430126      31.54672495       0.60000000       0.02808366       0.00052319       0.00316506       0.00147900
Ni      14.20267522      10.65419180      35.16206216       0.60000000       0.01039508       0.00222409      -0.00035063      -0.00419438
Ni      14.15891352      12.39613287      36.95019484       0.60000000       0.01177224      -0.00287292      -0.00327554      -0.00098571
Ni      15.90840277      10.62788058      36.95931172       0.60000000       0.01003270       0.00156258       0.00076808      -0.00235412
Ni      15.96682403      12.42767508      35.12810046       0.60000000       0.01413904       0.00199758      -0.00273296       0.00390246
Ni      14.09600000      10.57200000      38.76400000       0.60000000       0.01656211       0.08534205       0.09086427      -0.21411887
Ni      14.09600000      12.33400000      40.52600000       0.60000000      -0.00139359       0.00281059       0.00241630       0.01768391
Ni      15.85800000      10.57200000      40.52600000       0.60000000      -0.00217241       0.00343758       0.00265137       0.01484322
Ni      15.85800000      12.33400000      38.76400000       0.60000000       0.00653731       0.13817920       0.16388781      -0.22596149
Ni      14.09600000      14.09600000       0.00000000       0.60000000      -0.00297060       0.00009495       0.00009495      -0.01529582
Ni      14.09600000      15.85800000       1.76200000       0.60000000       0.00152948       0.08582237       0.05674945       0.21484880
Ni      15.85800000      14.09600000       1.76200000       0.60000000       0.00152948       0.05674960       0.08582210       0.21484893
Ni      15.85800000      15.85800000       0.00000000       0.60000000      -0.00243640       0.00006808       0.00006808      -0.01698921
Ni      14.12950070      14.12950059       3.57486124       0.60000000       0.00634526      -0.00001927      -0.00001938       0.00005957
Ni      14.15685275      15.90785878       5.40831156       0.60000000       0.01962493       0.00123302       0.00155859      -0.00334900
Ni      15.90785885      14.15685269       5.40831156       0.60000000       0.01962494       0.00155864       0.00123297      -0.00334900
Ni      15.88738202      15.88738201       3.58265942       0.60000000       0.01012706       0.00119967       0.00119967       0.00041274
Ni      14.18951312      14.18951304       7.22246006       0.60000000       0.03561952       0.00031539       0.00031532      -0.00205355
Ni      14.16640811      15.97725909       9.10173521       0.60000000       0.45136192       0.00080848      -0.00207808      -0.00520603
Ni      15.97725911      14.16640808       9.10173521       0.60000000       0.45136193      -0.00207804       0.00080843      -0.00520603
Ni      15.93551913      15.93551910       7.30156810       0.60000000       0.05289886      -0.00113156      -0.00113161      -0.00308649
Ni      14.20657499      14.20657499      10.79369112       0.60000000       0.55382228       0.00426584       0.00426584       0.00712936
Ni      15.96191648      15.96191652      11.23323606       0.60000000       0.65545239      -0.00638787      -0.00638786       0.00577648
Cr      14.05453741      14.05453740      14.05453740       0.60000000       0.46463939      -0.00970802      -0.00970804      -0.00970804
Cr      13.93795619      15.78036048      15.78036048       0.60000000       0.27099627      -0.00492262      -0.00040780      -0.00040780
Cr      15.78036049      13.93795619      15.78036048       0.60000000       0.27099626      -0.00040779      -0.00492262      -0.00040779
Cr      15.78036049      15.78036049      13.93795619       0.60000000       0.27099626      -0.00040779      -0.00040779      -0.00492262
Ni      13.31494041      13.31494039      16.43975656       0.60000000       0.48844693       0.00172603       0.00172603      -0.00262073
Ni      13.32214366      15.18577394      18.13549989       0.60000000       0.26912787      -0.00527505       0.00147420      -0.00099647
Ni      15.18577395      13.32214366      18.13549990       0.60000000       0.26912786       0.00147419      -0.00527503      -0.00099646
Cr      15.76300251      15.76300251      17.56870081       0.60000000       0.06081311      -0.00977302      -0.00977302      -0.02012389
Ni      13.40161178      13.40161180      19.89196794       0.60000000       0.18961492      -0.04177281      -0.04177278       0.06812201
Ni      13.34426585      15.17486142      21.74478214       0.60000000       0.31165994      -0.02295719      -0.03756189      -0.01708843
Ni      15.17486142      13.34426586      21.74478214       0.60000000       0.31165993      -0.03756190      -0.02295715      -0.01708842
Ni      15.17289438      15.17289438      19.94707488       0.60000000       0.10074599       0.01350059       0.01350060      -0.01646421
Ni      13.88301738      13.88301738      24.13015718       0.60000000       0.68969068       0.00250556       0.00250556      -0.02919989
Ni      13.94292606      15.73993640      25.91622387       0.60000000       0.34952864       0.00124478       0.00531827       0.00088937
Ni      15.73993640      13.94292606      25.91622387       0.60000000       0.34952864       0.00531827       0.00124478       0.00088937
Ni      15.56065111      15.56065111      23.89499769       0.60000000       0.25429894       0.00217949       0.00217949      -0.00907155
Ni      14.07945955      14.07945955      27.94675053       0.60000000       0.07126967       0.00696333       0.00696333       0.00631452
Ni      14.13788808      15.92437193      29.67509099       0.60000000       0.04037122      -0.00543316       0.00398080       0.01025577
Ni      15.92437193      14.13788808      29.67509099       0.60000000       0.04037122       0.00398080      -0.00543316       0.01025577
Ni      15.78213195      15.78213195      27.71885380       0.60000000       0.07229958       0.00982439       0.00982439       0.00744644
Ni      14.20132510      14.20132510      31.55411574       0.60000000       0.01546162       0.00388482       0.00388482      -0.00226918
Ni      14.21535251      15.98930784      33.29154906       0.60000000       0.02034130       0.00166296       0.00367321       0.00350678
Ni      15.98930784      14.21535251      33.29154906       0.60000000       0.02034130       0.00367321       0.00166296       0.00350678
Ni      15.96078164      15.96078164      31.42461410       0.60000000       0.02724382       0.00246794       0.00246794       0.00117446
Ni      14.20436617      14.20436617      35.12757922       0.60000000       0.01547821      -0.00253996      -0.00253996       0.00271793
Ni      14.16325219      15.92368185      36.93291780       0.60000000       0.01885874      -0.00157499       0.00103113       0.00027843
Ni      15.92368185      14.16325219      36.93291780       0.60000000       0.01885874       0.00103113      -0.00157499       0.00027843
Ni      15.97498583      15.97498583      35.07762129       0.60000000       0.02875358       0.00329464       0.00329464       0.00776990
Ni      14.09600000      14.09600000      38.76400000       0.60000000       0.00797141       0.15829657       0.15829657      -0.25449462
Ni      14.09600000      15.85800000      40.52600000       0.60000000      -0.00117554       0.00005546       0.00031028       0.02089265
Ni      15.85800000      14.09600000      40.52600000       0.60000000      -0.00117554       0.00031028       0.00005546       0.02089265
Ni      15.85800000      15.85800000      38.76400000       0.60000000       0.01276638       0.15601859       0.15601859      -0.32006841
Ni      14.09600000      17.62000000       0.00000000       0.60000000      -0.00287557      -0.00016365       0.00013493      -0.01560253
Ni      14.09600000      19.38200000       1.76200000       0.60000000       0.00281178       0.13221722      -0.00934897       0.19115767
Ni      15.85800000      17.62000000       1.76200000       0.60000000       0.00306398       0.08802155       0.04476746       0.23496983
Ni      15.85800000      19.38200000       0.00000000       0.60000000      -0.00180745      -0.00001381      -0.00018738      -0.01912115
Ni      14.13614079      17.63154190       3.57798423       0.60000000       0.00735558      -0.00134254       0.00144996      -0.00027735
Ni      14.16788078      19.36227978       5.42316720       0.60000000       0.02415819      -0.00323076       0.00044903       0.00405454
Ni      15.92103062      17.64921560       5.43955189       0.60000000       0.02662158      -0.00146085       0.00065509      -0.00106051
Ni      15.89517538      19.38259390       3.59131168       0.60000000       0.01323178      -0.00013360      -0.00092041      -0.00308264
Ni      14.17815303      17.63653709       7.24939625       0.60000000       0.17543071       0.00200999       0.00188639       0.00063798
Ni      15.94072156      17.64754385       9.26211508       0.60000000       0.22581952      -0.00122519       0.00066760       0.00698028
Ni      15.92385312      19.35229398       7.36069647       0.60000000       0.05143008      -0.00105429       0.00389138       0.00038954
Ni      13.38453660      18.31335252      11.46026108       0.60000000       0.39960215      -0.01327221       0.00171676       0.01117222
Ni      13.31494041      16.43975656      13.31494039       0.60000000       0.48844693       0.00172604      -0.00262073       0.00172603
Ni      13.32214365      18.13549989      15.18577394       0.60000000       0.26912787      -0.00527505      -0.00099647       0.00147420
Cr      15.76300251      17.56870081      15.76300251       0.60000000       0.06081311      -0.00977302      -0.02012389      -0.00977302
Ni      15.18577394      18.13549990      13.32214366       0.60000000       0.26912786       0.00147419      -0.00099646      -0.00527503
Cr      13.96014707      17.57395188      17.57395188       0.60000000       0.18863357       0.00994329      -0.00577610      -0.00577610
Cr      13.93398805      19.36732496      19.36732496       0.60000000       0.18467326       0.01013966       0.00484869       0.00484869
Cr      15.77168588      17.57811965      19.38574353       0.60000000       0.05944065       0.00767529       0.00045643      -0.00364373
Cr      15.77168588      19.38574353      17.57811965       0.60000000       0.05944065       0.00767529      -0.00364373       0.00045643
Ni      13.32908513      16.97348141      19.94276845       0.60000000       0.23414128      -0.00060513       0.02166591      -0.00945259
Ni      13.33640238      18.74371942      21.77026239       0.60000000       0.24395973      -0.00040536       0.00067709      -0.00608256
Ni      15.17879164      16.95394647      21.78101288       0.60000000       0.14000793       0.01111081       0.01149188      -0.00069029
Cr      15.74992835      19.37498712      21.17948605       0.60000000       0.06306813       0.00716793       0.01187008      -0.00436492
Ni      13.35868502      16.88859614      23.57727865       0.60000000       0.41406355       0.00636183      -0.00494773       0.00879635
Ni      13.34628468      18.64225842      25.33929673       0.60000000       0.40728470      -0.00601295       0.00431642       0.00255998
Ni      15.60378858      17.45872145      25.76120065       0.60000000       0.16155022       0.01385124       0.00206582       0.01782709
Ni      15.19957359      18.70313810      23.57424958       0.60000000       0.12885620       0.00895884      -0.00481953       0.00618740
Ni      13.98374240      17.63791092      27.71579758       0.60000000       0.27408171       0.00145814       0.01157230       0.00929967
Ni      14.06625549      19.49203116      29.54279349       0.60000000       0.10159494      -0.00003401       0.00674302       0.00359861
Ni      15.85822841      17.67009569      29.52855800       0.60000000       0.04879387      -0.00202504       0.00440306       0.00510662
Ni      15.68930658      19.33904611      27.62192280       0.60000000       0.13696056       0.00505405       0.01006773       0.00763150
Ni      14.17004916      17.75048073      31.42376555       0.60000000       0.03184118      -0.00339461      -0.00614864       0.00064095
Ni      14.21057500      19.49818838      33.22246760       0.60000000       0.03494715       0.01167203      -0.00360193      -0.00029795
Ni      15.98811244      17.75481060      33.19983913       0.60000000       0.03267407      -0.00454444       0.00106795       0.00464409
Ni      15.93994383      19.51381563      31.31908158       0.60000000       0.04576123      -0.00067122       0.00138842       0.00806914
Ni      14.20664381      17.72774027      35.08613985       0.60000000       0.02665212       0.01608657      -0.01844414       0.00860617
Ni      14.16973011      19.42838795      36.92802516       0.60000000       0.02332715      -0.00079248       0.00247614       0.00457264
Ni      15.93331968      17.68548133      36.91179376       0.60000000       0.03131870      -0.00783661       0.00640311      -0.00194713
Ni      15.99083928      19.48167828      35.03226926       0.60000000       0.04447549      -0.00650292       0.00626379       0.00297343
Ni      14.09600000      17.62000000      38.76400000       0.60000000       0.01088140       0.17010598       0.12655613      -0.29312694
Ni      14.09600000      19.38200000      40.52600000       0.60000000      -0.00073032      -0.00004681       0.00035922       0.02218091
Ni      15.85800000      17.62000000      40.52600000       0.60000000       0.00043988       0.00010906       0.00032819       0.02596050
Ni      15.85800000      19.38200000      38.76400000       0.60000000       0.01629080       0.18194555       0.11107211      -0.35553346
Ni      14.09600000      21.14400000       0.00000000       0.60000000      -0.00223048      -0.00014760      -0.00069578      -0.01768101
Ni      14.09600000      22.90600000       1.76200000       0.60000000       0.00528101       0.07755356      -0.11595535       0.25604723
Ni      15.85800000      21.14400000       1.76200000       0.60000000       0.00505162       0.09369042      -0.03676059       0.25968848
Ni      15.85800000      22.90600000       0.00000000       0.60000000      -0.00112520      -0.00000391      -0.00036925      -0.02128293
Ni      14.13853495      21.11532245       3.58637069       0.60000000       0.01390503      -0.00163706      -0.00182034      -0.00344626
Ni      14.16026808      22.78812322       5.44488970       0.60000000       0.04667286      -0.00149613      -0.00306080      -0.00562988
Ni      15.92165343      21.09454309       5.46962863       0.60000000       0.03047809      -0.00177297      -0.00024848      -0.00288630
Ni      15.89587635      22.86279818       3.60004437       0.60000000       0.01805980       0.00109538      -0.00039904       0.00098452
Ni      14.16083263      21.02136563       7.32346962       0.60000000       0.07275397      -0.00122813       0.00157746       0.00073001
Ni      15.92838535      22.79108027       7.33501674       0.60000000       0.05566928      -0.00083584       0.00222573      -0.00539871
Ni      14.05476101      19.22709009       9.19153735       0.60000000       0.21779217      -0.00094381       0.00626364       0.00054700
Ni      14.00665677      20.91212805      11.05946964       0.60000000       0.32874929      -0.00690997       0.00903989       0.00939253
Ni      15.80624519      19.28803469      11.15604228       0.60000000       0.29017443      -0.00103646       0.00493196       0.00570097
Ni      15.86988056      21.02237880       9.25120712       0.60000000       0.07792181       0.00059445       0.00457498       0.00607833
Ni      13.40161178      19.89196794      13.40161181       0.60000000       0.18961492      -0.04177281       0.06812201      -0.04177278
Ni      13.34426585      21.74478215      15.17486142       0.60000000       0.31165994      -0.02295719      -0.01708843      -0.03756189
Ni      15.17289438      19.94707488      15.17289438       0.60000000       0.10074599       0.01350059      -0.01646421       0.01350060
Ni      15.17486142      21.74478214      13.34426586       0.60000000       0.31165993      -0.03756190      -0.01708842      -0.02295715
Ni      13.32908513      19.94276845      16.97348141       0.60000000       0.23414128      -0.00060513      -0.00945259       0.02166591
Ni      13.33640238      21.77026239      18.74371942       0.60000000       0.24395973      -0.00040536      -0.00608256       0.00067709
Cr      15.74992835      21.17948605      19.37498712       0.60000000       0.06306813       0.00716793      -0.00436492       0.01187008
Ni      15.17879164      21.78101288      16.95394648       0.60000000       0.14000793       0.01111081      -0.00069029       0.01149188
Cr      13.89465353      21.15425680      21.15425680       0.60000000       0.19214353       0.00798113       0.00327026       0.00327026
Cr      13.85676096      22.93806819      22.93806819       0.60000000       0.22379391       0.00237142      -0.00330939      -0.00330939
Cr      15.70877772      21.17129289      22.96720011       0.60000000       0.06149058      -0.00950447       0.00316895       0.00550399
Cr      15.70877772      22.96720011      21.17129289       0.60000000       0.06149058      -0.00950447       0.00550399       0.00316895
Ni      13.32810802      20.51881177      23.57666829       0.60000000       0.26253259       0.00374481       0.00036899      -0.00061555
Ni      13.34931919      22.25054354      25.40831638       0.60000000       0.33587053       0.00406980       0.00299092       0.01266530
Ni      15.21722711      20.43330411      25.36180125       0.60000000       0.12439181      -0.00123585      -0.00756462       0.00290122
Cr      15.72097896      22.93641248      24.76820081       0.60000000       0.10000252      -0.00081661       0.00312313       0.00259690
Ni      13.39293451      20.28866981      27.16707730       0.60000000       0.27175882       0.00421779      -0.00030504      -0.00105562
Ni      13.37069322      21.85656684      29.04886416       0.60000000       0.66990716      -0.00369771      -0.00675486       0.00662991
Ni      15.85713050      21.24171224      29.46285216       0.60000000       0.25304911       0.00212182       0.00076264       0.00950724
Ni      15.22030191      22.12950109      27.16378247       0.60000000       0.41818392       0.00581730       0.00049123       0.00360112
Ni      14.14326564      21.28169679      31.38454205       0.60000000       0.22798137       0.00510317       0.00783302       0.01033424
Ni      14.24963085      22.95506886      33.28036898       0.60000000       0.19511683       0.00363173       0.00847341       0.00603683
Ni      16.01800067      21.25003665      33.14920089       0.60000000       0.06227558      -0.00125149       0.00231373       0.00778069
Ni      16.04876341      23.00443065      31.30049458       0.60000000       0.37568978      -0.00281758       0.00551828       0.00381122
Ni      14.22204440      21.19966306      35.08810456       0.60000000       0.03446671       0.00179976       0.00684795      -0.00556632
Ni      14.17578051      22.92234113      36.93421577       0.60000000       0.02107318       0.00366655       0.01013281      -0.00653344
Ni      15.94675022      21.18627150      36.90758409       0.60000000       0.03537632      -0.00710554       0.00355923      -0.00106835
Ni      16.01654847      22.96523918      35.04882852       0.60000000       0.04754314       0.00228547       0.00525066       0.00454412
Ni      14.09600000      21.14400000      38.76400000       0.60000000       0.01056130       0.18237654       0.06253511      -0.30431665
Ni      14.09600000      22.90600000      40.52600000       0.60000000      -0.00108724      -0.00007046       0.00033484       0.02083388
Ni      15.85800000      21.14400000      40.52600000       0.60000000       0.00084697       0.00001445       0.00037688       0.02705814
Ni      15.85800000      22.90600000      38.76400000       0.60000000       0.01670408       0.21357321       0.05459699      -0.35936535
Ni      14.09600000      24.66800000       0.00000000       0.60000000      -0.00168253      -0.00014793      -0.00016152      -0.01928149
Ni      14.09600000      26.43000000       1.76200000       0.60000000       0.02361746       0.14982967      -0.17749516       0.22246352
Ni      15.85800000      24.66800000       1.76200000       0.60000000       0.00603022       0.08577134      -0.12242499       0.27901190
Ni      15.85800000      26.43000000       0.00000000       0.60000000      -0.00187681       0.00026576       0.00036627      -0.01867726
Ni      14.13922153      24.59311482       3.58958620       0.60000000       0.03230718       0.00121519       0.00096122       0.00058289
Ni      15.93053352      24.56128126       5.44623258       0.60000000       0.04399677       0.00341355       0.00205195      -0.00262569
Ni      15.90784046      26.36711229       3.59034941       0.60000000       0.03518670       0.00061273       0.00329857      -0.00082259
Ni      14.18013969      24.49489670       7.23694757       0.60000000       0.55944655       0.00156132      -0.00527725      -0.00165326
Ni      14.12604918      22.71104578       9.12241011       0.60000000       0.56951116      -0.00358111       0.00276966       0.00470186
Ni      13.99330186      26.24133745      12.27437616       0.60000000       0.68094933       0.00633938      -0.00619640       0.00845458
Ni      15.82246452      22.81027758      11.06552043       0.60000000       0.53197936       0.00158887      -0.00813284       0.00969081
Ni      15.94212525      24.55245197       9.11336587       0.60000000       0.56583480      -0.00638068      -0.00721032       0.00504796
Ni      13.88301738      24.13015718      13.88301738       0.60000000       0.68969068       0.00250556      -0.02919989       0.00250556
Ni      13.94292606      25.91622387      15.73993640       0.60000000       0.34952864       0.00124478       0.00088937       0.00531827
Ni      15.56065111      23.89499769      15.56065111       0.60000000       0.25429894       0.00217949      -0.00907155       0.00217949
Ni      15.73993640      25.91622387      13.94292606       0.60000000       0.34952864       0.00531827       0.00088937       0.00124478
Ni      13.35868502      23.57727866      16.88859614       0.60000000       0.41406355       0.00636183       0.00879635      -0.00494773
Ni      13.34628468      25.33929673      18.64225842       0.60000000       0.40728470      -0.00601295       0.00255998       0.00431642
Ni      15.19957359      23.57424958      18.70313810       0.60000000       0.12885620       0.00895884       0.00618740      -0.00481953
Ni      15.60378858      25.76120065      17.45872145       0.60000000       0.16155022       0.01385124       0.01782709       0.00206582
Ni      13.32810802      23.57666829      20.51881177       0.60000000       0.26253259       0.00374481      -0.00061555       0.00036899
Ni      13.34931919      25.40831638      22.25054354       0.60000000       0.33587053       0.00406980       0.01266530       0.00299092
Cr      15.72097896      24.76820081      22.93641248       0.60000000       0.10000252      -0.00081661       0.00259690       0.00312313
Ni      15.21722711      25.36180125      20.43330411       0.60000000       0.12439181      -0.00123585       0.00290122      -0.00756462
Cr      14.00044544      24.68055713      24.68055713       0.60000000       0.33629306       0.00292295       0.00419472       0.00419472
Cr      14.05473574      26.44285469      26.44285469       0.60000000       0.49348429      -0.00063470       0.00044424       0.00044424
Cr      15.80445286      24.76791392      26.59761393       0.60000000       0.40672368       0.00462168      -0.00113679      -0.00354913
Cr      15.80445286      26.59761393      24.76791392       0.60000000       0.40672368       0.00462168      -0.00354913      -0.00113679
Ni      12.54697682      24.37963489      26.60213206       0.60000000       0.58460452      -0.00325311       0.00183042      -0.00273831
Ni      14.50785968      26.49595152      29.86479904       0.60000000       0.60433798       0.00110585      -0.00056088       0.00132657
Ni      16.68278868      25.40356643      29.06684493       0.60000000       0.53435728       0.00012720       0.00159937       0.00065197
Ni      14.29348835      24.73537918      31.55632831       0.60000000       0.71612786       0.00046430       0.00168414       0.01281299
Ni      14.25332451      26.44900518      33.36851746       0.60000000       0.14168363      -0.01543736      -0.01396568       0.01180087
Ni      16.06998811      24.75198941      33.23183715       0.60000000       0.17445665       0.00949494       0.00526200       0.00591244
Ni      16.69686169      27.17973780      30.97436366       0.60000000       0.38456053       0.00092907      -0.00037310       0.00146095
Ni      14.23074956      24.68269980      35.12360387       0.60000000       0.03020717      -0.02323180      -0.00880839      -0.01508772
Ni      14.16886728      26.42565475      36.95052667       0.60000000       0.01368042      -0.00962584      -0.01056613      -0.00977051
Ni      15.95771774      24.69168119      36.91954931       0.60000000       0.03130566      -0.01012275      -0.00234037      -0.01112754
Ni      16.02502349      26.47469927      35.10663638       0.60000000       0.05118170      -0.00126257       0.00412369      -0.00447128
Ni      14.09600000      24.66800000      38.76400000       0.60000000       0.00875659       0.20008006      -0.00457301      -0.27780354
Ni      14.09600000      26.43000000      40.52600000       0.60000000      -0.00237210      -0.00007868       0.00045348       0.01683817
Ni      15.85800000      24.66800000      40.52600000       0.60000000       0.00017590       0.00002125       0.00042104       0.02481729
Ni      15.85800000      26.43000000      38.76400000       0.60000000       0.01354267       0.23156539      -0.00080424      -0.30821030
Ni      14.09600000      28.19200000       0.00000000       0.60000000       0.01118134       0.00977575      -0.01022369      -0.01638103
Ni      14.09600000      29.95400000       1.76200000       0.60000000       0.49521124       0.11859829      -0.10568510       0.25849864
Ni      15.85800000      28.19200000       1.76200000       0.60000000       0.02345234       0.12216911      -0.09776218       0.21527139
Ni      15.85800000      29.95400000       0.00000000       0.60000000       0.01168022       0.00972374      -0.01062019      -0.01875361
Ni      14.17312554      28.12154709       3.57246038       0.60000000       0.54261981      -0.00146950       0.00126542       0.00162832
Ni      15.91769290      29.91585929       3.58780487       0.60000000       0.61511036      -0.00319137       0.00286456      -0.00120730
Ni      14.20403579      26.30317404       5.39117029       0.60000000       0.55076205       0.00133020       0.00248803       0.00125179
Ni      14.14343542      29.98109191       8.83042168       0.60000000       0.50287023      -0.00296404       0.00110465      -0.00249176
Ni      15.98614502      26.32171986       7.23632948       0.60000000       0.55591134       0.00104633      -0.00163115       0.00199066
Ni      15.99283225      28.12115864       5.40172307       0.60000000       0.64930211      -0.00117012       0.00760238       0.00087214
Ni      14.08646107      28.16958720      10.58885404       0.60000000       0.52321736       0.00216023      -0.00266108       0.00029953
Ni      14.15892026      29.85707512      12.39159563       0.60000000       0.02375750       0.00132260       0.00036910       0.00009637
Ni      15.82849146      27.96740561      12.33794771       0.60000000       0.50651064       0.00808640       0.00875645      -0.00136944
Ni      15.92012894      29.86104610      10.60229246       0.60000000       0.49024176      -0.00665378      -0.00053569      -0.00096155
Ni      14.07945955      27.94675053      14.07945955       0.60000000       0.07126967       0.00696333       0.00631452       0.00696333
Ni      14.13788808      29.67509099      15.92437193       0.60000000       0.04037122      -0.00543316       0.01025577       0.00398080
Ni      15.78213195      27.71885380      15.78213195       0.60000000       0.07229958       0.00982439       0.00744644       0.00982439
Ni      15.92437193      29.67509099      14.13788808       0.60000000       0.04037122       0.00398080       0.01025577      -0.00543316
Ni      13.98374240      27.71579758      17.63791092       0.60000000       0.27408171       0.00145814       0.00929967       0.01157230
Ni      14.06625549      29.54279349      19.49203116       0.60000000       0.10159494      -0.00003401       0.00359861       0.00674302
Ni      15.68930658      27.62192280      19.33904611       0.60000000       0.13696056       0.00505405       0.00763150       0.01006773
Ni      15.85822841      29.52855800      17.67009569       0.60000000       0.04879387      -0.00202504       0.00510662       0.00440306
Ni      13.39293451      27.16707730      20.28866981       0.60000000       0.27175882       0.00421779      -0.00105562      -0.00030504
Ni      13.37069322      29.04886416      21.85656684       0.60000000       0.66990716      -0.00369771       0.00662991      -0.00675486
Ni      15.22030191      27.16378247      22.12950109       0.60000000       0.41818392       0.00581730       0.00360112       0.00049123
Ni      15.85713050      29.46285216      21.24171224       0.60000000       0.25304911       0.00212182       0.00950724       0.00076264
Ni      12.54697682      26.60213206      24.37963489       0.60000000       0.58460452      -0.00325311      -0.00273831       0.00183042
Ni      14.50785968      29.86479904      26.49595152       0.60000000       0.60433798       0.00110585       0.00132657      -0.00056088
Ni      16.68278868      29.06684493      25.40356643       0.60000000       0.53435728       0.00012720       0.00065197       0.00159937
Cr      14.33481226      28.18856805      28.18856805       0.60000000       0.35358169      -0.00159233       0.00102569       0.00102569
Ni      14.37964003      29.94105792      29.94105792       0.60000000       0.30503811       0.00155078      -0.00035951      -0.00035951
Ni      14.30535448      28.18829772      31.61902191       0.60000000       0.29422514       0.00588665      -0.00360422       0.00314342
Ni      14.20166233      29.92722750      33.41452151       0.60000000       0.12560894       0.00313812       0.00526698      -0.00104619
Ni      16.05527058      28.25816867      33.30506545       0.60000000       0.28755975       0.00409813       0.00913935      -0.00553211
Ni      14.20156932      28.17776049      35.16874842       0.60000000       0.02115023      -0.00127265      -0.00524669      -0.00037065
Ni      14.14066463      29.93129732      36.97015748       0.60000000       0.00480683       0.00088627       0.00083201       0.00067898
Ni      15.94490077      28.19561395      36.94793035       0.60000000       0.02272887       0.00498502       0.00498738       0.00099025
Ni      15.97316161      29.94412641      35.17019477       0.60000000       0.05259190       0.00254862       0.00397928       0.00110809
Ni      14.09600000      28.19200000      38.76400000       0.60000000       0.00296951       0.16576476      -0.05824836      -0.21438622
Ni      14.09600000      29.95400000      40.52600000       0.60000000       0.00131742       0.00374514      -0.00339298       0.00425762
Ni      15.85800000      28.19200000      40.52600000       0.60000000      -0.00190356      -0.00007466       0.00066111       0.01809974
Ni      15.85800000      29.95400000      38.76400000       0.60000000       0.00532073       0.19140277      -0.05472054      -0.22319947
Ni      14.09600000      31.71600000       0.00000000       0.60000000       0.30012798      -0.09148506       0.09108083       0.05102502
Ni      15.85800000      31.71600000       1.76200000       0.60000000       0.49313794       0.11603156      -0.09254229       0.26322981
Ni      15.85800000      33.47800000       0.00000000       0.60000000       0.30004266      -0.09279525       0.09076319       0.04985637
Ni      14.17242685      33.51663378       5.27250365       0.60000000       0.47525409      -0.00030048      -0.00074138       0.00236822
Ni      14.19739367      31.73649551       7.03322837       0.60000000       0.38513499      -0.00945122      -0.00419832       0.00480503
Ni      14.20815998      33.43199293       8.85287930       0.60000000       0.01022239       0.00002250      -0.00272636      -0.00011393
Ni      15.97716268      31.65636132       8.78939595       0.60000000       0.23878857      -0.00472039      -0.00432821      -0.00000954
Ni      15.97674152      33.46976933       7.05271482       0.60000000       0.22544563      -0.00919737      -0.00529169      -0.00110094
Ni      14.19878175      31.66473853      10.63235761       0.60000000       0.01971436       0.00314757       0.00474797      -0.00345919
Ni      14.22067973      33.36965269      12.43621985       0.60000000       0.00838497      -0.00249356      -0.00681162      -0.00253490
Ni      15.98271654      31.54672495      12.41430126       0.60000000       0.02808366       0.00052319       0.00147900       0.00316506
Ni      15.99680708      33.35583973      10.63519243       0.60000000       0.00928654       0.00512443       0.00704054      -0.00547916
Ni      14.20132510      31.55411574      14.20132510       0.60000000       0.01546162       0.00388482      -0.00226918       0.00388482
Ni      14.21535251      33.29154906      15.98930784       0.60000000       0.02034130       0.00166296       0.00350678       0.00367321
Ni      15.96078164      31.42461410      15.96078164       0.60000000       0.02724382       0.00246794       0.00117446       0.00246794
Ni      15.98930784      33.29154906      14.21535251       0.60000000       0.02034130       0.00367321       0.00350678       0.00166296
Ni      14.17004916      31.42376555      17.75048073       0.60000000       0.03184118      -0.00339461       0.00064095      -0.00614864
Ni      14.21057500      33.22246760      19.49818838       0.60000000       0.03494715       0.01167203      -0.00029795      -0.00360193
Ni      15.93994383      31.31908158      19.51381563       0.60000000       0.04576123      -0.00067122       0.00806914       0.00138842
Ni      15.98811244      33.19983913      17.75481060       0.60000000       0.03267407      -0.00454444       0.00464409       0.00106795
Ni      14.14326564      31.38454205      21.28169679       0.60000000       0.22798137       0.00510317       0.01033424       0.00783302
Ni      14.24963085      33.28036898      22.95506886       0.60000000       0.19511683       0.00363173       0.00603683       0.00847341
Ni      16.04876341      31.30049458      23.00443065       0.60000000       0.37568978      -0.00281758       0.00381122       0.00551828
Ni      16.01800067      33.14920089      21.25003665       0.60000000       0.06227558      -0.00125149       0.00778069       0.00231373
Ni      14.29348835      31.55632831      24.73537918       0.60000000       0.71612786       0.00046430       0.01281299       0.00168414
Ni      14.25332451      33.36851746      26.44900518       0.60000000       0.14168363      -0.01543736       0.01180087      -0.01396568
Ni      16.69686169      30.97436366      27.17973780       0.60000000       0.38456053       0.00092907       0.00146095      -0.00037310
Ni      16.06998811      33.23183715      24.75198941       0.60000000       0.17445665       0.00949494       0.00591244       0.00526200
Ni      14.30535448      31.61902191      28.18829772       0.60000000       0.29422514       0.00588665       0.00314342      -0.00360422
Ni      14.20166233      33.41452151      29.92722750       0.60000000       0.12560894       0.00313812      -0.00104619       0.00526698
Ni      16.05527058      33.30506545      28.25816867       0.60000000       0.28755975       0.00409813      -0.00553211       0.00913935
Ni      14.20992946      31.67037933      31.67037933       0.60000000       0.16986952      -0.00214177      -0.00084849      -0.00084849
Ni      14.14939962      33.43902487      33.43902487       0.60000000       0.01081505      -0.00082751      -0.00105798      -0.00105798
Ni      15.96292777      31.68938842      33.41042076       0.60000000       0.20935282      -0.00028114       0.00076881      -0.00101851
Ni      15.96292777      33.41042076      31.68938842       0.60000000       0.20935282      -0.00028114      -0.00101851       0.00076881
Ni      14.15666084      31.68205313      35.19860942       0.60000000       0.00438878       0.00022376       0.00143326       0.00044144
Ni      14.12527256      33.45770384      36.97897036       0.60000000      -0.00252050       0.00040350      -0.00029837       0.00065911
Ni      15.90020933      31.69329024      36.97188777       0.60000000       0.01071936       0.00164379       0.00172622       0.00138626
Ni      15.92083212      33.44047985      35.18542661       0.60000000       0.03784021      -0.00030803      -0.00022469       0.00050413
Ni      14.09600000      31.71600000      38.76400000       0.60000000      -0.00259269       0.09839370      -0.06497056      -0.14751611
Ni      14.09600000      33.47800000      40.52600000       0.60000000       0.04252027      -0.00486742       0.00467356      -0.08283020
Ni      15.85800000      31.71600000      40.52600000       0.60000000       0.00129166       0.00381864      -0.00321229       0.00369870
Ni      15.85800000      33.47800000      38.76400000       0.60000000      -0.00146746       0.08009586      -0.05819494      -0.13113159
Ni      14.09600000      35.24000000       0.00000000       0.60000000       0.65416909      -0.01079442       0.00028789       0.45090045
Ni      15.85800000      37.00200000       0.00000000       0.60000000       0.49042322      -0.02174354       0.01753150       0.42148505
Ni      13.50866667      34.06533333       2.93666667       0.60000000       0.81885134      -0.03561484       0.15729994      -0.19275646
Ni      13.58353972      35.89714757       4.75231187       0.60000000       0.23026224      -0.00403393      -0.00229773       0.00113372
Ni      15.94800736      35.27710729       5.25561094       0.60000000       0.48289936      -0.00045790      -0.00142314      -0.00334607
Ni      15.27066667      35.82733333       2.93666667       0.60000000       0.81547727      -0.03360363       0.32100971      -0.21343737
Ni      14.19617758      35.21675127       7.07838814       0.60000000       0.15375504      -0.00158466       0.00368608       0.00096856
Ni      14.15857422      36.95969775       8.84818389       0.60000000       0.16304108       0.00294255      -0.00315452       0.00187625
Ni      15.95179647      35.17801827       8.87664576       0.60000000       0.01434410       0.00030589      -0.00097343      -0.00060694
Ni      15.89015450      36.99191449       7.05681593       0.60000000       0.17651870       0.00140846      -0.00413500       0.00125320
Ni      14.20267522      35.16206216      10.65419180       0.60000000       0.01039508       0.00222409      -0.00419438      -0.00035063
Ni      14.15891352      36.95019484      12.39613287       0.60000000       0.01177224      -0.00287292      -0.00098571      -0.00327554
Ni      15.96682403      35.12810046      12.42767508       0.60000000       0.01413904       0.00199758       0.00390246      -0.00273296
Ni      15.90840277      36.95931172      10.62788058       0.60000000       0.01003270       0.00156258      -0.00235412       0.00076808
Ni      14.20436617      35.12757922      14.20436617       0.60000000       0.01547821      -0.00253996       0.00271793      -0.00253996
Ni      14.16325219      36.93291780      15.92368185       0.60000000       0.01885874      -0.00157499       0.00027843       0.00103113
Ni      15.97498583      35.07762129      15.97498583       0.60000000       0.02875358       0.00329464       0.00776990       0.00329464
Ni      15.92368185      36.93291780      14.16325219       0.60000000       0.01885874       0.00103113       0.00027843      -0.00157499
Ni      14.20664381      35.08613985      17.72774027       0.60000000       0.02665212       0.01608657       0.00860617      -0.01844414
Ni      14.16973011      36.92802516      19.42838795       0.60000000       0.02332715      -0.00079248       0.00457264       0.00247614
Ni      15.99083928      35.03226926      19.48167828       0.60000000       0.04447549      -0.00650292       0.00297343       0.00626379
Ni      15.93331968      36.91179376      17.68548133       0.60000000       0.03131870      -0.00783661      -0.00194713       0.00640311
Ni      14.22204440      35.08810456      21.19966306       0.60000000       0.03446671       0.00179976      -0.00556632       0.00684795
Ni      14.17578051      36.93421577      22.92234113       0.60000000       0.02107318       0.00366655      -0.00653344       0.01013281
Ni      16.01654847      35.04882852      22.96523918       0.60000000       0.04754314       0.00228547       0.00454412       0.00525066
Ni      15.94675022      36.90758409      21.18627150       0.60000000       0.03537632      -0.00710554      -0.00106835       0.00355923
Ni      14.23074956      35.12360387      24.68269980       0.60000000       0.03020717      -0.02323180      -0.01508772      -0.00880839
Ni      14.16886728      36.95052667      26.42565475       0.60000000       0.01368042      -0.00962584      -0.00977051      -0.01056613
Ni      16.02502349      35.10663638      26.47469927       0.60000000       0.05118170      -0.00126257      -0.00447128       0.00412369
Ni      15.95771774      36.91954931      24.69168119       0.60000000       0.03130566      -0.01012275      -0.01112754      -0.00234037
Ni      14.20156932      35.16874842      28.17776049       0.60000000       0.02115023      -0.00127265      -0.00037065      -0.00524669
Ni      14.14066463      36.97015748      29.93129732       0.60000000       0.00480683       0.00088627       0.00067898       0.00083201
Ni      15.97316161      35.17019477      29.94412641       0.60000000       0.05259190       0.00254862       0.00110809       0.00397928
Ni      15.94490077      36.94793035      28.19561395       0.60000000       0.02272887       0.00498502       0.00099025       0.00498738
Ni      14.15666084      35.19860942      31.68205313       0.60000000       0.00438878       0.00022376       0.00044144       0.00143326
Ni      14.12527256      36.97897036      33.45770384       0.60000000      -0.00252050       0.00040350       0.00065911      -0.00029837
Ni      15.92083212      35.18542661      33.44047985       0.60000000       0.03784021      -0.00030803       0.00050413      -0.00022469
Ni      15.90020933      36.97188777      31.69329024       0.60000000       0.01071936       0.00164379       0.00138626       0.00172622
Ni      14.12958843      35.21062333      35.21062333       0.60000000       0.00213501      -0.00034002       0.00015281       0.00015281
Ni      14.10934019      36.98812383      36.98812383       0.60000000      -0.00500797       0.00086109       0.00040071       0.00040071
Ni      15.88715541      35.21702798      36.97358171       0.60000000       0.00276454      -0.00040053      -0.00015042       0.00020454
Ni      15.88715541      36.97358171      35.21702798       0.60000000       0.00276454      -0.00040053       0.00020454      -0.00015042
Ni      14.09600000      35.24000000      38.76400000       0.60000000       0.00079742       0.07976394      -0.06058623      -0.13162070
Ni      14.09600000      37.00200000      40.52600000       0.60000000       0.26374168      -0.23786823       0.23227933       0.14567863
Ni      15.85800000      35.24000000      40.52600000       0.60000000       0.04195605      -0.00467393      -0.00895735      -0.09563721
Ni      15.85800000      37.00200000      38.76400000       0.60000000      -0.00044967       0.05227884      -0.07263320      -0.12247534
Ni      13.50866667      39.35133333       1.17466667       0.60000000       0.77646460       0.18713713       0.49478321      -0.58519574
Ni      15.85800000      38.76400000       1.76200000       0.60000000       1.00192668      -3.40861073       2.70816968      -2.66964439
Ni      15.85800000      40.52600000       0.00000000       0.60000000       0.22086419      -0.28417611      -0.17007489       0.16719302
Ni      13.50866667      37.58933333       2.93666667       0.60000000       0.53421285       0.54976719       0.13080731      -0.15612864
Ni      14.09600000      40.52600000       5.28600000       0.60000000       0.51094500       0.08263952      -0.43531536      -0.10921071
Ni      15.26433090      37.87590525       4.74573247       0.60000000       0.47824838       0.00448777      -0.00697437       0.00743675
Ni      15.85800000      40.52600000       3.52400000       0.60000000       0.45121294      -0.02006201      -0.52569756       0.04092290
Ni      14.09082658      38.67721789       6.97135531       0.60000000       0.43199520       0.01072698       0.00694014       0.00712293
Ni      14.09600000      40.52600000       8.81000000       0.60000000       0.01702448      -0.11117166      -0.27445151      -0.17210016
Ni      15.85800000      38.76400000       8.81000000       0.60000000       0.02996164      -0.03144667      -0.12927740       0.09110087
Ni      15.85800000      40.52600000       7.04800000       0.60000000       0.12452905      -0.14477213      -0.25180026      -0.12233026
Ni      14.09600000      38.76400000      10.57200000       0.60000000       0.01656211       0.08534205      -0.21411887       0.09086427
Ni      14.09600000      40.52600000      12.33400000       0.60000000      -0.00139359       0.00281059       0.01768391       0.00241630
Ni      15.85800000      38.76400000      12.33400000       0.60000000       0.00653731       0.13817920      -0.22596149       0.16388781
Ni      15.85800000      40.52600000      10.57200000       0.60000000      -0.00217241       0.00343758       0.01484322       0.00265137
Ni      14.09600000      38.76400000      14.09600000       0.60000000       0.00797141       0.15829657      -0.25449462       0.15829657
Ni      14.09600000      40.52600000      15.85800000       0.60000000      -0.00117554       0.00005546       0.02089265       0.00031028
Ni      15.85800000      38.76400000      15.85800000       0.60000000       0.01276638       0.15601859      -0.32006841       0.15601859
Ni      15.85800000      40.52600000      14.09600000       0.60000000      -0.00117554       0.00031028       0.02089265       0.00005546
Ni      14.09600000      38.76400000      17.62000000       0.60000000       0.01088140       0.17010598      -0.29312694       0.12655613
Ni      14.09600000      40.52600000      19.38200000       0.60000000      -0.00073032      -0.00004681       0.02218091       0.00035922
Ni      15.85800000      38.76400000      19.38200000       0.60000000       0.01629080       0.18194555      -0.35553346       0.11107211
Ni      15.85800000      40.52600000      17.62000000       0.60000000       0.00043988       0.00010906       0.02596050       0.00032819
Ni      14.09600000      38.76400000      21.14400000       0.60000000       0.01056130       0.18237654      -0.30431665       0.06253511
Ni      14.09600000      40.52600000      22.90600000       0.60000000      -0.00108724      -0.00007046       0.02083388       0.00033484
Ni      15.85800000      38.76400000      22.90600000       0.60000000       0.01670408       0.21357321      -0.35936535       0.05459699
Ni      15.85800000      40.52600000      21.14400000       0.60000000       0.00084697       0.00001445       0.02705814       0.00037688
Ni      14.09600000      38.76400000      24.66800000       0.60000000       0.00875659       0.20008006      -0.27780354      -0.00457301
Ni      14.09600000      40.52600000      26.43000000       0.60000000      -0.00237210      -0.00007868       0.01683817       0.00045348
Ni      15.85800000      38.76400000      26.43000000       0.60000000       0.01354267       0.23156539      -0.30821030      -0.00080424
Ni      15.85800000      40.52600000      24.66800000       0.60000000       0.00017590       0.00002125       0.02481729       0.00042104
Ni      14.09600000      38.76400000      28.19200000       0.60000000       0.00296951       0.16576476      -0.21438622      -0.05824836
Ni      14.09600000      40.52600000      29.95400000       0.60000000       0.00131742       0.00374514       0.00425762      -0.00339298
Ni      15.85800000      38.76400000      29.95400000       0.60000000       0.00532073       0.19140277      -0.22319947      -0.05472054
Ni      15.85800000      40.52600000      28.19200000       0.60000000      -0.00190356      -0.00007466       0.01809974       0.00066111
Ni      14.09600000      38.76400000      31.71600000       0.60000000      -0.00259269       0.09839370      -0.14751611      -0.06497056
Ni      14.09600000      40.52600000      33.47800000       0.60000000       0.04252027      -0.00486742      -0.08283020       0.00467356
Ni      15.85800000      38.76400000      33.47800000       0.60000000      -0.00146746       0.08009586      -0.13113159      -0.05819494
Ni      15.85800000      40.52600000      31.71600000       0.60000000       0.00129166       0.00381864       0.00369870      -0.00321229
Ni      14.09600000      38.76400000      35.24000000       0.60000000       0.00079742       0.07976394      -0.13162070      -0.06058623
Ni      14.09600000      40.52600000      37.00200000       0.60000000       0.26374168      -0.23786823       0.14567863       0.23227933
Ni      15.85800000      38.76400000      37.00200000       0.60000000      -0.00044967       0.05227884      -0.12247534      -0.07263320
Ni      15.85800000      40.52600000      35.24000000       0.60000000       0.04195605      -0.00467393      -0.09563721      -0.00895735
Ni      14.09600000      38.76400000      38.76400000       0.60000000       0.03373735      -0.21109327      -0.02444207      -0.02444207
Ni      14.09600000      40.52600000      40.52600000       0.60000000       0.32589788      -0.83748793      -0.00193194      -0.00193194
Ni      15.85800000      38.76400000      40.52600000       0.60000000       0.13745961      -0.10412564       0.00353408       0.09668748
Ni      15.85800000      40.52600000      38.76400000       0.60000000       0.13745961      -0.10412564       0.09668748       0.00353408
Ni      17.62000000       0.00000000       0.00000000       0.60000000       0.00259071       0.01755897      -0.00144708      -0.00144708
Ni      17.62000000       1.76200000       1.76200000       0.60000000      -0.00585659       0.00162945       0.03721928       0.03721937
Ni      19.38200000       0.00000000       1.76200000       0.60000000       0.00020805      -0.00471797       0.00542224      -0.00965928
Ni      19.38200000       1.76200000       0.00000000       0.60000000       0.00020806      -0.00471797      -0.00965929       0.00542224
Ni      17.62000000       0.00000000       3.52400000       0.60000000       0.02859250       0.00340611       0.10422694       0.00083601
Ni      17.62000000       1.76200000       5.28600000       0.60000000      -0.00277586       0.09474061       0.17649273       0.05644751
Ni      19.38200000       0.00000000       5.28600000       0.60000000       0.00576898      -0.00378563      -0.00692137       0.01044512
Ni      19.38200000       1.76200000       3.52400000       0.60000000       0.02968988      -0.22859455      -0.01101538       0.10172765
Ni      17.62000000       0.00000000       7.04800000       0.60000000       0.00044709       0.00573719      -0.00111483       0.00447071
Ni      17.62000000       1.76200000       8.81000000       0.60000000       0.00139373      -0.00389583       0.08720217       0.02891406
Ni      19.38200000       0.00000000       8.81000000       0.60000000      -0.00585416      -0.00064748      -0.00460710       0.00048818
Ni      19.38200000       1.76200000       7.04800000       0.60000000       0.02260456       0.05818957       0.06453769      -0.04275195
Ni      17.62000000       0.00000000      10.57200000       0.60000000      -0.00489862       0.00055588      -0.00876393      -0.00037512
Ni      17.62000000       1.76200000      12.33400000       0.60000000      -0.00020217       0.00964354       0.16423167       0.10279096
Ni      19.38200000       0.00000000      12.33400000       0.60000000      -0.00408579      -0.00035952      -0.01138102      -0.00011856
Ni      19.38200000       1.76200000      10.57200000       0.60000000      -0.00046749      -0.03331371       0.08372803       0.09680099
Ni      17.62000000       0.00000000      14.09600000       0.60000000      -0.00287556       0.00013494      -0.01560254      -0.00016365
Ni      17.62000000       1.76200000      15.85800000       0.60000000       0.00306398       0.04476746       0.23496982       0.08802155
Ni      19.38200000       0.00000000      15.85800000       0.60000000      -0.00180745      -0.00018738      -0.01912115      -0.00001381
Ni      19.38200000       1.76200000      14.09600000       0.60000000       0.00281179      -0.00934899       0.19115762       0.13221726
Ni      17.62000000       0.00000000      17.62000000       0.60000000      -0.00161748      -0.00002716      -0.01965814      -0.00002716
Ni      17.62000000       1.76200000      19.38200000       0.60000000       0.00516842       0.06702493       0.27440581       0.02324103
Ni      19.38200000       0.00000000      19.38200000       0.60000000      -0.00062321      -0.00008844      -0.02299004      -0.00008844
Ni      19.38200000       1.76200000      17.62000000       0.60000000       0.00516842       0.02324102       0.27440579       0.06702495
Ni      17.62000000       0.00000000      21.14400000       0.60000000      -0.00076577      -0.00001532      -0.02253150      -0.00020556
Ni      17.62000000       1.76200000      22.90600000       0.60000000       0.00617033       0.05882832       0.29525119      -0.07277495
Ni      19.38200000       0.00000000      22.90600000       0.60000000      -0.00060097       0.00008090      -0.02304460      -0.00005400
Ni      19.38200000       1.76200000      21.14400000       0.60000000       0.00602889       0.02371674       0.31172557      -0.02010402
Ni      17.62000000       0.00000000      24.66800000       0.60000000      -0.00112258       0.00024218      -0.02139497      -0.00007951
Ni      17.62000000       1.76200000      26.43000000       0.60000000       0.00600381       0.06108477       0.22424433      -0.14267699
Ni      19.38200000       0.00000000      26.43000000       0.60000000      -0.00222207       0.00013758      -0.01777706       0.00033699
Ni      19.38200000       1.76200000      24.66800000       0.60000000       0.00553286       0.02126235       0.27502723      -0.10093799
Ni      17.62000000       0.00000000      28.19200000       0.60000000      -0.00321829       0.00052893      -0.01338992       0.00021767
Ni      17.62000000       1.76200000      29.95400000       0.60000000       0.03897833       0.01502854       0.18060306       0.00612576
Ni      19.38200000       0.00000000      29.95400000       0.60000000      -0.00388877       0.00051389      -0.01087012      -0.00033670
Ni      19.38200000       1.76200000      28.19200000       0.60000000       0.00630510       0.02404026       0.17412997      -0.11625193
Ni      17.62000000       0.00000000      31.71600000       0.60000000       0.01265453       0.01029053      -0.02428696      -0.01090418
Ni      17.62000000       1.76200000      33.47800000       0.60000000       0.48282227       0.02327221       0.22136334      -0.09813208
Ni      19.38200000       0.00000000      33.47800000       0.60000000       0.00886410       0.01183329      -0.02159499      -0.01788572
Ni      19.38200000       1.76200000      31.71600000       0.60000000       0.04037887      -0.09975382       0.13788336      -0.04947425
Ni      17.62000000       0.00000000      35.24000000       0.60000000       0.28781306      -0.08263217       0.07174472       0.10863068
Ni      19.38200000       0.00000000      37.00200000       0.60000000       0.13021908      -0.08348936       0.08565517       0.01152538
Ni      19.38200000       1.76200000      35.24000000       0.60000000       0.28877521      -0.03750608       0.17700337       0.02208285
Ni      17.62000000       0.00000000      38.76400000       0.60000000       0.14415963       0.08302173       0.11641926      -0.13679715
Ni      17.62000000       1.76200000      40.52600000       0.60000000       0.14288913       0.08296669       0.14017574      -0.12017389
Ni      19.38200000       0.00000000      40.52600000       0.60000000      -0.00071502       0.00854501      -0.01310428       0.01309066
Ni      19.38200000       1.76200000      38.76400000       0.60000000       0.17929159      -0.35991594       0.20669301      -0.19736475
Ni      17.62000000       3.52400000       0.00000000       0.60000000       0.02859252       0.00340603       0.00083595       0.10422690
Ni      17.62000000       5.28600000       1.76200000       0.60000000      -0.00277558       0.09474770       0.05644753       0.17649803
Ni      19.38200000       3.52400000       1.76200000       0.60000000       0.02968991      -0.22859340       0.10173551      -0.01100716
Ni      19.38200000       5.28600000       0.00000000       0.60000000       0.00576926      -0.00378557       0.01044519      -0.00692241
Ni      17.62851670       3.53758453       3.53758406       0.60000000      -0.00511885      -0.00080783       0.00290662       0.00290622
Ni      17.61237292       5.31156051       5.31155994       0.60000000       0.16301418      -0.00054235      -0.00361755      -0.00361818
Ni      19.41319571       3.58064943       5.30149712       0.60000000       0.11153122       0.00188535      -0.00354803      -0.00238068
Ni      19.41319771       5.30149887       3.58065465       0.60000000       0.11153450       0.00188677      -0.00237919      -0.00354290
Ni      17.64635275       3.56057660       7.05654465       0.60000000       0.10913513      -0.00090536      -0.00266109      -0.00310056
Ni      17.71439338       5.36482946       8.82065363       0.60000000       0.22340862       0.00741677      -0.00507407      -0.00009023
Ni      19.37965679       3.53057549       8.81429529       0.60000000       0.15356625      -0.00307434      -0.00364046       0.00013463
Ni      17.63563774       3.55123581      10.59462929       0.60000000       0.00886487      -0.00420188      -0.00022977       0.00003432
Ni      17.64271392       5.38299601      12.38875698       0.60000000       0.03584765      -0.00099389       0.00276867      -0.00000230
Ni      19.37204066       3.55966700      12.37808703       0.60000000       0.00762208      -0.00228537      -0.00058546      -0.00448570
Ni      19.35362028       5.34979664      10.63284965       0.60000000       0.18144825      -0.00061241       0.00416300      -0.00107944
Ni      17.63154191       3.57798424      14.13614079       0.60000000       0.00735563       0.00144995      -0.00027737      -0.00134249
Ni      17.64921560       5.43955190      15.92103062       0.60000000       0.02662159       0.00065509      -0.00106050      -0.00146086
Ni      19.38259390       3.59131168      15.89517539       0.60000000       0.01323178      -0.00092041      -0.00308265      -0.00013358
Ni      19.36227979       5.42316720      14.16788084       0.60000000       0.02415823       0.00044903       0.00405452      -0.00323067
Ni      17.64244972       3.59333863      17.64244973       0.60000000       0.01433030       0.00093903       0.00070369       0.00093903
Ni      17.66155943       5.48200553      19.38615836       0.60000000       0.03415187      -0.00224480      -0.00094701       0.00047626
Ni      19.39020432       3.60764773      19.39020432       0.60000000       0.01811059      -0.00086466       0.00110662      -0.00086466
Ni      19.38615836       5.48200553      17.66155943       0.60000000       0.03415186       0.00047626      -0.00094701      -0.00224481
Ni      17.64629487       3.60558793      21.12959047       0.60000000       0.01794872      -0.00004208       0.00084102      -0.00015939
Ni      17.67062727       5.48200870      22.84417025       0.60000000       0.03261218       0.00181202      -0.00107784       0.00126227
Ni      19.39392161       3.60713953      22.87896793       0.60000000       0.01873784      -0.00016026      -0.00112736       0.00130791
Ni      19.39865548       5.49661676      21.12374408       0.60000000       0.03735953       0.00221433       0.00143227       0.00110566
Ni      17.64905720       3.60002034      24.61937643       0.60000000       0.01739675       0.00149337       0.00039667       0.00371017
Ni      17.68585767       5.44328448      26.33968509       0.60000000       0.07076712      -0.00016464       0.00144356       0.00582864
Ni      19.39070940       3.58610258      26.38403144       0.60000000       0.01746266       0.00188849       0.00198466       0.00215300
Ni      19.41190210       5.46946891      24.60426946       0.60000000       0.03113070      -0.00044870       0.00545321       0.00219494
Ni      17.64729523       3.56709151      28.14326305       0.60000000       0.16854593      -0.00224217       0.00067825       0.00390888
Ni      19.37707481       3.55636545      29.92647768       0.60000000       0.31270370      -0.00325872      -0.00380182       0.00321468
Ni      19.38515285       5.39748322      28.13219935       0.60000000       0.33070065       0.00318080       0.00003269       0.00089076
Ni      17.63700772       3.62185778      31.69561096       0.60000000       0.68552087      -0.00270580       0.00279379       0.00265659
Ni      19.38152310       3.56372277      33.45628075       0.60000000       0.56738299      -0.00402757       0.00011078      -0.00111149
Ni      17.62044371       5.28442068      37.05066665       0.60000000       0.34445588      -0.00007294      -0.00319133      -0.00321660
Ni      19.38724280       3.52943686      36.98780563       0.60000000       0.30797518       0.00328139       0.00081083       0.00105397
Ni      19.33373004       5.30820685      35.20809350       0.60000000       0.46534774       0.00525313      -0.00234960       0.00056847
Ni      17.03266667       2.93666667      37.58933333       0.60000000       1.12491792       3.20094569       2.62298790      -2.58177471
Ni      17.62000000       5.28600000      40.52600000       0.60000000       0.23955392      -0.13520813      -0.11677852      -0.24249510
Ni      19.38200000       3.52400000      40.52600000       0.60000000       0.12588456      -0.09273841      -0.00791566      -0.09692585
Ni      19.38200000       5.28600000      38.76400000       0.60000000       0.14235664       0.06506414      -0.11315912       0.01053346
Ni      17.62000000       7.04800000       0.00000000       0.60000000       0.00044704       0.00573709       0.00447079      -0.00111460
Ni      17.62000000       8.81000000       1.76200000       0.60000000       0.00139372      -0.00389772       0.02891739       0.08719919
Ni      19.38200000       7.04800000       1.76200000       0.60000000       0.02260508       0.05818821      -0.04275568       0.06454003
Ni      19.38200000       8.81000000       0.00000000       0.60000000      -0.00585420      -0.00064747       0.00048815      -0.00460694
Ni      17.64635105       7.05654519       3.56057503       0.60000000       0.10913938      -0.00090694      -0.00309983      -0.00266250
Ni      17.71439051       8.82065583       5.36482811       0.60000000       0.22341284       0.00741387      -0.00008772      -0.00507576
Ni      19.37965633       8.81429628       3.53057515       0.60000000       0.15356917      -0.00307467       0.00013551      -0.00364086
Ni      17.78060946       7.07938886       7.07938745       0.60000000       0.32173168      -0.01588991       0.00026624       0.00026413
Ni      18.28899563       8.78173816       8.78173837       0.60000000       0.47266469      -0.00168419       0.03009146       0.03009181
Ni      17.70821078       7.24033311      10.58527168       0.60000000       0.32933202      -0.00478720       0.00508161       0.00304074
Ni      19.31446745       7.26338600      12.40349710       0.60000000       0.19880608       0.00073725       0.00069160      -0.00797687
Ni      17.63653718       7.24939624      14.17815291       0.60000000       0.17543070       0.00188649       0.00063798       0.00200986
Ni      17.64754387       9.26211509      15.94072151       0.60000000       0.22581953       0.00066764       0.00698029      -0.00122527
Ni      19.35229399       7.36069648      15.92385311       0.60000000       0.05143007       0.00389138       0.00038955      -0.00105431
Ni      17.66787941       7.37260664      17.66787940       0.60000000       0.05264515      -0.00183293      -0.00337800      -0.00183295
Ni      17.66988820       9.33778075      19.37516942       0.60000000       0.09676942       0.00081885       0.00334120      -0.00039042
Ni      19.39683182       7.41176562      19.39683181       0.60000000       0.05690154      -0.00138433      -0.00284954      -0.00138433
Ni      19.37516942       9.33778075      17.66988818       0.60000000       0.09676942      -0.00039041       0.00334120       0.00081882
Ni      17.66848007       7.39842359      21.09455940       0.60000000       0.04670551      -0.00141835      -0.00542473       0.00242774
Ni      19.41319529       7.39500236      22.84995577       0.60000000       0.04596634       0.00097758       0.00524169       0.00141624
Ni      19.40529254       9.34390895      21.11873292       0.60000000       0.08456421      -0.00278730      -0.00136390       0.00062348
Ni      17.70025464       7.33410408      24.57921120       0.60000000       0.05439861      -0.00033153       0.00441670       0.00082206
Ni      19.43759756       7.31895117      26.37790855       0.60000000       0.09434099      -0.00043972       0.00018829      -0.00060260
Ni      17.76016820       7.27455958      28.16988266       0.60000000       0.74506954       0.00632960      -0.00423269       0.00449943
Ni      16.62773871       6.29640217      31.22028324       0.60000000       0.95315018      -0.03001974       0.00206260      -0.02225018
Ni      17.76553342       8.82921110      33.37082636       0.60000000       0.16029880      -0.00713042      -0.01396566      -0.01030142
Ni      18.37345715       6.41823465      33.01079557       0.60000000       0.85260161      -0.04886583      -0.05649834      -0.00293221
Ni      18.28855249       8.17003399      31.01214574       0.60000000       0.85719026      -0.01109974      -0.01299040      -0.00406728
Ni      17.65760359       7.10043558      35.25906556       0.60000000       0.20733585      -0.00524773      -0.01084384      -0.00364719
Ni      17.64658230       8.85830156      36.98931719       0.60000000       0.01092074      -0.00817298      -0.01252290      -0.00730853
Ni      19.39466305       7.06863336      37.00331318       0.60000000       0.03372774      -0.00633430      -0.01286119      -0.00900972
Ni      19.40884017       8.85608411      35.19807712       0.60000000       0.14836024      -0.00381446      -0.00170075      -0.00370288
Ni      17.62000000       7.04800000      38.76400000       0.60000000       0.13146725      -0.10494059       0.10089714      -0.02268404
Ni      17.62000000       8.81000000      40.52600000       0.60000000      -0.00120812       0.00672745       0.00921784       0.01049165
Ni      19.38200000       7.04800000      40.52600000       0.60000000       0.00065603       0.01310308       0.01371670       0.01089333
Ni      19.38200000       8.81000000      38.76400000       0.60000000      -0.00144931       0.06627114       0.13866545      -0.09278630
Ni      17.62000000      10.57200000       0.00000000       0.60000000      -0.00489865       0.00055588      -0.00037512      -0.00876383
Ni      17.62000000      12.33400000       1.76200000       0.60000000      -0.00020216       0.00964338       0.10279219       0.16423061
Ni      19.38200000      10.57200000       1.76200000       0.60000000      -0.00046750      -0.03331328       0.09680283       0.08372697
Ni      19.38200000      12.33400000       0.00000000       0.60000000      -0.00408579      -0.00035953      -0.00011857      -0.01138101
Ni      17.63563728      10.59462986       3.55123551       0.60000000       0.00886485      -0.00420223       0.00003495      -0.00023016
Ni      17.64271372      12.38875711       5.38299602       0.60000000       0.03584759      -0.00099401      -0.00000231       0.00276870
Ni      19.35361984      10.63284994       5.34979670       0.60000000       0.18144870      -0.00061256      -0.00107942       0.00416311
Ni      19.37204068      12.37808702       3.55966701       0.60000000       0.00762202      -0.00228531      -0.00448574      -0.00058541
Ni      17.70821044      10.58527178       7.24033334       0.60000000       0.32933204      -0.00478752       0.00304073       0.00508187
Ni      19.31446727      12.40349717       7.26338605       0.60000000       0.19880608       0.00073709      -0.00797690       0.00069166
Ni      16.33162660       9.69965739       9.69965724       0.60000000       0.52539201      -0.02357449       0.00531988       0.00531966
Ni      16.62188874      11.47810947      11.47810948       0.60000000       0.68567408      -0.01108489       0.00351848       0.00351851
Ni      18.44331421       9.58560516      11.44524488       0.60000000       0.35738407      -0.01333612       0.01035424       0.01433133
Ni      18.44331418      11.44524493       9.58560521       0.60000000       0.35738408      -0.01333621       0.01433150       0.01035434
Ni      18.31335252      11.46026106      13.38453659       0.60000000       0.39960218       0.00171677       0.01117218      -0.01327223
Ni      17.69475393      11.37721344      17.69475391       0.60000000       0.32491863      -0.00757289       0.01837176      -0.00757296
Ni      19.41995938      11.36663759      19.41995937       0.60000000       0.28825917      -0.00671334       0.00166343      -0.00671337
Ni      17.59023478      11.17204983      21.11857763       0.60000000       0.25544291       0.00385225       0.00551875       0.00059262
Ni      17.65887081       9.25418463      22.83382966       0.60000000       0.07495526      -0.00101444       0.00206989       0.00029382
Ni      17.66114647      11.05497833      24.64776303       0.60000000       0.54433769      -0.00632022       0.00129937      -0.00638433
Ni      19.45162747       9.24485536      24.64691482       0.60000000       0.08146350      -0.00087394       0.00167049       0.00295728
Ni      19.39253605      11.15914016      22.91747905       0.60000000       0.26562504       0.00288986       0.00595952       0.00490484
Ni      17.75426434       9.12273863      26.39659895       0.60000000       0.56391129      -0.00104627      -0.00080887      -0.00162066
Ni      17.72236356      12.34152211      29.67384938       0.60000000       0.34496911      -0.00618590      -0.00041268      -0.00029296
Ni      19.51988285       9.17782669      28.34286131       0.60000000       0.56513868       0.00206449       0.00251097       0.00405294
Ni      19.48292080      11.05507906      26.54351549       0.60000000       0.43503425       0.00049473      -0.00153756       0.00225313
Ni      17.75962133      10.59156339      31.52939770       0.60000000       0.22035799       0.00110694      -0.00071654      -0.00530455
Ni      17.74492547      12.43406327      33.29112873       0.60000000       0.02544079      -0.00858124      -0.00520278      -0.00902249
Ni      19.46547766      10.67325780      33.31280617       0.60000000       0.16089089       0.01275004      -0.00130294       0.00647794
Ni      19.52861967      12.35654699      31.41905478       0.60000000       0.09055426      -0.00987203      -0.00097344      -0.00012338
Ni      17.70533935      10.64774274      35.14575694       0.60000000       0.01509015       0.01116216      -0.00374192      -0.00806088
Ni      17.67122078      12.39441977      36.94446149       0.60000000       0.01372780      -0.00723950       0.00072142       0.00065247
Ni      19.41116508      10.62180271      36.96275996       0.60000000       0.00819913      -0.02255269      -0.00105536       0.02988628
Ni      19.45200952      12.43187548      35.12024735       0.60000000       0.02310508      -0.01161264       0.01678219      -0.00366288
Ni      17.62000000      10.57200000      38.76400000       0.60000000       0.00376817       0.09435680       0.18764624      -0.13705688
Ni      17.62000000      12.33400000      40.52600000       0.60000000      -0.00223727       0.00044823      -0.00018230       0.01758779
Ni      19.38200000      10.57200000      40.52600000       0.60000000      -0.00387217       0.00004672      -0.00046940       0.01225167
Ni      19.38200000      12.33400000      38.76400000       0.60000000       0.00599812       0.08498192       0.16983161      -0.23394025
Ni      17.62000000      14.09600000       0.00000000       0.60000000      -0.00287557       0.00013494      -0.00016365      -0.01560253
Ni      17.62000000      15.85800000       1.76200000       0.60000000       0.00306398       0.04476746       0.08802155       0.23496982
Ni      19.38200000      14.09600000       1.76200000       0.60000000       0.00281178      -0.00934898       0.13221724       0.19115765
Ni      19.38200000      15.85800000       0.00000000       0.60000000      -0.00180745      -0.00018738      -0.00001381      -0.01912115
Ni      17.63154190      14.13614079       3.57798424       0.60000000       0.00735560       0.00144996      -0.00134252      -0.00027736
Ni      17.64921560      15.92103062       5.43955189       0.60000000       0.02662158       0.00065509      -0.00146086      -0.00106051
Ni      19.36227978      14.16788080       5.42316720       0.60000000       0.02415820       0.00044903      -0.00323073       0.00405453
Ni      19.38259390      15.89517538       3.59131168       0.60000000       0.01323178      -0.00092041      -0.00013359      -0.00308264
Ni      17.63653713      14.17815298       7.24939625       0.60000000       0.17543071       0.00188644       0.00200994       0.00063798
Ni      17.64754386      15.94072154       9.26211508       0.60000000       0.22581952       0.00066762      -0.00122522       0.00698029
Ni      19.35229399      15.92385311       7.36069647       0.60000000       0.05143007       0.00389138      -0.00105430       0.00038954
Ni      18.31335252      13.38453659      11.46026107       0.60000000       0.39960216       0.00171676      -0.01327222       0.01117221
Ni      16.43975657      13.31494040      13.31494039       0.60000000       0.48844692      -0.00262072       0.00172603       0.00172603
Cr      17.56870081      15.76300251      15.76300251       0.60000000       0.06081311      -0.02012389      -0.00977302      -0.00977302
Ni      18.13549990      13.32214366      15.18577394       0.60000000       0.26912787      -0.00099646      -0.00527505       0.00147420
Ni      18.13549990      15.18577395      13.32214366       0.60000000       0.26912787      -0.00099646       0.00147420      -0.00527504
Cr      17.57395189      13.96014707      17.57395188       0.60000000       0.18863356      -0.00577610       0.00994329      -0.00577609
Cr      17.57811965      15.77168588      19.38574352       0.60000000       0.05944065       0.00045643       0.00767529      -0.00364373
Cr      19.36732496      13.93398806      19.36732496       0.60000000       0.18467325       0.00484868       0.01013967       0.00484869
Cr      19.38574353      15.77168588      17.57811965       0.60000000       0.05944065      -0.00364373       0.00767529       0.00045643
Ni      16.97348142      13.32908514      19.94276845       0.60000000       0.23414128       0.02166591      -0.00060511      -0.00945258
Ni      16.95394648      15.17879164      21.78101288       0.60000000       0.14000792       0.01149189       0.01111082      -0.00069029
Ni      18.74371942      13.33640238      21.77026239       0.60000000       0.24395973       0.00067709      -0.00040535      -0.00608256
Cr      19.37498712      15.74992835      21.17948605       0.60000000       0.06306813       0.01187008       0.00716794      -0.00436492
Ni      16.88859615      13.35868503      23.57727865       0.60000000       0.41406354      -0.00494773       0.00636186       0.00879635
Ni      17.45872145      15.60378858      25.76120065       0.60000000       0.16155022       0.00206582       0.01385124       0.01782709
Ni      18.64225842      13.34628468      25.33929673       0.60000000       0.40728470       0.00431643      -0.00601293       0.00255999
Ni      18.70313810      15.19957359      23.57424958       0.60000000       0.12885620      -0.00481952       0.00895885       0.00618740
Ni      17.63791092      13.98374240      27.71579758       0.60000000       0.27408171       0.01157230       0.00145814       0.00929967
Ni      17.67009569      15.85822841      29.52855800       0.60000000       0.04879387       0.00440306      -0.00202504       0.00510662
Ni      19.49203116      14.06625549      29.54279349       0.60000000       0.10159494       0.00674302      -0.00003401       0.00359862
Ni      19.33904611      15.68930658      27.62192280       0.60000000       0.13696056       0.01006773       0.00505406       0.00763150
Ni      17.75048073      14.17004916      31.42376555       0.60000000       0.03184118      -0.00614864      -0.00339460       0.00064095
Ni      17.75481060      15.98811244      33.19983913       0.60000000       0.03267407       0.00106795      -0.00454444       0.00464409
Ni      19.49818838      14.21057500      33.22246760       0.60000000       0.03494715      -0.00360193       0.01167203      -0.00029795
Ni      19.51381563      15.93994383      31.31908158       0.60000000       0.04576123       0.00138842      -0.00067122       0.00806914
Ni      17.72774027      14.20664381      35.08613985       0.60000000       0.02665212      -0.01844414       0.01608657       0.00860617
Ni      17.68548133      15.93331968      36.91179376       0.60000000       0.03131870       0.00640311      -0.00783661      -0.00194713
Ni      19.42838795      14.16973011      36.92802516       0.60000000       0.02332715       0.00247614      -0.00079248       0.00457264
Ni      19.48167828      15.99083928      35.03226926       0.60000000       0.04447549       0.00626379      -0.00650292       0.00297343
Ni      17.62000000      14.09600000      38.76400000       0.60000000       0.01088140       0.12655613       0.17010598      -0.29312694
Ni      17.62000000      15.85800000      40.52600000       0.60000000       0.00043988       0.00032819       0.00010906       0.02596050
Ni      19.38200000      14.09600000      40.52600000       0.60000000      -0.00073032       0.00035922      -0.00004681       0.02218091
Ni      19.38200000      15.85800000      38.76400000       0.60000000       0.01629080       0.11107211       0.18194555      -0.35553346
Ni      17.62000000      17.62000000       0.00000000       0.60000000      -0.00161748      -0.00002716      -0.00002716      -0.01965814
Ni      17.62000000      19.38200000       1.76200000       0.60000000       0.00516842       0.06702493       0.02324103       0.27440581
Ni      19.38200000      17.62000000       1.76200000       0.60000000       0.00516842       0.02324102       0.06702494       0.27440580
Ni      19.38200000      19.38200000       0.00000000       0.60000000      -0.00062321      -0.00008844      -0.00008844      -0.02299004
Ni      17.64244973      17.64244973       3.59333863       0.60000000       0.01433030       0.00093903       0.00093903       0.00070369
Ni      17.66155943      19.38615836       5.48200553       0.60000000       0.03415187      -0.00224480       0.00047626      -0.00094701
Ni      19.38615836      17.66155943       5.48200553       0.60000000       0.03415186       0.00047626      -0.00224480      -0.00094702
Ni      19.39020432      19.39020432       3.60764773       0.60000000       0.01811059      -0.00086466      -0.00086466       0.00110662
Ni      17.66787941      17.66787940       7.37260664       0.60000000       0.05264515      -0.00183294      -0.00183294      -0.00337801
Ni      17.66988820      19.37516942       9.33778075       0.60000000       0.09676942       0.00081884      -0.00039041       0.00334120
Ni      19.37516942      17.66988819       9.33778075       0.60000000       0.09676942      -0.00039041       0.00081883       0.00334120
Ni      19.39683181      19.39683181       7.41176562       0.60000000       0.05690154      -0.00138433      -0.00138433      -0.00284954
Ni      17.69475393      17.69475392      11.37721344       0.60000000       0.32491862      -0.00757291      -0.00757293       0.01837177
Ni      19.41995938      19.41995938      11.36663759       0.60000000       0.28825917      -0.00671335      -0.00671336       0.00166344
Cr      17.57395189      17.57395189      13.96014707       0.60000000       0.18863356      -0.00577610      -0.00577609       0.00994329
Cr      17.57811965      19.38574353      15.77168588       0.60000000       0.05944065       0.00045643      -0.00364373       0.00767530
Cr      19.38574353      17.57811966      15.77168588       0.60000000       0.05944064      -0.00364373       0.00045643       0.00767529
Cr      19.36732496      19.36732496      13.93398806       0.60000000       0.18467325       0.00484869       0.00484869       0.01013967
Cr      17.56886493      17.56886493      17.56886493       0.60000000       0.05792596       0.01975085       0.01975086       0.01975086
Cr      17.57918023      19.38334107      19.38334107       0.60000000       0.05898431       0.00380523       0.00268009       0.00268009
Cr      19.38334107      17.57918023      19.38334107       0.60000000       0.05898431       0.00268009       0.00380523       0.00268009
Cr      19.38334107      19.38334107      17.57918023       0.60000000       0.05898431       0.00268009       0.00268009       0.00380523
Cr      17.58954634      17.58954634      21.25145257       0.60000000       0.06259056       0.00831896       0.00831896       0.00882398
Cr      17.58282019      19.48523767      23.00681554       0.60000000       0.08484525      -0.00350124       0.00319212       0.00302936
Cr      19.48523767      17.58282019      23.00681554       0.60000000       0.08484525       0.00319212      -0.00350124       0.00302936
Cr      19.39314302      19.39314302      21.20132932       0.60000000       0.03975366      -0.00229296      -0.00229296       0.00010560
Ni      17.24497650      17.24497650      23.83913344       0.60000000       0.19648258       0.00882641       0.00882641       0.01698701
Ni      17.33423075      19.10324589      25.71554739       0.60000000       0.14563973       0.01591997       0.01459500       0.01923884
Ni      19.10324589      17.33423075      25.71554739       0.60000000       0.14563973       0.01459500       0.01591997       0.01923884
Cr      19.47271785      19.47271785      24.66589922       0.60000000       0.10011567       0.00433407       0.00433407      -0.00599869
Ni      17.48257217      17.48257217      27.62842672       0.60000000       0.08262056       0.01088427       0.01088427       0.00571852
Ni      17.62869214      19.41703288      29.44664743       0.60000000       0.09540284      -0.00298200       0.00036272       0.01536989
Ni      19.41703288      17.62869214      29.44664743       0.60000000       0.09540284       0.00036272      -0.00298200       0.01536989
Ni      19.18067502      19.18067502      27.54274361       0.60000000       0.14569174       0.00700107       0.00700107       0.01212249
Ni      17.72427172      17.72427172      31.31006892       0.60000000       0.04418246      -0.00132594      -0.00132594       0.00720717
Ni      17.77941012      19.52662595      33.08786589       0.60000000       0.06237965       0.00101151      -0.00107369       0.00239420
Ni      19.52662595      17.77941012      33.08786589       0.60000000       0.06237965      -0.00107369       0.00101151       0.00239420
Ni      19.54800004      19.54800004      31.10810287       0.60000000       0.11290790       0.00040442       0.00040442       0.00353347
Ni      17.74522610      17.74522610      35.01510994       0.60000000       0.04901152      -0.00192430      -0.00192430       0.00174808
Ni      17.69936164      19.44511260      36.89041473       0.60000000       0.04445330       0.00004624       0.00101576      -0.00202000
Ni      19.44511260      17.69936164      36.89041473       0.60000000       0.04445330       0.00101576       0.00004624      -0.00202000
Ni      19.50850178      19.50850178      34.96574806       0.60000000       0.06935309      -0.00084069      -0.00084069      -0.00106529
Ni      17.62000000      17.62000000      38.76400000       0.60000000       0.01820092       0.15041916       0.15041916      -0.38104366
Ni      17.62000000      19.38200000      40.52600000       0.60000000       0.00204969       0.00018506       0.00033474       0.03087418
Ni      19.38200000      17.62000000      40.52600000       0.60000000       0.00204969       0.00033474       0.00018506       0.03087418
Ni      19.38200000      19.38200000      38.76400000       0.60000000       0.02338281       0.13960227       0.13960227      -0.45196520
Ni      17.62000000      21.14400000       0.00000000       0.60000000      -0.00076577      -0.00001532      -0.00020556      -0.02253150
Ni      17.62000000      22.90600000       1.76200000       0.60000000       0.00617033       0.05882832      -0.07277495       0.29525119
Ni      19.38200000      21.14400000       1.76200000       0.60000000       0.00602889       0.02371674      -0.02010402       0.31172557
Ni      19.38200000      22.90600000       0.00000000       0.60000000      -0.00060097       0.00008090      -0.00005400      -0.02304460
Ni      17.64629487      21.12959047       3.60558793       0.60000000       0.01794872      -0.00004208      -0.00015939       0.00084102
Ni      17.67062727      22.84417025       5.48200870       0.60000000       0.03261218       0.00181202       0.00126227      -0.00107784
Ni      19.39865548      21.12374408       5.49661676       0.60000000       0.03735953       0.00221433       0.00110566       0.00143227
Ni      19.39392161      22.87896793       3.60713953       0.60000000       0.01873784      -0.00016026       0.00130791      -0.00112736
Ni      17.66848007      21.09455940       7.39842359       0.60000000       0.04670551      -0.00141836       0.00242774      -0.00542473
Ni      19.40529254      21.11873292       9.34390895       0.60000000       0.08456421      -0.00278730       0.00062348      -0.00136390
Ni      19.41319529      22.84995577       7.39500236       0.60000000       0.04596634       0.00097758       0.00141624       0.00524169
Ni      17.59023478      21.11857763      11.17204983       0.60000000       0.25544291       0.00385225       0.00059262       0.00551875
Ni      16.97348142      19.94276845      13.32908514       0.60000000       0.23414128       0.02166591      -0.00945258      -0.00060511
Ni      16.95394648      21.78101288      15.17879164       0.60000000       0.14000792       0.01149189      -0.00069029       0.01111082
Cr      19.37498712      21.17948605      15.74992835       0.60000000       0.06306813       0.01187008      -0.00436492       0.00716794
Ni      18.74371942      21.77026239      13.33640238       0.60000000       0.24395973       0.00067709      -0.00608256      -0.00040535
Cr      17.58954634      21.25145257      17.58954634       0.60000000       0.06259056       0.00831896       0.00882398       0.00831896
Cr      17.58282019      23.00681554      19.48523767       0.60000000       0.08484525      -0.00350124       0.00302936       0.00319212
Cr      19.39314302      21.20132932      19.39314302       0.60000000       0.03975366      -0.00229296       0.00010560      -0.00229296
Cr      19.48523767      23.00681554      17.58282019       0.60000000       0.08484525       0.00319212       0.00302936      -0.00350124
Cr      17.55820683      21.18117832      21.18117832       0.60000000       0.04823470      -0.00418921       0.00971804       0.00971805
Cr      17.53335887      22.97571710      22.97571710       0.60000000       0.03140230      -0.00313446       0.00200212       0.00200212
Cr      19.39290202      21.23419087      22.97112192       0.60000000       0.03033030       0.00445703       0.00351636       0.00411814
Cr      19.39290202      22.97112192      21.23419087       0.60000000       0.03033030       0.00445703       0.00411814       0.00351636
Cr      17.56844775      21.29294609      24.77436499       0.60000000       0.08601878      -0.00355711       0.00303855      -0.00106198
Cr      17.55682940      23.08351611      26.53256584       0.60000000       0.23810959       0.00655952      -0.00288568      -0.00197356
Cr      19.46465937      21.25115509      26.37979360       0.60000000       0.18673244       0.00058341      -0.00179499      -0.00223839
Cr      19.37828642      23.03776277      24.76193251       0.60000000       0.05041126       0.00291950       0.00111599       0.00194322
Ni      17.42128742      20.95953741      27.55633928       0.60000000       0.25053703       0.00986418       0.00536241       0.01299286
Ni      17.78082875      23.07945639      29.15010288       0.60000000       0.28251006      -0.00131470       0.00209987       0.00279249
Ni      19.55555159      21.32513514      29.04193318       0.60000000       0.11043853       0.01074554       0.01076780       0.00783636
Ni      17.79325785      21.28698368      31.14415379       0.60000000       0.11896222       0.00270200       0.00436962       0.00289232
Ni      17.81422941      23.01687332      33.09463089       0.60000000       0.08240031      -0.00049902      -0.00255160       0.00200641
Ni      19.55479563      21.28984804      33.01817860       0.60000000       0.09216914       0.00519732       0.00441302       0.00201143
Ni      19.54729706      23.08324655      31.08206102       0.60000000       0.11316881       0.00444419       0.00368197      -0.00016234
Ni      17.76801613      21.23932112      34.98829284       0.60000000       0.06279555       0.00134645      -0.00146457      -0.00224527
Ni      17.71896643      22.95081578      36.88800192       0.60000000       0.04778259       0.00145120      -0.00169078       0.00211011
Ni      19.46318866      21.20580315      36.87070167       0.60000000       0.05678988       0.00108793       0.00045659      -0.00134400
Ni      19.53932448      23.00791685      34.95135192       0.60000000       0.07694072       0.00315111       0.00065584      -0.00151942
Ni      17.62000000      21.14400000      38.76400000       0.60000000       0.02184391       0.18598234       0.09894499      -0.42396154
Ni      17.62000000      22.90600000      40.52600000       0.60000000       0.00238902       0.00015470       0.00044269       0.03172524
Ni      19.38200000      21.14400000      40.52600000       0.60000000       0.00357911       0.00029188       0.00036167       0.03533991
Ni      19.38200000      22.90600000      38.76400000       0.60000000       0.02773413       0.18248637       0.09331916      -0.49164340
Ni      17.62000000      24.66800000       0.00000000       0.60000000      -0.00112258       0.00024218      -0.00007951      -0.02139497
Ni      17.62000000      26.43000000       1.76200000       0.60000000       0.00600381       0.06108476      -0.14267699       0.22424434
Ni      19.38200000      24.66800000       1.76200000       0.60000000       0.00553286       0.02126235      -0.10093799       0.27502723
Ni      19.38200000      26.43000000       0.00000000       0.60000000      -0.00222207       0.00013758       0.00033699      -0.01777706
Ni      17.64905720      24.61937643       3.60002034       0.60000000       0.01739675       0.00149337       0.00371017       0.00039667
Ni      17.68585767      26.33968509       5.44328448       0.60000000       0.07076712      -0.00016464       0.00582864       0.00144356
Ni      19.41190210      24.60426946       5.46946891       0.60000000       0.03113070      -0.00044870       0.00219494       0.00545321
Ni      19.39070940      26.38403144       3.58610258       0.60000000       0.01746266       0.00188849       0.00215300       0.00198466
Ni      17.70025464      24.57921120       7.33410408       0.60000000       0.05439861      -0.00033153       0.00082206       0.00441669
Ni      19.43759756      26.37790855       7.31895117       0.60000000       0.09434099      -0.00043972      -0.00060260       0.00018829
Ni      17.65887081      22.83382966       9.25418463       0.60000000       0.07495526      -0.00101445       0.00029382       0.00206989
Ni      17.66114647      24.64776303      11.05497833       0.60000000       0.54433769      -0.00632022      -0.00638433       0.00129937
Ni      19.39253605      22.91747905      11.15914016       0.60000000       0.26562504       0.00288986       0.00490484       0.00595952
Ni      19.45162747      24.64691482       9.24485536       0.60000000       0.08146350      -0.00087394       0.00295728       0.00167049
Ni      16.88859615      23.57727865      13.35868503       0.60000000       0.41406354      -0.00494773       0.00879635       0.00636186
Ni      17.45872145      25.76120065      15.60378858       0.60000000       0.16155022       0.00206582       0.01782709       0.01385124
Ni      18.70313810      23.57424958      15.19957359       0.60000000       0.12885620      -0.00481952       0.00618740       0.00895885
Ni      18.64225842      25.33929673      13.34628468       0.60000000       0.40728470       0.00431643       0.00255999      -0.00601293
Ni      17.24497650      23.83913344      17.24497650       0.60000000       0.19648258       0.00882641       0.01698701       0.00882641
Ni      17.33423075      25.71554739      19.10324589       0.60000000       0.14563973       0.01591997       0.01923884       0.01459500
Cr      19.47271785      24.66589922      19.47271785       0.60000000       0.10011567       0.00433407      -0.00599869       0.00433407
Ni      19.10324589      25.71554739      17.33423075       0.60000000       0.14563973       0.01459500       0.01923884       0.01591997
Cr      17.56844775      24.77436499      21.29294609       0.60000000       0.08601878      -0.00355711      -0.00106198       0.00303855
Cr      17.55682940      26.53256584      23.08351611       0.60000000       0.23810959       0.00655952      -0.00197356      -0.00288568
Cr      19.37828642      24.76193251      23.03776277       0.60000000       0.05041126       0.00291950       0.00194322       0.00111599
Cr      19.46465937      26.37979360      21.25115509       0.60000000       0.18673244       0.00058341      -0.00223839      -0.00179499
Cr      17.54441652      24.77747633      24.77747633       0.60000000       0.05898370       0.00600375       0.00045622       0.00045622
Ni      18.26697113      25.40717601      27.17674444       0.60000000       0.14424424       0.00007528      -0.00419471      -0.00468594
Ni      17.77396981      24.84699040      31.24077297       0.60000000       0.21821876      -0.00052310      -0.00121542       0.00055089
Ni      17.82193175      26.55833745      33.16644474       0.60000000       0.17755125       0.00015042       0.00238790       0.00171615
Ni      19.57262216      24.81874312      33.04557575       0.60000000       0.08019825      -0.00087483       0.00169762      -0.00238701
Ni      17.80266649      24.74822192      35.01633330       0.60000000       0.06264637       0.00332982      -0.00024768       0.00468449
Ni      17.73726519      26.46971681      36.90176979       0.60000000       0.04495529       0.00326056       0.00255051      -0.00075216
Ni      19.48877026      24.72026987      36.86978032       0.60000000       0.06201336       0.00176375       0.00021958       0.00006252
Ni      19.57453080      26.54664418      34.97081528       0.60000000       0.07287180      -0.00105400      -0.00177510      -0.00084517
Ni      17.62000000      24.66800000      38.76400000       0.60000000       0.02324432       0.23397471       0.06456996      -0.41462032
Ni      17.62000000      26.43000000      40.52600000       0.60000000       0.00153482       0.00001648       0.00061412       0.02907735
Ni      19.38200000      24.66800000      40.52600000       0.60000000       0.00384607       0.00031319       0.00048179       0.03595603
Ni      19.38200000      26.43000000      38.76400000       0.60000000       0.03078222       0.24161708       0.08195548      -0.46852531
Ni      17.62000000      28.19200000       0.00000000       0.60000000      -0.00321829       0.00052893       0.00021767      -0.01338992
Ni      17.62000000      29.95400000       1.76200000       0.60000000       0.03897833       0.01502853       0.00612576       0.18060306
Ni      19.38200000      28.19200000       1.76200000       0.60000000       0.00630510       0.02404026      -0.11625193       0.17412998
Ni      19.38200000      29.95400000       0.00000000       0.60000000      -0.00388877       0.00051389      -0.00033670      -0.01087012
Ni      17.64729523      28.14326305       3.56709151       0.60000000       0.16854593      -0.00224217       0.00390888       0.00067825
Ni      19.38515285      28.13219935       5.39748322       0.60000000       0.33070065       0.00318080       0.00089076       0.00003269
Ni      19.37707481      29.92647768       3.55636545       0.60000000       0.31270370      -0.00325872       0.00321468      -0.00380182
Ni      17.76016820      28.16988266       7.27455958       0.60000000       0.74506954       0.00632960       0.00449942      -0.00423269
Ni      17.75426434      26.39659895       9.12273863       0.60000000       0.56391129      -0.00104627      -0.00162066      -0.00080887
Ni      17.72236356      29.67384938      12.34152211       0.60000000       0.34496911      -0.00618590      -0.00029296      -0.00041268
Ni      19.48292080      26.54351549      11.05507906       0.60000000       0.43503425       0.00049473       0.00225313      -0.00153756
Ni      19.51988285      28.34286131       9.17782669       0.60000000       0.56513868       0.00206449       0.00405294       0.00251097
Ni      17.63791092      27.71579758      13.98374240       0.60000000       0.27408171       0.01157230       0.00929967       0.00145814
Ni      17.67009569      29.52855800      15.85822841       0.60000000       0.04879387       0.00440306       0.00510662      -0.00202504
Ni      19.33904611      27.62192280      15.68930658       0.60000000       0.13696056       0.01006773       0.00763150       0.00505406
Ni      19.49203116      29.54279349      14.06625549       0.60000000       0.10159494       0.00674302       0.00359862      -0.00003401
Ni      17.48257217      27.62842672      17.48257217       0.60000000       0.08262056       0.01088427       0.00571852       0.01088427
Ni      17.62869214      29.44664743      19.41703288       0.60000000       0.09540284      -0.00298200       0.01536989       0.00036272
Ni      19.18067502      27.54274361      19.18067502       0.60000000       0.14569174       0.00700107       0.01212249       0.00700107
Ni      19.41703288      29.44664743      17.62869214       0.60000000       0.09540284       0.00036272       0.01536989      -0.00298200
Ni      17.42128742      27.55633928      20.95953741       0.60000000       0.25053703       0.00986418       0.01299286       0.00536241
Ni      17.78082875      29.15010288      23.07945639       0.60000000       0.28251006      -0.00131470       0.00279249       0.00209987
Ni      19.55555159      29.04193318      21.32513514       0.60000000       0.11043853       0.01074554       0.00783636       0.01076780
Ni      18.26697113      27.17674444      25.40717601       0.60000000       0.14424424       0.00007528      -0.00468594      -0.00419471
Ni      16.48306146      27.22575756      27.22575756       0.60000000       0.23788622      -0.00167061       0.00174358       0.00174358
Ni      16.60862800      29.06436854      29.06436854       0.60000000       0.35229326      -0.00020674       0.00065337       0.00065337
Ni      18.38361653      27.22723236      29.02610605       0.60000000       0.14953807       0.00207937       0.00335451       0.00139560
Ni      18.38361653      29.02610605      27.22723236       0.60000000       0.14953807       0.00207937       0.00139560       0.00335451
Ni      17.78168035      30.07004542      33.18584035       0.60000000       0.46012531       0.00893769       0.01086539      -0.00217860
Ni      19.58641612      28.38254627      33.11601922       0.60000000       0.20392968      -0.00022795      -0.00010922       0.00015491
Ni      18.44574946      29.02137190      30.89132444       0.60000000       0.30970963       0.00131356       0.00051769      -0.00011914
Ni      17.80764788      28.28039757      35.06353875       0.60000000       0.06995159       0.00629837       0.00829309      -0.00114591
Ni      17.73114385      29.97539399      36.94364282       0.60000000       0.04342276       0.00341103       0.00273945       0.00077749
Ni      19.51358047      28.24850427      36.87686527       0.60000000       0.06525175       0.00342357       0.00226767      -0.00023019
Ni      19.58558293      30.08275395      35.00889631       0.60000000       0.23255352       0.00230460       0.00357387       0.00004323
Ni      17.62000000      28.19200000      38.76400000       0.60000000       0.02092040       0.26743851       0.01997199      -0.33224711
Ni      17.62000000      29.95400000      40.52600000       0.60000000      -0.00085175      -0.00055311       0.00034745       0.02100251
Ni      19.38200000      28.19200000      40.52600000       0.60000000       0.00326602      -0.00005823       0.00090701       0.03427706
Ni      19.38200000      29.95400000      38.76400000       0.60000000       0.03589743       0.31632598       0.11571133      -0.42228715
Ni      17.62000000      31.71600000       0.00000000       0.60000000       0.01265453       0.01029053      -0.01090418      -0.02428696
Ni      17.62000000      33.47800000       1.76200000       0.60000000       0.48282227       0.02327221      -0.09813208       0.22136334
Ni      19.38200000      31.71600000       1.76200000       0.60000000       0.04037887      -0.09975382      -0.04947425       0.13788336
Ni      19.38200000      33.47800000       0.00000000       0.60000000       0.00886410       0.01183329      -0.01788572      -0.02159499
Ni      17.63700772      31.69561096       3.62185778       0.60000000       0.68552087      -0.00270580       0.00265658       0.00279379
Ni      19.38152310      33.45628075       3.56372277       0.60000000       0.56738299      -0.00402757      -0.00111149       0.00011078
Ni      16.62773871      31.22028324       6.29640217       0.60000000       0.95315018      -0.03001974      -0.02225018       0.00206260
Ni      17.76553342      33.37082636       8.82921110       0.60000000       0.16029880      -0.00713042      -0.01030142      -0.01396566
Ni      18.28855249      31.01214574       8.17003399       0.60000000       0.85719026      -0.01109973      -0.00406728      -0.01299040
Ni      18.37345715      33.01079557       6.41823465       0.60000000       0.85260161      -0.04886583      -0.00293221      -0.05649834
Ni      17.75962133      31.52939770      10.59156339       0.60000000       0.22035799       0.00110694      -0.00530455      -0.00071654
Ni      17.74492547      33.29112873      12.43406327       0.60000000       0.02544079      -0.00858124      -0.00902249      -0.00520278
Ni      19.52861967      31.41905478      12.35654699       0.60000000       0.09055426      -0.00987203      -0.00012338      -0.00097344
Ni      19.46547766      33.31280617      10.67325780       0.60000000       0.16089089       0.01275004       0.00647794      -0.00130294
Ni      17.75048073      31.42376555      14.17004916       0.60000000       0.03184118      -0.00614864       0.00064095      -0.00339460
Ni      17.75481060      33.19983913      15.98811244       0.60000000       0.03267407       0.00106795       0.00464409      -0.00454444
Ni      19.51381563      31.31908158      15.93994383       0.60000000       0.04576123       0.00138842       0.00806914      -0.00067122
Ni      19.49818838      33.22246760      14.21057500       0.60000000       0.03494715      -0.00360193      -0.00029795       0.01167203
Ni      17.72427172      31.31006892      17.72427172       0.60000000       0.04418246      -0.00132594       0.00720717      -0.00132594
Ni      17.77941012      33.08786589      19.52662595       0.60000000       0.06237965       0.00101151       0.00239420      -0.00107369
Ni      19.54800004      31.10810287      19.54800004       0.60000000       0.11290790       0.00040442       0.00353347       0.00040442
Ni      19.52662595      33.08786589      17.77941012       0.60000000       0.06237965      -0.00107369       0.00239420       0.00101151
Ni      17.79325785      31.14415379      21.28698368       0.60000000       0.11896222       0.00270200       0.00289232       0.00436962
Ni      17.81422941      33.09463089      23.01687332       0.60000000       0.08240031      -0.00049902       0.00200641      -0.00255160
Ni      19.54729706      31.08206102      23.08324655       0.60000000       0.11316881       0.00444419      -0.00016234       0.00368197
Ni      19.55479563      33.01817860      21.28984804       0.60000000       0.09216914       0.00519732       0.00201143       0.00441302
Ni      17.77396981      31.24077297      24.84699040       0.60000000       0.21821876      -0.00052310       0.00055089      -0.00121542
Ni      17.82193175      33.16644474      26.55833745       0.60000000       0.17755125       0.00015042       0.00171615       0.00238790
Ni      19.57262216      33.04557575      24.81874312       0.60000000       0.08019825      -0.00087483      -0.00238701       0.00169762
Ni      17.78168035      33.18584035      30.07004542       0.60000000       0.46012531       0.00893769      -0.00217860       0.01086539
Ni      18.44574946      30.89132444      29.02137190       0.60000000       0.30970963       0.00131356      -0.00011914       0.00051769
Ni      19.58641612      33.11601922      28.38254627       0.60000000       0.20392968      -0.00022795       0.00015491      -0.00010922
Ni      16.59099075      30.94049768      30.94049768       0.60000000       0.56022203      -0.00056138      -0.00057200      -0.00057200
Ni      17.86396227      33.41155927      33.41155927       0.60000000       0.49073033      -0.00181193      -0.00064355      -0.00064355
Ni      17.72885610      31.71234816      35.17799722       0.60000000       0.29395490       0.00282935       0.00342325       0.00021291
Ni      17.65402604      33.45739023      36.97795201       0.60000000       0.13621026       0.00069584      -0.00010512       0.00049673
Ni      19.54085811      31.81430019      36.88957202       0.60000000       0.19621989      -0.00186344      -0.00288762       0.00286250
Ni      17.62000000      31.71600000      38.76400000       0.60000000       0.01696700       0.24382479      -0.04514341      -0.25574844
Ni      17.62000000      33.47800000      40.52600000       0.60000000       0.00144745       0.00404428      -0.00292602       0.00198328
Ni      19.38200000      31.71600000      40.52600000       0.60000000       0.00290519      -0.00120282       0.00065365       0.03375587
Ni      19.38200000      33.47800000      38.76400000       0.60000000       0.05625966       0.27485117      -0.00315877      -0.21990440
Ni      17.62000000      35.24000000       0.00000000       0.60000000       0.28781306      -0.08263217       0.10863068       0.07174472
Ni      19.38200000      35.24000000       1.76200000       0.60000000       0.28877521      -0.03750608       0.02208285       0.17700337
Ni      19.38200000      37.00200000       0.00000000       0.60000000       0.13021908      -0.08348936       0.01152538       0.08565517
Ni      17.62044371      37.05066665       5.28442068       0.60000000       0.34445588      -0.00007294      -0.00321660      -0.00319133
Ni      19.33373004      35.20809350       5.30820685       0.60000000       0.46534774       0.00525313       0.00056847      -0.00234960
Ni      19.38724280      36.98780563       3.52943686       0.60000000       0.30797518       0.00328139       0.00105397       0.00081083
Ni      17.65760359      35.25906556       7.10043558       0.60000000       0.20733585      -0.00524773      -0.00364719      -0.01084384
Ni      17.64658230      36.98931719       8.85830156       0.60000000       0.01092074      -0.00817298      -0.00730853      -0.01252290
Ni      19.40884017      35.19807712       8.85608411       0.60000000       0.14836024      -0.00381446      -0.00370288      -0.00170075
Ni      19.39466305      37.00331318       7.06863336       0.60000000       0.03372774      -0.00633430      -0.00900972      -0.01286119
Ni      17.70533935      35.14575694      10.64774274       0.60000000       0.01509015       0.01116216      -0.00806088      -0.00374192
Ni      17.67122078      36.94446149      12.39441977       0.60000000       0.01372780      -0.00723950       0.00065247       0.00072142
Ni      19.45200952      35.12024735      12.43187548       0.60000000       0.02310508      -0.01161264      -0.00366288       0.01678219
Ni      19.41116508      36.96275996      10.62180271       0.60000000       0.00819913      -0.02255269       0.02988628      -0.00105536
Ni      17.72774027      35.08613985      14.20664381       0.60000000       0.02665212      -0.01844414       0.00860617       0.01608657
Ni      17.68548133      36.91179376      15.93331968       0.60000000       0.03131870       0.00640311      -0.00194713      -0.00783661
Ni      19.48167828      35.03226926      15.99083928       0.60000000       0.04447549       0.00626379       0.00297343      -0.00650292
Ni      19.42838795      36.92802516      14.16973011       0.60000000       0.02332715       0.00247614       0.00457264      -0.00079248
Ni      17.74522610      35.01510994      17.74522610       0.60000000       0.04901152      -0.00192430       0.00174808      -0.00192430
Ni      17.69936164      36.89041473      19.44511260       0.60000000       0.04445330       0.00004624      -0.00202000       0.00101576
Ni      19.50850178      34.96574806      19.50850178       0.60000000       0.06935309      -0.00084069      -0.00106529      -0.00084069
Ni      19.44511260      36.89041473      17.69936164       0.60000000       0.04445330       0.00101576      -0.00202000       0.00004624
Ni      17.76801613      34.98829284      21.23932112       0.60000000       0.06279555       0.00134645      -0.00224527      -0.00146457
Ni      17.71896643      36.88800192      22.95081578       0.60000000       0.04778259       0.00145120       0.00211011      -0.00169078
Ni      19.53932448      34.95135192      23.00791685       0.60000000       0.07694072       0.00315111      -0.00151942       0.00065584
Ni      19.46318866      36.87070167      21.20580315       0.60000000       0.05678988       0.00108793      -0.00134400       0.00045659
Ni      17.80266649      35.01633330      24.74822192       0.60000000       0.06264637       0.00332982       0.00468449      -0.00024768
Ni      17.73726519      36.90176979      26.46971681       0.60000000       0.04495529       0.00326056      -0.00075216       0.00255051
Ni      19.57453080      34.97081528      26.54664418       0.60000000       0.07287180      -0.00105400      -0.00084517      -0.00177510
Ni      19.48877026      36.86978032      24.72026987       0.60000000       0.06201336       0.00176375       0.00006252       0.00021958
Ni      17.80764788      35.06353875      28.28039757       0.60000000       0.06995159       0.00629837      -0.00114591       0.00829309
Ni      17.73114385      36.94364282      29.97539399       0.60000000       0.04342276       0.00341103       0.00077749       0.00273945
Ni      19.58558293      35.00889631      30.08275395       0.60000000       0.23255352       0.00230460       0.00004323       0.00357387
Ni      19.51358047      36.87686527      28.24850427       0.60000000       0.06525175       0.00342357      -0.00023019       0.00226767
Ni      17.72885610      35.17799722      31.71234816       0.60000000       0.29395490       0.00282935       0.00021291       0.00342325
Ni      17.65402604      36.97795201      33.45739023       0.60000000       0.13621026       0.00069584       0.00049673      -0.00010512
Ni      19.54085811      36.88957202      31.81430019       0.60000000       0.19621989      -0.00186344       0.00286250      -0.00288762
Ni      17.70587754      35.17310560      35.17310560       0.60000000       0.17983688      -0.00031012      -0.00025468      -0.00025468
Ni      17.63516028      36.98046500      36.98046500       0.60000000       0.00367164      -0.00063524      -0.00032242      -0.00032242
Ni      19.41277312      35.21567034      36.96432651       0.60000000       0.19010165      -0.00024416       0.00071546       0.00013219
Ni      19.41277312      36.96432651      35.21567034       0.60000000       0.19010165      -0.00024416       0.00013219       0.00071546
Ni      17.62000000      35.24000000      38.76400000       0.60000000       0.00176912       0.08196537      -0.05297511      -0.12469858
Ni      17.62000000      37.00200000      40.52600000       0.60000000       0.02947313       0.00188937      -0.00176968      -0.09996515
Ni      19.38200000      35.24000000      40.52600000       0.60000000       0.00616458      -0.00625843      -0.00964054       0.00725821
Ni      19.38200000      37.00200000      38.76400000       0.60000000       0.02654467      -0.05277536      -0.07785617      -0.14429966
Ni      17.62000000      38.76400000       0.00000000       0.60000000       0.14415963       0.08302173      -0.13679715       0.11641926
Ni      17.62000000      40.52600000       1.76200000       0.60000000       0.14288913       0.08296669      -0.12017389       0.14017574
Ni      19.38200000      38.76400000       1.76200000       0.60000000       0.17929159      -0.35991594      -0.19736475       0.20669301
Ni      19.38200000      40.52600000       0.00000000       0.60000000      -0.00071502       0.00854501       0.01309066      -0.01310428
Ni      17.03266667      37.58933333       2.93666667       0.60000000       1.12491792       3.20094569      -2.58177471       2.62298790
Ni      17.62000000      40.52600000       5.28600000       0.60000000       0.23955392      -0.13520813      -0.24249510      -0.11677852
Ni      19.38200000      38.76400000       5.28600000       0.60000000       0.14235664       0.06506414       0.01053346      -0.11315912
Ni      19.38200000      40.52600000       3.52400000       0.60000000       0.12588456      -0.09273841      -0.09692585      -0.00791566
Ni      17.62000000      38.76400000       7.04800000       0.60000000       0.13146725      -0.10494059      -0.02268404       0.10089714
Ni      17.62000000      40.52600000       8.81000000       0.60000000      -0.00120812       0.00672745       0.01049165       0.00921784
Ni      19.38200000      38.76400000       8.81000000       0.60000000      -0.00144931       0.06627114      -0.09278630       0.13866545
Ni      19.38200000      40.52600000       7.04800000       0.60000000       0.00065603       0.01310308       0.01089333       0.01371670
Ni      17.62000000      38.76400000      10.57200000       0.60000000       0.00376817       0.09435680      -0.13705688       0.18764624
Ni      17.62000000      40.52600000      12.33400000       0.60000000      -0.00223727       0.00044823       0.01758779      -0.00018230
Ni      19.38200000      38.76400000      12.33400000       0.60000000       0.00599812       0.08498192      -0.23394025       0.16983161
Ni      19.38200000      40.52600000      10.57200000       0.60000000      -0.00387217       0.00004672       0.01225167      -0.00046940
Ni      17.62000000      38.76400000      14.09600000       0.60000000       0.01088140       0.12655613      -0.29312694       0.17010598
Ni      17.62000000      40.52600000      15.85800000       0.60000000       0.00043988       0.00032819       0.02596050       0.00010906
Ni      19.38200000      38.76400000      15.85800000       0.60000000       0.01629080       0.11107211      -0.35553346       0.18194555
Ni      19.38200000      40.52600000      14.09600000       0.60000000      -0.00073032       0.00035922       0.02218091      -0.00004681
Ni      17.62000000      38.76400000      17.62000000       0.60000000       0.01820092       0.15041916      -0.38104366       0.15041916
Ni      17.62000000      40.52600000      19.38200000       0.60000000       0.00204969       0.00018506       0.03087418       0.00033474
Ni      19.38200000      38.76400000      19.38200000       0.60000000       0.02338281       0.13960227      -0.45196520       0.13960227
Ni      19.38200000      40.52600000      17.62000000       0.60000000       0.00204969       0.00033474       0.03087418       0.00018506
Ni      17.62000000      38.76400000      21.14400000       0.60000000       0.02184391       0.18598234      -0.42396154       0.09894499
Ni      17.62000000      40.52600000      22.90600000       0.60000000       0.00238902       0.00015470       0.03172524       0.00044269
Ni      19.38200000      38.76400000      22.90600000       0.60000000       0.02773413       0.18248637      -0.49164340       0.09331916
Ni      19.38200000      40.52600000      21.14400000       0.60000000       0.00357911       0.00029188       0.03533991       0.00036167
Ni      17.62000000      38.76400000      24.66800000       0.60000000       0.02324432       0.23397471      -0.41462032       0.06456996
Ni      17.62000000      40.52600000      26.43000000       0.60000000       0.00153482       0.00001648       0.02907735       0.00061412
Ni      19.38200000      38.76400000      26.43000000       0.60000000       0.03078222       0.24161708      -0.46852531       0.08195548
Ni      19.38200000      40.52600000      24.66800000       0.60000000       0.00384607       0.00031319       0.03595603       0.00048179
Ni      17.62000000      38.76400000      28.19200000       0.60000000       0.02092040       0.26743851      -0.33224711       0.01997199
Ni      17.62000000      40.52600000      29.95400000       0.60000000      -0.00085175      -0.00055311       0.02100251       0.00034745
Ni      19.38200000      38.76400000      29.95400000       0.60000000       0.03589743       0.31632598      -0.42228715       0.11571133
Ni      19.38200000      40.52600000      28.19200000       0.60000000       0.00326602      -0.00005823       0.03427706       0.00090701
Ni      17.62000000      38.76400000      31.71600000       0.60000000       0.01696700       0.24382479      -0.25574844      -0.04514341
Ni      17.62000000      40.52600000      33.47800000       0.60000000       0.00144745       0.00404428       0.00198328      -0.00292602
Ni      19.38200000      38.76400000      33.47800000       0.60000000       0.05625966       0.27485117      -0.21990440      -0.00315877
Ni      19.38200000      40.52600000      31.71600000       0.60000000       0.00290519      -0.00120282       0.03375587       0.00065365
Ni      17.62000000      38.76400000      35.24000000       0.60000000       0.00176912       0.08196537      -0.12469858      -0.05297511
Ni      17.62000000      40.52600000      37.00200000       0.60000000       0.02947313       0.00188937      -0.09996515      -0.00176968
Ni      19.38200000      38.76400000      37.00200000       0.60000000       0.02654467      -0.05277536      -0.14429966      -0.07785617
Ni      19.38200000      40.52600000      35.24000000       0.60000000       0.00616458      -0.00625843       0.00725821      -0.00964054
Ni      17.62000000      38.76400000      38.76400000       0.60000000      -0.00509488      -0.00121806      -0.05743475      -0.05743475
Ni      17.62000000      40.52600000      40.52600000       0.60000000       0.00261074       0.01790244       0.00147990       0.00147990
Ni      19.38200000      38.76400000      40.52600000       0.60000000       0.00044768      -0.00469270       0.01056688      -0.00232774
Ni      19.38200000      40.52600000      38.76400000       0.60000000       0.00044768      -0.00469270      -0.00232774       0.01056688
Ni      21.14400000       0.00000000       0.00000000       0.60000000      -0.00088412      -0.00874166      -0.01384002      -0.01384002
Ni      21.14400000       1.76200000       1.76200000       0.60000000       0.19011409       0.35932587      -0.01492319      -0.01492317
Ni      22.90600000       0.00000000       1.76200000       0.60000000       0.14220329      -0.08134346       0.11803005       0.13913762
Ni      22.90600000       1.76200000       0.00000000       0.60000000       0.14220329      -0.08134346       0.13913762       0.11803005
Ni      21.14400000       0.00000000       3.52400000       0.60000000       0.12663769       0.08421610       0.10155728      -0.01175875
Ni      21.14400000       1.76200000       5.28600000       0.60000000       0.27763254       0.05709677       0.23428091      -0.03364529
Ni      22.90600000       0.00000000       5.28600000       0.60000000       0.28754275       0.08199342       0.07426970      -0.10900773
Ni      21.14400000       0.00000000       7.04800000       0.60000000       0.01080037      -0.01082024      -0.02858155       0.01775613
Ni      21.14400000       1.76200000       8.81000000       0.60000000       0.02220519      -0.05411914       0.11868466      -0.04421079
Ni      22.90600000       0.00000000       8.81000000       0.60000000       0.01151355      -0.00997731      -0.01874926       0.01091238
Ni      22.90600000       1.76200000       7.04800000       0.60000000       0.48046283      -0.10999777       0.26999974       0.06130831
Ni      21.14400000       0.00000000      10.57200000       0.60000000      -0.00396230      -0.00129148      -0.01158895      -0.00071782
Ni      21.14400000       1.76200000      12.33400000       0.60000000       0.00214685      -0.07342076       0.18021275       0.08095522
Ni      22.90600000       0.00000000      12.33400000       0.60000000      -0.00214110      -0.00067507      -0.01799271      -0.00039625
Ni      22.90600000       1.76200000      10.57200000       0.60000000       0.02233300      -0.17516685       0.18226350       0.06859017
Ni      21.14400000       0.00000000      14.09600000       0.60000000      -0.00223048      -0.00069578      -0.01768101      -0.00014760
Ni      21.14400000       1.76200000      15.85800000       0.60000000       0.00505163      -0.03676058       0.25968840       0.09369051
Ni      22.90600000       0.00000000      15.85800000       0.60000000      -0.00112520      -0.00036925      -0.02128293      -0.00000391
Ni      22.90600000       1.76200000      14.09600000       0.60000000       0.00528102      -0.11595543       0.25604769       0.07755300
Ni      21.14400000       0.00000000      17.62000000       0.60000000      -0.00076577      -0.00020556      -0.02253150      -0.00001532
Ni      21.14400000       1.76200000      19.38200000       0.60000000       0.00602889      -0.02010402       0.31172556       0.02371674
Ni      22.90600000       0.00000000      19.38200000       0.60000000      -0.00060097      -0.00005400      -0.02304460       0.00008090
Ni      22.90600000       1.76200000      17.62000000       0.60000000       0.00617033      -0.07277494       0.29525116       0.05882836
Ni      21.14400000       0.00000000      21.14400000       0.60000000      -0.00041212      -0.00000009      -0.02362711      -0.00000009
Ni      21.14400000       1.76200000      22.90600000       0.60000000       0.00578349      -0.01706372       0.30471014      -0.05559521
Ni      22.90600000       0.00000000      22.90600000       0.60000000      -0.00100681       0.00004525      -0.02174804       0.00004525
Ni      22.90600000       1.76200000      21.14400000       0.60000000       0.00578348      -0.05559521       0.30471014      -0.01706372
Ni      21.14400000       0.00000000      24.66800000       0.60000000      -0.00130996       0.00004763      -0.02080901       0.00013570
Ni      21.14400000       1.76200000      26.43000000       0.60000000       0.00376041      -0.01965546       0.22222856      -0.12087856
Ni      22.90600000       0.00000000      26.43000000       0.60000000      -0.00249154      -0.00010654      -0.01699981       0.00019727
Ni      22.90600000       1.76200000      24.66800000       0.60000000       0.00452448      -0.05486578       0.26289188      -0.08637755
Ni      21.14400000       0.00000000      28.19200000       0.60000000      -0.00357515       0.00001174      -0.01319550       0.00021276
Ni      21.14400000       1.76200000      29.95400000       0.60000000       0.00309477      -0.02176583       0.16374217      -0.10302585
Ni      22.90600000       0.00000000      29.95400000       0.60000000      -0.00465825      -0.00000546      -0.00965615       0.00017361
Ni      22.90600000       1.76200000      28.19200000       0.60000000       0.00085212      -0.04099560       0.17844315      -0.12460094
Ni      21.14400000       0.00000000      31.71600000       0.60000000      -0.00506469       0.00006564      -0.00723155       0.00012939
Ni      21.14400000       1.76200000      33.47800000       0.60000000       0.02930530      -0.03242789       0.03333508      -0.05171289
Ni      22.90600000       0.00000000      33.47800000       0.60000000       0.00004171      -0.00389823       0.00033059      -0.00400998
Ni      22.90600000       1.76200000      31.71600000       0.60000000       0.00076798      -0.01264052       0.11961427      -0.08955399
Ni      21.14400000       0.00000000      35.24000000       0.60000000       0.00413950       0.00512516      -0.00079224      -0.01152989
Ni      21.14400000       1.76200000      37.00200000       0.60000000       0.02620752       0.13292666       0.06973992      -0.05902245
Ni      22.90600000       0.00000000      37.00200000       0.60000000       0.03083007       0.00321907       0.09652345      -0.00494822
Ni      22.90600000       1.76200000      35.24000000       0.60000000      -0.00101272      -0.00734477       0.08636430      -0.05371931
Ni      21.14400000       0.00000000      38.76400000       0.60000000       0.00100269       0.00533542       0.00331443       0.01088686
Ni      21.14400000       1.76200000      40.52600000       0.60000000       0.00102079       0.00514650      -0.01082412      -0.00342423
Ni      22.90600000       0.00000000      40.52600000       0.60000000       0.00195873      -0.00191096       0.00256541       0.00756092
Ni      22.90600000       1.76200000      38.76400000       0.60000000      -0.00569065      -0.00038658       0.03837193      -0.03875441
Ni      21.14400000       3.52400000       0.00000000       0.60000000       0.12663774       0.08421617      -0.01175879       0.10155714
Ni      21.14400000       5.28600000       1.76200000       0.60000000       0.27763250       0.05709240      -0.03364683       0.23428534
Ni      22.90600000       5.28600000       0.00000000       0.60000000       0.28754273       0.08199337      -0.10900776       0.07426970
Ni      21.13173154       3.47520749       3.47520764       0.60000000       0.47456338      -0.00331322      -0.00730644      -0.00730640
Ni      21.77324499       5.07867362       5.07867040       0.60000000       0.92976688       0.00644721      -0.01417652      -0.01418064
Ni      21.11300485       3.60860620       7.02965004       0.60000000       0.42082128      -0.00373571      -0.00344151       0.00430977
Ni      22.80710821       3.58556264       8.84527000       0.60000000       0.54832303       0.00524044      -0.00058868       0.00334782
Ni      21.08851642       3.56672896      10.58909147       0.60000000       0.05328796      -0.00185433       0.00144984      -0.00287636
Ni      21.04097023       5.42062133      12.39380373       0.60000000       0.07638042      -0.00431859       0.00136620      -0.00176231
Ni      22.82810228       3.58812042      12.36418038       0.60000000       0.03448611      -0.00215766       0.00127449      -0.00058715
Ni      21.11532246       3.58637065      14.13853497       0.60000000       0.01390503      -0.00182033      -0.00344629      -0.00163701
Ni      21.09454310       5.46962862      15.92165345       0.60000000       0.03047808      -0.00024847      -0.00288631      -0.00177295
Ni      22.86279819       3.60004437      15.89587637       0.60000000       0.01805981      -0.00039902       0.00098451       0.00109540
Ni      22.78812322       5.44488969      14.16026811       0.60000000       0.04667296      -0.00306082      -0.00562988      -0.00149613
Ni      21.12959047       3.60558793      17.64629487       0.60000000       0.01794872      -0.00015938       0.00084101      -0.00004208
Ni      21.12374408       5.49661676      19.39865548       0.60000000       0.03735952       0.00110566       0.00143227       0.00221433
Ni      22.87896793       3.60713953      19.39392161       0.60000000       0.01873784       0.00130791      -0.00112736      -0.00016026
Ni      22.84417026       5.48200870      17.67062728       0.60000000       0.03261218       0.00126228      -0.00107784       0.00181202
Ni      21.13651826       3.60967140      21.13651826       0.60000000       0.01922951      -0.00112155      -0.00110724      -0.00112155
Ni      21.13411791       5.48388946      22.86613173       0.60000000       0.03493811      -0.00021041       0.00264159       0.00155583
Ni      22.88470602       3.60085121      22.88470602       0.60000000       0.01592134      -0.00131495       0.00431780      -0.00131495
Ni      22.86613173       5.48388946      21.13411791       0.60000000       0.03493811       0.00155583       0.00264159      -0.00021041
Ni      21.13765362       3.59740946      24.63493108       0.60000000       0.01503364       0.00074167       0.00396528       0.00243108
Ni      21.12822210       5.43403440      26.38073032       0.60000000       0.02819976       0.00223141      -0.00276979      -0.00110954
Ni      22.88500671       3.58158785      26.39205148       0.60000000       0.00962991       0.00281748       0.00044560       0.00069260
Ni      22.86638806       5.44893095      24.61758613       0.60000000       0.02385618      -0.00036268      -0.00096813       0.00134807
Ni      21.13370032       3.56525052      28.15108559       0.60000000       0.01965347       0.00130413      -0.00178641       0.00141390
Ni      21.14528445       5.34145352      29.88917210       0.60000000       0.50420114      -0.00727542      -0.00194123       0.00544459
Ni      22.89685701       3.55170214      29.91768341       0.60000000       0.01452804      -0.00247082      -0.00356485       0.00118433
Ni      22.87480175       5.38360692      28.13081707       0.60000000       0.04155966      -0.00182042      -0.00836454      -0.00099317
Ni      21.13825455       3.54486851      31.69382110       0.60000000       0.31257261      -0.00274645      -0.00521164       0.00368035
Ni      22.90225274       3.54520480      33.45329316       0.60000000       0.14557430      -0.00146018       0.00098424       0.00262302
Ni      22.89584826       5.32757967      31.66971531       0.60000000       0.32312049       0.00773671      -0.00627781      -0.00030571
Ni      21.14859568       3.54763701      35.21853398       0.60000000       0.17402576       0.00307917       0.00018373       0.00206274
Ni      21.14027519       5.30294056      36.98785217       0.60000000       0.03271334      -0.00664107      -0.00405798      -0.00235769
Ni      22.90455388       3.53839858      36.98832830       0.60000000      -0.00140894       0.00001975       0.00005098       0.00121513
Ni      22.89118661       5.32736526      35.19038443       0.60000000       0.14873044       0.00145290       0.00123423      -0.00574839
Ni      21.14400000       3.52400000      38.76400000       0.60000000       0.02201823       0.10927008       0.04466120      -0.06799826
Ni      21.14400000       5.28600000      40.52600000       0.60000000       0.00257225       0.00709075       0.01190188       0.00106177
Ni      22.90600000       3.52400000      40.52600000       0.60000000       0.02868796      -0.00209165       0.00211243      -0.10247893
Ni      22.90600000       5.28600000      38.76400000       0.60000000      -0.00393199      -0.00968699       0.07632900      -0.10528557
Ni      21.14400000       7.04800000       0.00000000       0.60000000       0.01080024      -0.01082022       0.01775617      -0.02858098
Ni      21.14400000       8.81000000       1.76200000       0.60000000       0.02220498      -0.05411814      -0.04420611       0.11868291
Ni      22.90600000       7.04800000       1.76200000       0.60000000       0.48046259      -0.10999271       0.06130873       0.26999522
Ni      22.90600000       8.81000000       0.00000000       0.60000000       0.01151350      -0.00997735       0.01091242      -0.01874919
Ni      21.11300690       7.02965242       3.60860304       0.60000000       0.42083230      -0.00373410       0.00431170      -0.00344427
Ni      22.80710951       8.84527095       3.58556237       0.60000000       0.54832265       0.00524128       0.00334832      -0.00058887
Ni      19.82930053       6.07506454       6.07512407       0.60000000       0.56927955      -0.00832598      -0.01460038      -0.01454364
Ni      20.26998701       7.84393487       7.84393375       0.60000000       0.80643342      -0.04410898      -0.01964248      -0.01964363
Ni      20.87673622       5.47070901       8.69982392       0.60000000       0.59175068       0.00533207      -0.00386361       0.00489597
Ni      20.87674025       8.69982851       5.47070680       0.60000000       0.59176236       0.00533501       0.00489866      -0.00386534
Ni      20.76541312       7.33977919      10.44201405       0.60000000       0.53224058       0.01016296       0.00230266      -0.00025108
Ni      21.02136569       7.32346960      14.16083265       0.60000000       0.07275401       0.00157753       0.00072998      -0.00122808
Ni      22.79108030       7.33501673      15.92838536       0.60000000       0.05566929       0.00222576      -0.00539871      -0.00083584
Ni      21.09455941       7.39842359      17.66848007       0.60000000       0.04670550       0.00242775      -0.00542473      -0.00141837
Ni      21.11873292       9.34390896      19.40529253       0.60000000       0.08456421       0.00062349      -0.00136390      -0.00278732
Ni      22.84995577       7.39500236      19.41319529       0.60000000       0.04596634       0.00141625       0.00524169       0.00097758
Ni      21.12782870       7.40682501      21.12782870       0.60000000       0.05531581       0.00360634       0.00433040       0.00360634
Ni      21.14226393       9.31490125      22.86491178       0.60000000       0.09005128       0.00000952       0.00093122      -0.00075014
Ni      22.86015814       7.36168872      22.86015814       0.60000000       0.04620784       0.00211226       0.00168318       0.00211226
Ni      22.86491178       9.31490125      21.14226393       0.60000000       0.09005128      -0.00075014       0.00093122       0.00000951
Ni      21.14081338       7.35415526      24.61567361       0.60000000       0.04919352       0.00174751       0.00292510       0.00065685
Ni      22.85505709       7.26787266      26.38116117       0.60000000       0.16074330      -0.00232861       0.00071213       0.00004704
Ni      22.85706895       9.21826328      24.60915918       0.60000000       0.20465662      -0.00046482      -0.00035677       0.00113528
Ni      21.12262814       7.26170255      28.16920944       0.60000000       0.35137992       0.00153978       0.00127432       0.00174026
Ni      22.84928623       7.16717700      29.90299713       0.60000000       0.36284715       0.02174653      -0.01186609      -0.00670072
Ni      21.04172957       8.83818016      33.32621139       0.60000000       0.46082601       0.04876770       0.03752041       0.03342412
Ni      22.86775616       7.12718997      33.37680961       0.60000000       0.33422378      -0.01108372       0.01610506       0.00187438
Ni      22.69846981       9.03033567      31.51166288       0.60000000       0.49149002      -0.01555243      -0.00762126       0.01633559
Ni      21.10772679       7.06657885      35.17664186       0.60000000       0.29077151       0.00423215      -0.01077518      -0.01649157
Ni      21.15012686       8.83953900      36.97392671       0.60000000       0.00774464      -0.02838479      -0.01954350       0.00648798
Ni      22.89120029       7.07455073      36.96973683       0.60000000       0.00464805       0.00368179      -0.01500029       0.01333093
Ni      22.85864045       8.85733213      35.15606021       0.60000000       0.02798370       0.00440341       0.01780727       0.02390079
Ni      21.14400000       7.04800000      38.76400000       0.60000000      -0.00139985       0.04759366       0.07650020      -0.05916533
Ni      21.14400000       8.81000000      40.52600000       0.60000000      -0.00493944      -0.00027271      -0.00057187       0.00886647
Ni      22.90600000       7.04800000      40.52600000       0.60000000       0.00068868      -0.00412109       0.00377531       0.00272952
Ni      22.90600000       8.81000000      38.76400000       0.60000000      -0.00101979      -0.01230089       0.08954954      -0.14125162
Ni      21.14400000      10.57200000       0.00000000       0.60000000      -0.00396231      -0.00129148      -0.00071782      -0.01158897
Ni      21.14400000      12.33400000       1.76200000       0.60000000       0.00214683      -0.07342069       0.08095512       0.18021289
Ni      22.90600000      10.57200000       1.76200000       0.60000000       0.02233291      -0.17516615       0.06859188       0.18226254
Ni      22.90600000      12.33400000       0.00000000       0.60000000      -0.00214111      -0.00067507      -0.00039624      -0.01799269
Ni      21.08851665      10.58909156       3.56672912       0.60000000       0.05328727      -0.00185414      -0.00287638       0.00145000
Ni      21.04097024      12.39380363       5.42062140       0.60000000       0.07638012      -0.00431853      -0.00176241       0.00136628
Ni      22.82810245      12.36418056       3.58812031       0.60000000       0.03448596      -0.00215756      -0.00058710       0.00127448
Ni      20.76541361      10.44201477       7.33977900       0.60000000       0.53224072       0.01016374      -0.00025050       0.00230222
Ni      20.29548059       9.77097961       9.77097946       0.60000000       0.60361171       0.00610976       0.01568805       0.01568770
Ni      20.06943562      11.58583845      11.58583846       0.60000000       0.30527641      -0.01141334       0.00338363       0.00338362
Ni      20.88911765       9.17708504      12.25043715       0.60000000       0.45631747       0.00248342       0.00408888      -0.00311511
Ni      20.88911764      12.25043727       9.17708509       0.60000000       0.45631741       0.00248342      -0.00311494       0.00408887
Ni      19.22709015       9.19153732      14.05476094       0.60000000       0.21779218       0.00626373       0.00054695      -0.00094392
Ni      19.28803472      11.15604228      15.80624516       0.60000000       0.29017444       0.00493202       0.00570096      -0.00103651
Ni      21.02237883       9.25120711      15.86988054       0.60000000       0.07792181       0.00457501       0.00607832       0.00059442
Ni      20.91212807      11.05946960      14.00665673       0.60000000       0.32874932       0.00903993       0.00939247      -0.00691005
Ni      21.11857764      11.17204982      17.59023477       0.60000000       0.25544291       0.00059264       0.00551875       0.00385223
Ni      21.14380261      11.33505008      21.14380261       0.60000000       0.30358055      -0.00449227      -0.00401983      -0.00449228
Ni      22.86662262      11.26765755      22.86662262       0.60000000       0.36651294       0.00006560       0.00400307       0.00006559
Ni      21.18497428      11.13276702      24.74489026       0.60000000       0.30668086       0.00032526      -0.00471335       0.00259724
Ni      21.19808014       9.18646361      26.49773362       0.60000000       0.22147889       0.00244032       0.00257766       0.00082370
Ni      20.16438643      11.54848505      29.04273644       0.60000000       0.31757568      -0.00073756       0.00735488       0.00021084
Ni      21.99171252       9.61187559      29.04428089       0.60000000       0.46889297      -0.00171148       0.00602804      -0.00485685
Ni      21.99662697      11.48183668      27.21193925       0.60000000       0.45032014       0.00114645       0.00601094       0.00679219
Ni      20.18221928       9.84751835      30.97830995       0.60000000       0.48457448      -0.00893922      -0.01400069      -0.00079095
Ni      21.20557520      12.44502995      33.29353114       0.60000000       0.17162128      -0.00849793      -0.00359623      -0.00823847
Ni      22.84667581      10.64779826      33.34253055       0.60000000       0.32678439       0.01970852       0.02262947      -0.00097653
Ni      21.88099045      11.58293023      30.98860101       0.60000000       0.60101684      -0.00270221      -0.01568620      -0.00221099
Ni      21.14948418      10.63637988      35.15431294       0.60000000       0.03690419       0.01246456       0.00198994       0.00857258
Ni      21.16637223      12.39343315      36.94543697       0.60000000       0.01310515      -0.02522055       0.01667741       0.03622084
Ni      22.89812387      10.61099567      36.95858505       0.60000000       0.00559855      -0.00014776       0.01307440       0.03909551
Ni      22.91262059      12.42797022      35.14640339       0.60000000       0.04087467      -0.01608408       0.00386626       0.00221785
Ni      21.14400000      10.57200000      38.76400000       0.60000000       0.00075655       0.03206673       0.13099167      -0.17994071
Ni      21.14400000      12.33400000      40.52600000       0.60000000      -0.00225314       0.00020101      -0.00017344       0.01733685
Ni      22.90600000      10.57200000      40.52600000       0.60000000      -0.00349664       0.00001978      -0.00027634       0.01355761
Ni      22.90600000      12.33400000      38.76400000       0.60000000       0.00368976       0.00314051       0.14793544      -0.24958713
Ni      21.14400000      14.09600000       0.00000000       0.60000000      -0.00223048      -0.00069578      -0.00014760      -0.01768101
Ni      21.14400000      15.85800000       1.76200000       0.60000000       0.00505163      -0.03676058       0.09369046       0.25968845
Ni      22.90600000      14.09600000       1.76200000       0.60000000       0.00528101      -0.11595538       0.07755335       0.25604740
Ni      22.90600000      15.85800000       0.00000000       0.60000000      -0.00112520      -0.00036925      -0.00000391      -0.02128293
Ni      21.11532245      14.13853496       3.58637067       0.60000000       0.01390503      -0.00182033      -0.00163704      -0.00344627
Ni      21.09454310      15.92165343       5.46962862       0.60000000       0.03047809      -0.00024848      -0.00177296      -0.00288631
Ni      22.78812322      14.16026809       5.44488969       0.60000000       0.04667290      -0.00306081      -0.00149613      -0.00562988
Ni      22.86279818      15.89587636       3.60004437       0.60000000       0.01805980      -0.00039903       0.00109539       0.00098452
Ni      21.02136565      14.16083264       7.32346961       0.60000000       0.07275399       0.00157749      -0.00122811       0.00073000
Ni      22.79108028      15.92838536       7.33501674       0.60000000       0.05566929       0.00222575      -0.00083584      -0.00539871
Ni      19.22709011      14.05476099       9.19153734       0.60000000       0.21779217       0.00626368      -0.00094385       0.00054698
Ni      19.28803471      15.80624518      11.15604228       0.60000000       0.29017443       0.00493199      -0.00103648       0.00570097
Ni      20.91212806      14.00665675      11.05946963       0.60000000       0.32874930       0.00903991      -0.00691000       0.00939250
Ni      21.02237881      15.86988055       9.25120711       0.60000000       0.07792181       0.00457499       0.00059444       0.00607833
Ni      19.89196794      13.40161179      13.40161180       0.60000000       0.18961492       0.06812201      -0.04177281      -0.04177279
Ni      19.94707488      15.17289438      15.17289438       0.60000000       0.10074599      -0.01646420       0.01350059       0.01350060
Ni      21.74478215      13.34426585      15.17486142       0.60000000       0.31165994      -0.01708843      -0.02295718      -0.03756190
Ni      21.74478215      15.17486142      13.34426586       0.60000000       0.31165993      -0.01708843      -0.03756190      -0.02295716
Ni      19.94276845      13.32908514      16.97348141       0.60000000       0.23414128      -0.00945259      -0.00060512       0.02166592
Cr      21.17948606      15.74992835      19.37498712       0.60000000       0.06306813      -0.00436492       0.00716793       0.01187008
Ni      21.77026239      13.33640238      18.74371942       0.60000000       0.24395973      -0.00608256      -0.00040536       0.00067709
Ni      21.78101288      15.17879164      16.95394648       0.60000000       0.14000792      -0.00069029       0.01111081       0.01149188
Cr      21.15425681      13.89465353      21.15425680       0.60000000       0.19214353       0.00327026       0.00798113       0.00327026
Cr      21.17129289      15.70877772      22.96720011       0.60000000       0.06149058       0.00316895      -0.00950447       0.00550399
Cr      22.93806819      13.85676096      22.93806819       0.60000000       0.22379391      -0.00330939       0.00237142      -0.00330939
Cr      22.96720011      15.70877772      21.17129289       0.60000000       0.06149058       0.00550399      -0.00950447       0.00316895
Ni      20.51881177      13.32810802      23.57666829       0.60000000       0.26253259       0.00036899       0.00374482      -0.00061555
Ni      20.43330411      15.21722711      25.36180125       0.60000000       0.12439181      -0.00756462      -0.00123585       0.00290122
Ni      22.25054354      13.34931919      25.40831638       0.60000000       0.33587053       0.00299092       0.00406980       0.01266530
Cr      22.93641248      15.72097896      24.76820081       0.60000000       0.10000252       0.00312313      -0.00081661       0.00259690
Ni      20.28866981      13.39293452      27.16707730       0.60000000       0.27175882      -0.00030504       0.00421779      -0.00105562
Ni      21.24171224      15.85713050      29.46285216       0.60000000       0.25304911       0.00076264       0.00212182       0.00950724
Ni      21.85656684      13.37069322      29.04886416       0.60000000       0.66990716      -0.00675486      -0.00369771       0.00662991
Ni      22.12950108      15.22030191      27.16378247       0.60000000       0.41818392       0.00049124       0.00581730       0.00360112
Ni      21.28169679      14.14326564      31.38454205       0.60000000       0.22798137       0.00783302       0.00510317       0.01033424
Ni      21.25003665      16.01800067      33.14920089       0.60000000       0.06227558       0.00231373      -0.00125149       0.00778069
Ni      22.95506886      14.24963085      33.28036898       0.60000000       0.19511683       0.00847341       0.00363173       0.00603683
Ni      23.00443065      16.04876341      31.30049458       0.60000000       0.37568978       0.00551828      -0.00281758       0.00381122
Ni      21.19966306      14.22204440      35.08810456       0.60000000       0.03446671       0.00684795       0.00179976      -0.00556632
Ni      21.18627150      15.94675022      36.90758409       0.60000000       0.03537632       0.00355923      -0.00710554      -0.00106835
Ni      22.92234113      14.17578051      36.93421577       0.60000000       0.02107318       0.01013281       0.00366655      -0.00653344
Ni      22.96523918      16.01654847      35.04882852       0.60000000       0.04754314       0.00525066       0.00228547       0.00454412
Ni      21.14400000      14.09600000      38.76400000       0.60000000       0.01056130       0.06253511       0.18237654      -0.30431665
Ni      21.14400000      15.85800000      40.52600000       0.60000000       0.00084697       0.00037688       0.00001445       0.02705814
Ni      22.90600000      14.09600000      40.52600000       0.60000000      -0.00108724       0.00033484      -0.00007046       0.02083388
Ni      22.90600000      15.85800000      38.76400000       0.60000000       0.01670408       0.05459699       0.21357321      -0.35936536
Ni      21.14400000      17.62000000       0.00000000       0.60000000      -0.00076577      -0.00020556      -0.00001532      -0.02253150
Ni      21.14400000      19.38200000       1.76200000       0.60000000       0.00602889      -0.02010402       0.02371674       0.31172557
Ni      22.90600000      17.62000000       1.76200000       0.60000000       0.00617033      -0.07277494       0.05882834       0.29525118
Ni      22.90600000      19.38200000       0.00000000       0.60000000      -0.00060097      -0.00005400       0.00008090      -0.02304460
Ni      21.12959047      17.64629487       3.60558793       0.60000000       0.01794872      -0.00015939      -0.00004208       0.00084102
Ni      21.12374408      19.39865548       5.49661676       0.60000000       0.03735952       0.00110566       0.00221433       0.00143227
Ni      22.84417025      17.67062727       5.48200870       0.60000000       0.03261218       0.00126228       0.00181202      -0.00107784
Ni      22.87896793      19.39392161       3.60713953       0.60000000       0.01873784       0.00130791      -0.00016026      -0.00112736
Ni      21.09455940      17.66848007       7.39842359       0.60000000       0.04670550       0.00242775      -0.00141836      -0.00542473
Ni      21.11873292      19.40529254       9.34390895       0.60000000       0.08456421       0.00062349      -0.00278731      -0.00136390
Ni      22.84995577      19.41319529       7.39500236       0.60000000       0.04596634       0.00141625       0.00097758       0.00524169
Ni      21.11857763      17.59023478      11.17204983       0.60000000       0.25544291       0.00059263       0.00385224       0.00551875
Ni      19.94276845      16.97348142      13.32908514       0.60000000       0.23414128      -0.00945259       0.02166592      -0.00060511
Cr      21.17948605      19.37498712      15.74992835       0.60000000       0.06306813      -0.00436492       0.01187008       0.00716794
Ni      21.78101288      16.95394648      15.17879164       0.60000000       0.14000792      -0.00069029       0.01149189       0.01111082
Ni      21.77026239      18.74371942      13.33640238       0.60000000       0.24395973      -0.00608256       0.00067709      -0.00040535
Cr      21.25145257      17.58954635      17.58954634       0.60000000       0.06259056       0.00882398       0.00831896       0.00831896
Cr      21.20132932      19.39314302      19.39314302       0.60000000       0.03975366       0.00010560      -0.00229296      -0.00229296
Cr      23.00681554      17.58282019      19.48523767       0.60000000       0.08484525       0.00302936      -0.00350124       0.00319212
Cr      23.00681554      19.48523767      17.58282019       0.60000000       0.08484525       0.00302936       0.00319212      -0.00350124
Cr      21.18117832      17.55820683      21.18117832       0.60000000       0.04823470       0.00971805      -0.00418921       0.00971805
Cr      21.23419087      19.39290202      22.97112192       0.60000000       0.03033030       0.00351636       0.00445703       0.00411814
Cr      22.97571710      17.53335887      22.97571710       0.60000000       0.03140230       0.00200212      -0.00313446       0.00200212
Cr      22.97112192      19.39290202      21.23419087       0.60000000       0.03033030       0.00411814       0.00445703       0.00351636
Cr      21.29294609      17.56844775      24.77436499       0.60000000       0.08601878       0.00303855      -0.00355711      -0.00106198
Cr      21.25115509      19.46465937      26.37979360       0.60000000       0.18673244      -0.00179499       0.00058341      -0.00223839
Cr      23.08351611      17.55682940      26.53256584       0.60000000       0.23810959      -0.00288568       0.00655952      -0.00197356
Cr      23.03776277      19.37828642      24.76193251       0.60000000       0.05041126       0.00111599       0.00291950       0.00194322
Ni      20.95953741      17.42128742      27.55633928       0.60000000       0.25053703       0.00536241       0.00986418       0.01299286
Ni      21.32513514      19.55555159      29.04193318       0.60000000       0.11043853       0.01076780       0.01074554       0.00783636
Ni      23.07945639      17.78082875      29.15010288       0.60000000       0.28251006       0.00209987      -0.00131470       0.00279249
Ni      21.28698368      17.79325785      31.14415379       0.60000000       0.11896222       0.00436962       0.00270200       0.00289232
Ni      21.28984804      19.55479563      33.01817860       0.60000000       0.09216914       0.00441302       0.00519732       0.00201143
Ni      23.01687332      17.81422941      33.09463089       0.60000000       0.08240031      -0.00255160      -0.00049902       0.00200641
Ni      23.08324655      19.54729706      31.08206102       0.60000000       0.11316881       0.00368197       0.00444419      -0.00016234
Ni      21.23932112      17.76801613      34.98829284       0.60000000       0.06279555      -0.00146457       0.00134645      -0.00224527
Ni      21.20580315      19.46318866      36.87070167       0.60000000       0.05678988       0.00045659       0.00108793      -0.00134400
Ni      22.95081578      17.71896643      36.88800192       0.60000000       0.04778259      -0.00169078       0.00145120       0.00211011
Ni      23.00791685      19.53932448      34.95135192       0.60000000       0.07694072       0.00065584       0.00315111      -0.00151942
Ni      21.14400000      17.62000000      38.76400000       0.60000000       0.02184391       0.09894499       0.18598234      -0.42396154
Ni      21.14400000      19.38200000      40.52600000       0.60000000       0.00357911       0.00036167       0.00029188       0.03533991
Ni      22.90600000      17.62000000      40.52600000       0.60000000       0.00238902       0.00044269       0.00015470       0.03172524
Ni      22.90600000      19.38200000      38.76400000       0.60000000       0.02773413       0.09331916       0.18248637      -0.49164340
Ni      21.14400000      21.14400000       0.00000000       0.60000000      -0.00041212      -0.00000009      -0.00000009      -0.02362711
Ni      21.14400000      22.90600000       1.76200000       0.60000000       0.00578349      -0.01706372      -0.05559521       0.30471014
Ni      22.90600000      21.14400000       1.76200000       0.60000000       0.00578348      -0.05559521      -0.01706372       0.30471014
Ni      22.90600000      22.90600000       0.00000000       0.60000000      -0.00100681       0.00004525       0.00004525      -0.02174804
Ni      21.13651826      21.13651826       3.60967140       0.60000000       0.01922951      -0.00112155      -0.00112155      -0.00110724
Ni      21.13411791      22.86613173       5.48388946       0.60000000       0.03493811      -0.00021041       0.00155583       0.00264159
Ni      22.86613173      21.13411791       5.48388946       0.60000000       0.03493811       0.00155583      -0.00021041       0.00264159
Ni      22.88470602      22.88470602       3.60085121       0.60000000       0.01592134      -0.00131495      -0.00131495       0.00431780
Ni      21.12782870      21.12782870       7.40682500       0.60000000       0.05531581       0.00360634       0.00360634       0.00433040
Ni      21.14226393      22.86491178       9.31490125       0.60000000       0.09005128       0.00000952      -0.00075014       0.00093122
Ni      22.86491178      21.14226393       9.31490125       0.60000000       0.09005128      -0.00075014       0.00000951       0.00093122
Ni      22.86015814      22.86015814       7.36168872       0.60000000       0.04620784       0.00211226       0.00211226       0.00168318
Ni      21.14380261      21.14380261      11.33505008       0.60000000       0.30358055      -0.00449227      -0.00449227      -0.00401983
Ni      22.86662262      22.86662262      11.26765755       0.60000000       0.36651294       0.00006560       0.00006560       0.00400307
Cr      21.15425680      21.15425680      13.89465353       0.60000000       0.19214353       0.00327026       0.00327026       0.00798113
Cr      21.17129289      22.96720011      15.70877772       0.60000000       0.06149058       0.00316895       0.00550399      -0.00950447
Cr      22.96720011      21.17129289      15.70877772       0.60000000       0.06149058       0.00550399       0.00316895      -0.00950447
Cr      22.93806819      22.93806819      13.85676096       0.60000000       0.22379391      -0.00330939      -0.00330939       0.00237142
Cr      21.18117832      21.18117832      17.55820683       0.60000000       0.04823470       0.00971805       0.00971805      -0.00418921
Cr      21.23419087      22.97112192      19.39290202       0.60000000       0.03033030       0.00351636       0.00411814       0.00445703
Cr      22.97112192      21.23419087      19.39290202       0.60000000       0.03033030       0.00411814       0.00351636       0.00445703
Cr      22.97571710      22.97571710      17.53335887       0.60000000       0.03140230       0.00200212       0.00200212      -0.00313446
Cr      21.20321057      21.20321057      21.20321057       0.60000000       0.02101659       0.00545338       0.00545338       0.00545338
Cr      21.20811714      23.00716930      23.00716930       0.60000000       0.03881019       0.00728577       0.00513227       0.00513227
Cr      23.00716930      21.20811714      23.00716930       0.60000000       0.03881019       0.00513227       0.00728577       0.00513227
Cr      23.00716930      23.00716930      21.20811714       0.60000000       0.03881019       0.00513227       0.00513227       0.00728577
Cr      21.23588339      21.23588339      24.70387912       0.60000000       0.06718579       0.00039910       0.00039910      -0.00143110
Ni      21.69341254      21.69341254      27.29505528       0.60000000       0.11713290      -0.00227865      -0.00227865       0.00197135
Ni      21.32642785      21.32642785      31.03794991       0.60000000       0.11975686       0.00316526       0.00316526       0.00205869
Ni      21.32051243      23.07034119      32.98180986       0.60000000       0.08793276       0.00426432       0.00389606      -0.00123758
Ni      23.07034119      21.32051243      32.98180986       0.60000000       0.08793276       0.00389606       0.00426432      -0.00123758
Ni      21.27183196      21.27183196      34.92802163       0.60000000       0.08356149       0.00635689       0.00635689      -0.00052805
Ni      21.22564781      22.96826325      36.85247407       0.60000000       0.06996055       0.00149411       0.00156921      -0.00143096
Ni      22.96826325      21.22564781      36.85247407       0.60000000       0.06996055       0.00156921       0.00149411      -0.00143096
Ni      23.04157236      23.04157236      34.90006489       0.60000000       0.09022172       0.00526511       0.00526511      -0.00352939
Ni      21.14400000      21.14400000      38.76400000       0.60000000       0.02893011       0.12956070       0.12956070      -0.52138709
Ni      21.14400000      22.90600000      40.52600000       0.60000000       0.00497144       0.00038725       0.00042291       0.03924638
Ni      22.90600000      21.14400000      40.52600000       0.60000000       0.00497144       0.00042291       0.00038725       0.03924638
Ni      22.90600000      22.90600000      38.76400000       0.60000000       0.03420861       0.11884197       0.11884197      -0.58281827
Ni      21.14400000      24.66800000       0.00000000       0.60000000      -0.00130996       0.00004763       0.00013570      -0.02080901
Ni      21.14400000      26.43000000       1.76200000       0.60000000       0.00376041      -0.01965546      -0.12087856       0.22222856
Ni      22.90600000      24.66800000       1.76200000       0.60000000       0.00452448      -0.05486578      -0.08637755       0.26289188
Ni      22.90600000      26.43000000       0.00000000       0.60000000      -0.00249154      -0.00010654       0.00019727      -0.01699981
Ni      21.13765362      24.63493108       3.59740946       0.60000000       0.01503364       0.00074167       0.00243108       0.00396528
Ni      21.12822210      26.38073032       5.43403440       0.60000000       0.02819976       0.00223141      -0.00110954      -0.00276979
Ni      22.86638806      24.61758613       5.44893095       0.60000000       0.02385618      -0.00036268       0.00134807      -0.00096813
Ni      22.88500671      26.39205148       3.58158785       0.60000000       0.00962991       0.00281748       0.00069260       0.00044560
Ni      21.14081338      24.61567361       7.35415526       0.60000000       0.04919352       0.00174751       0.00065685       0.00292510
Ni      22.85706895      24.60915918       9.21826328       0.60000000       0.20465662      -0.00046482       0.00113528      -0.00035677
Ni      22.85505709      26.38116117       7.26787266       0.60000000       0.16074330      -0.00232861       0.00004704       0.00071213
Ni      21.18497428      24.74489026      11.13276702       0.60000000       0.30668086       0.00032526       0.00259724      -0.00471335
Ni      20.51881177      23.57666829      13.32810802       0.60000000       0.26253259       0.00036899      -0.00061555       0.00374481
Ni      20.43330411      25.36180125      15.21722711       0.60000000       0.12439181      -0.00756462       0.00290122      -0.00123585
Cr      22.93641248      24.76820081      15.72097896       0.60000000       0.10000252       0.00312313       0.00259690      -0.00081661
Ni      22.25054354      25.40831638      13.34931919       0.60000000       0.33587053       0.00299092       0.01266530       0.00406980
Cr      21.29294609      24.77436499      17.56844775       0.60000000       0.08601878       0.00303855      -0.00106198      -0.00355711
Cr      21.25115509      26.37979360      19.46465937       0.60000000       0.18673244      -0.00179499      -0.00223839       0.00058341
Cr      23.03776277      24.76193251      19.37828642       0.60000000       0.05041126       0.00111599       0.00194322       0.00291950
Cr      23.08351611      26.53256584      17.55682940       0.60000000       0.23810959      -0.00288568      -0.00197356       0.00655952
Cr      21.23588339      24.70387912      21.23588339       0.60000000       0.06718579       0.00039910      -0.00143110       0.00039910
Ni      20.01669399      25.38453407      25.38453407       0.60000000       0.09225760      -0.00411682      -0.00202538      -0.00202538
Ni      21.73630809      23.54491580      25.44380359       0.60000000       0.07920372      -0.00305420      -0.00180258      -0.00314637
Ni      21.73630809      25.44380359      23.54491580       0.60000000       0.07920372      -0.00305420      -0.00314637      -0.00180258
Ni      19.82781958      23.43643117      27.33507194       0.60000000       0.15956526      -0.00188445       0.00257865      -0.00091794
Ni      19.51948371      24.97814155      29.31568755       0.60000000       0.12756990       0.00227303      -0.00311696      -0.00206071
Ni      21.41086669      23.22386553      29.26004881       0.60000000       0.13138534       0.00511739       0.00334644      -0.00172230
Ni      21.55187915      25.13343388      27.40209352       0.60000000       0.20783400       0.00080770      -0.00047016      -0.00593001
Ni      21.34922766      26.64063644      33.01977197       0.60000000       0.09105069       0.00113551       0.00337136       0.00098118
Ni      23.11356973      24.88011234      32.98894017       0.60000000       0.09491867       0.00398606       0.00430631      -0.00167344
Ni      21.33515281      24.92638818      31.13809417       0.60000000       0.08813114       0.00138441       0.00257055      -0.00087322
Ni      21.30519026      24.78985896      34.91722523       0.60000000       0.08583803       0.00237733       0.00312685      -0.00233555
Ni      21.25260518      26.49129034      36.84883968       0.60000000       0.07764063      -0.00002340       0.00002814      -0.00074867
Ni      22.98530428      24.73133010      36.83780774       0.60000000       0.08066636       0.00234587       0.00346877      -0.00120586
Ni      23.07933897      26.58439958      34.90029004       0.60000000       0.10687749       0.00372126       0.00361645      -0.00142852
Ni      21.14400000      24.66800000      38.76400000       0.60000000       0.03378614       0.17441650       0.09334465      -0.55203376
Ni      21.14400000      26.43000000      40.52600000       0.60000000       0.00529022       0.00049563       0.00055687       0.04020301
Ni      22.90600000      24.66800000      40.52600000       0.60000000       0.00606714       0.00053860       0.00049844       0.04227199
Ni      22.90600000      26.43000000      38.76400000       0.60000000       0.03671831       0.14813537       0.09016436      -0.59954983
Ni      21.14400000      28.19200000       0.00000000       0.60000000      -0.00357515       0.00001174       0.00021276      -0.01319550
Ni      21.14400000      29.95400000       1.76200000       0.60000000       0.00309477      -0.02176583      -0.10302585       0.16374217
Ni      22.90600000      28.19200000       1.76200000       0.60000000       0.00085212      -0.04099560      -0.12460093       0.17844315
Ni      22.90600000      29.95400000       0.00000000       0.60000000      -0.00465825      -0.00000546       0.00017361      -0.00965615
Ni      21.13370032      28.15108559       3.56525052       0.60000000       0.01965347       0.00130413       0.00141390      -0.00178641
Ni      21.14528445      29.88917210       5.34145352       0.60000000       0.50420114      -0.00727542       0.00544459      -0.00194123
Ni      22.87480175      28.13081707       5.38360692       0.60000000       0.04155966      -0.00182042      -0.00099317      -0.00836454
Ni      22.89685701      29.91768341       3.55170214       0.60000000       0.01452804      -0.00247082       0.00118433      -0.00356485
Ni      21.12262814      28.16920944       7.26170255       0.60000000       0.35137992       0.00153978       0.00174026       0.00127432
Ni      22.84928623      29.90299713       7.16717700       0.60000000       0.36284715       0.02174653      -0.00670072      -0.01186609
Ni      21.19808014      26.49773362       9.18646361       0.60000000       0.22147889       0.00244032       0.00082370       0.00257766
Ni      20.16438643      29.04273644      11.54848505       0.60000000       0.31757568      -0.00073756       0.00021084       0.00735488
Ni      21.99662697      27.21193925      11.48183668       0.60000000       0.45032014       0.00114645       0.00679219       0.00601094
Ni      21.99171252      29.04428089       9.61187559       0.60000000       0.46889297      -0.00171148      -0.00485685       0.00602804
Ni      20.28866981      27.16707730      13.39293452       0.60000000       0.27175882      -0.00030504      -0.00105562       0.00421779
Ni      21.24171224      29.46285216      15.85713050       0.60000000       0.25304911       0.00076264       0.00950724       0.00212182
Ni      22.12950108      27.16378247      15.22030191       0.60000000       0.41818392       0.00049124       0.00360112       0.00581730
Ni      21.85656684      29.04886416      13.37069322       0.60000000       0.66990716      -0.00675486       0.00662991      -0.00369771
Ni      20.95953741      27.55633928      17.42128742       0.60000000       0.25053703       0.00536241       0.01299286       0.00986418
Ni      21.32513514      29.04193318      19.55555159       0.60000000       0.11043853       0.01076780       0.00783636       0.01074554
Ni      23.07945639      29.15010288      17.78082875       0.60000000       0.28251006       0.00209987       0.00279249      -0.00131470
Ni      21.69341254      27.29505528      21.69341254       0.60000000       0.11713290      -0.00227865       0.00197135      -0.00227865
Ni      19.82781958      27.33507194      23.43643117       0.60000000       0.15956526      -0.00188445      -0.00091794       0.00257865
Ni      19.51948371      29.31568755      24.97814155       0.60000000       0.12756990       0.00227303      -0.00206071      -0.00311696
Ni      21.55187915      27.40209352      25.13343388       0.60000000       0.20783400       0.00080770      -0.00593001      -0.00047016
Ni      21.41086669      29.26004881      23.22386553       0.60000000       0.13138534       0.00511739      -0.00172230       0.00334644
Ni      20.11145734      27.18192534      27.18192534       0.60000000       0.14915886      -0.00182891      -0.00075643      -0.00075643
Ni      20.16570369      29.01423015      29.01423015       0.60000000       0.15442730       0.00265565      -0.00016868      -0.00016868
Ni      21.32721143      26.77211268      29.33420433       0.60000000       0.16321372       0.00284494       0.00155541      -0.00084289
Ni      21.32721143      29.33420433      26.77211268       0.60000000       0.16321372       0.00284494      -0.00084289       0.00155541
Ni      19.50110420      26.70474687      31.21418379       0.60000000       0.11642543      -0.00045821      -0.00139541       0.00168388
Ni      21.30921132      28.52823936      31.18759746       0.60000000       0.16777356       0.00232137      -0.00078688       0.00425572
Ni      21.35685326      28.35947734      34.92304648       0.60000000       0.10828497       0.00107384       0.00057347      -0.00119098
Ni      21.27411131      30.03664197      36.84851130       0.60000000       0.11245800       0.00152452       0.00104761      -0.00030541
Ni      23.00395155      28.26387544      36.83958010       0.60000000       0.10043730       0.00025403       0.00165726      -0.00146545
Ni      21.14400000      28.19200000      38.76400000       0.60000000       0.03772980       0.22335361       0.09833606      -0.52992909
Ni      21.14400000      29.95400000      40.52600000       0.60000000       0.00535959       0.00074084       0.00232081       0.03898597
Ni      22.90600000      28.19200000      40.52600000       0.60000000       0.00584668       0.00100671       0.00096781       0.04180057
Ni      22.90600000      29.95400000      38.76400000       0.60000000       0.04515778       0.14913310       0.12028688      -0.55652502
Ni      21.14400000      31.71600000       0.00000000       0.60000000      -0.00506469       0.00006564       0.00012939      -0.00723155
Ni      21.14400000      33.47800000       1.76200000       0.60000000       0.02930530      -0.03242789      -0.05171289       0.03333508
Ni      22.90600000      31.71600000       1.76200000       0.60000000       0.00076798      -0.01264052      -0.08955399       0.11961427
Ni      22.90600000      33.47800000       0.00000000       0.60000000       0.00004171      -0.00389823      -0.00400998       0.00033059
Ni      21.13825455      31.69382110       3.54486851       0.60000000       0.31257261      -0.00274645       0.00368035      -0.00521164
Ni      22.89584826      31.66971531       5.32757967       0.60000000       0.32312049       0.00773671      -0.00030571      -0.00627781
Ni      22.90225274      33.45329316       3.54520480       0.60000000       0.14557430      -0.00146018       0.00262302       0.00098424
Ni      21.04172957      33.32621139       8.83818016       0.60000000       0.46082601       0.04876770       0.03342412       0.03752041
Ni      22.69846981      31.51166288       9.03033567       0.60000000       0.49149002      -0.01555243       0.01633559      -0.00762126
Ni      22.86775616      33.37680961       7.12718997       0.60000000       0.33422378      -0.01108372       0.00187438       0.01610506
Ni      20.18221928      30.97830995       9.84751835       0.60000000       0.48457448      -0.00893922      -0.00079095      -0.01400069
Ni      21.20557520      33.29353114      12.44502995       0.60000000       0.17162128      -0.00849793      -0.00823847      -0.00359623
Ni      21.88099045      30.98860101      11.58293023       0.60000000       0.60101684      -0.00270221      -0.00221099      -0.01568620
Ni      22.84667581      33.34253055      10.64779826       0.60000000       0.32678439       0.01970852      -0.00097653       0.02262947
Ni      21.28169679      31.38454205      14.14326564       0.60000000       0.22798137       0.00783302       0.01033424       0.00510317
Ni      21.25003665      33.14920089      16.01800067       0.60000000       0.06227558       0.00231373       0.00778069      -0.00125149
Ni      23.00443065      31.30049458      16.04876341       0.60000000       0.37568978       0.00551828       0.00381122      -0.00281758
Ni      22.95506886      33.28036898      14.24963085       0.60000000       0.19511683       0.00847341       0.00603683       0.00363173
Ni      21.28698368      31.14415379      17.79325785       0.60000000       0.11896222       0.00436962       0.00289232       0.00270200
Ni      21.28984804      33.01817860      19.55479563       0.60000000       0.09216914       0.00441302       0.00201143       0.00519732
Ni      23.08324655      31.08206102      19.54729706       0.60000000       0.11316881       0.00368197      -0.00016234       0.00444419
Ni      23.01687332      33.09463089      17.81422941       0.60000000       0.08240031      -0.00255160       0.00200641      -0.00049902
Ni      21.32642785      31.03794991      21.32642785       0.60000000       0.11975686       0.00316526       0.00205869       0.00316526
Ni      21.32051243      32.98180986      23.07034119       0.60000000       0.08793276       0.00426432      -0.00123758       0.00389606
Ni      23.07034119      32.98180986      21.32051243       0.60000000       0.08793276       0.00389606      -0.00123758       0.00426432
Ni      21.34922766      33.01977197      26.64063644       0.60000000       0.09105069       0.00113551       0.00098118       0.00337136
Ni      21.33515281      31.13809417      24.92638818       0.60000000       0.08813114       0.00138441      -0.00087322       0.00257055
Ni      23.11356973      32.98894017      24.88011234       0.60000000       0.09491867       0.00398606      -0.00167344       0.00430631
Ni      19.50110420      31.21418379      26.70474687       0.60000000       0.11642543      -0.00045821       0.00168388      -0.00139541
Ni      21.30921132      31.18759746      28.52823936       0.60000000       0.16777356       0.00232137       0.00425572      -0.00078688
Ni      20.21496418      30.84206548      30.84206548       0.60000000       0.42244456       0.00472298       0.00089371       0.00089371
Ni      20.30197731      32.68849789      32.68849789       0.60000000       0.62479687       0.00335152       0.00059765       0.00059765
Ni      21.35632988      30.28708713      33.03758073       0.60000000       0.28320569       0.00172827       0.00084380       0.00185023
Ni      21.35632988      33.03758073      30.28708713       0.60000000       0.28320569       0.00172827       0.00185023       0.00084380
Ni      21.33478362      33.70526635      36.76110848       0.60000000       0.40646064      -0.00677356      -0.00637269       0.00625101
Ni      22.98500943      31.83746002      36.84690900       0.60000000       0.40204394       0.00054573      -0.00024581       0.00218686
Ni      21.32069577      32.02868519      34.90066277       0.60000000       0.37319869       0.00018995      -0.00001852       0.00221765
Ni      21.14400000      31.71600000      38.76400000       0.60000000       0.06896736       0.27649563       0.17188939      -0.49130526
Ni      21.14400000      33.47800000      40.52600000       0.60000000       0.01836858      -0.00811101      -0.01260686       0.05863744
Ni      22.90600000      31.71600000      40.52600000       0.60000000       0.01734692      -0.00586405      -0.00856074       0.04148226
Ni      22.90600000      33.47800000      38.76400000       0.60000000       0.42427051       0.02756394       0.08571358      -0.38696755
Ni      21.14400000      35.24000000       0.00000000       0.60000000       0.00413950       0.00512516      -0.01152989      -0.00079224
Ni      21.14400000      37.00200000       1.76200000       0.60000000       0.02620752       0.13292666      -0.05902245       0.06973992
Ni      22.90600000      35.24000000       1.76200000       0.60000000      -0.00101272      -0.00734477      -0.05371931       0.08636430
Ni      22.90600000      37.00200000       0.00000000       0.60000000       0.03083007       0.00321907      -0.00494822       0.09652345
Ni      21.14859568      35.21853398       3.54763701       0.60000000       0.17402576       0.00307917       0.00206274       0.00018373
Ni      21.14027519      36.98785217       5.30294056       0.60000000       0.03271334      -0.00664107      -0.00235769      -0.00405798
Ni      22.89118661      35.19038443       5.32736526       0.60000000       0.14873044       0.00145290      -0.00574839       0.00123423
Ni      22.90455388      36.98832830       3.53839858       0.60000000      -0.00140894       0.00001975       0.00121513       0.00005098
Ni      21.10772679      35.17664186       7.06657885       0.60000000       0.29077151       0.00423215      -0.01649157      -0.01077518
Ni      21.15012686      36.97392671       8.83953900       0.60000000       0.00774464      -0.02838479       0.00648798      -0.01954350
Ni      22.85864045      35.15606021       8.85733213       0.60000000       0.02798370       0.00440341       0.02390079       0.01780727
Ni      22.89120029      36.96973683       7.07455073       0.60000000       0.00464805       0.00368179       0.01333093      -0.01500029
Ni      21.14948418      35.15431294      10.63637988       0.60000000       0.03690419       0.01246456       0.00857258       0.00198994
Ni      21.16637223      36.94543697      12.39343315       0.60000000       0.01310515      -0.02522055       0.03622084       0.01667741
Ni      22.91262059      35.14640339      12.42797022       0.60000000       0.04087467      -0.01608408       0.00221785       0.00386626
Ni      22.89812387      36.95858505      10.61099567       0.60000000       0.00559855      -0.00014776       0.03909551       0.01307440
Ni      21.19966306      35.08810456      14.22204440       0.60000000       0.03446671       0.00684795      -0.00556632       0.00179976
Ni      21.18627150      36.90758409      15.94675022       0.60000000       0.03537632       0.00355923      -0.00106835      -0.00710554
Ni      22.96523918      35.04882852      16.01654847       0.60000000       0.04754314       0.00525066       0.00454412       0.00228547
Ni      22.92234113      36.93421577      14.17578051       0.60000000       0.02107318       0.01013281      -0.00653344       0.00366655
Ni      21.23932112      34.98829284      17.76801613       0.60000000       0.06279555      -0.00146457      -0.00224527       0.00134645
Ni      21.20580315      36.87070167      19.46318866       0.60000000       0.05678988       0.00045659      -0.00134400       0.00108793
Ni      23.00791685      34.95135192      19.53932448       0.60000000       0.07694072       0.00065584      -0.00151942       0.00315111
Ni      22.95081578      36.88800192      17.71896643       0.60000000       0.04778259      -0.00169078       0.00211011       0.00145120
Ni      21.27183196      34.92802163      21.27183196       0.60000000       0.08356149       0.00635689      -0.00052805       0.00635689
Ni      21.22564781      36.85247407      22.96826325       0.60000000       0.06996055       0.00149411      -0.00143096       0.00156921
Ni      23.04157236      34.90006489      23.04157236       0.60000000       0.09022172       0.00526511      -0.00352939       0.00526511
Ni      22.96826325      36.85247407      21.22564781       0.60000000       0.06996055       0.00156921      -0.00143096       0.00149411
Ni      21.30519026      34.91722523      24.78985896       0.60000000       0.08583803       0.00237733      -0.00233555       0.00312685
Ni      21.25260518      36.84883968      26.49129034       0.60000000       0.07764063      -0.00002340      -0.00074867       0.00002814
Ni      23.07933897      34.90029004      26.58439958       0.60000000       0.10687749       0.00372126      -0.00142852       0.00361645
Ni      22.98530428      36.83780774      24.73133010       0.60000000       0.08066636       0.00234587      -0.00120586       0.00346877
Ni      21.35685326      34.92304648      28.35947734       0.60000000       0.10828497       0.00107384      -0.00119098       0.00057347
Ni      21.27411131      36.84851130      30.03664197       0.60000000       0.11245800       0.00152452      -0.00030541       0.00104761
Ni      23.00395155      36.83958010      28.26387544       0.60000000       0.10043730       0.00025403      -0.00146545       0.00165726
Ni      21.33478362      36.76110848      33.70526635       0.60000000       0.40646064      -0.00677356       0.00625101      -0.00637269
Ni      21.32069577      34.90066277      32.02868519       0.60000000       0.37319869       0.00018995       0.00221765      -0.00001852
Ni      22.98500943      36.84690900      31.83746002       0.60000000       0.40204394       0.00054573       0.00218686      -0.00024581
Ni      20.19417743      34.52873066      34.52873066       0.60000000       0.49478332       0.00355420       0.00165052       0.00165052
Ni      21.18959630      37.00383512      37.00383512       0.60000000       0.40452150       0.00084042       0.00019555       0.00019555
Ni      21.14400000      35.24000000      38.76400000       0.60000000       0.28496639       0.12732775       0.05616864      -0.17038633
Ni      21.14400000      37.00200000      40.52600000       0.60000000       0.12022530       0.11352004       0.02724393      -0.12044741
Ni      22.90600000      35.24000000      40.52600000       0.60000000       0.27835527       0.11104836       0.13141873      -0.11160757
Ni      21.14400000      38.76400000       0.00000000       0.60000000       0.00100269       0.00533542       0.01088686       0.00331443
Ni      21.14400000      40.52600000       1.76200000       0.60000000       0.00102079       0.00514650      -0.00342423      -0.01082412
Ni      22.90600000      38.76400000       1.76200000       0.60000000      -0.00569065      -0.00038658      -0.03875441       0.03837193
Ni      22.90600000      40.52600000       0.00000000       0.60000000       0.00195873      -0.00191096       0.00756092       0.00256541
Ni      21.14400000      38.76400000       3.52400000       0.60000000       0.02201823       0.10927008      -0.06799826       0.04466120
Ni      21.14400000      40.52600000       5.28600000       0.60000000       0.00257225       0.00709075       0.00106177       0.01190188
Ni      22.90600000      38.76400000       5.28600000       0.60000000      -0.00393199      -0.00968699      -0.10528557       0.07632900
Ni      22.90600000      40.52600000       3.52400000       0.60000000       0.02868796      -0.00209165      -0.10247893       0.00211243
Ni      21.14400000      38.76400000       7.04800000       0.60000000      -0.00139985       0.04759366      -0.05916533       0.07650020
Ni      21.14400000      40.52600000       8.81000000       0.60000000      -0.00493944      -0.00027271       0.00886647      -0.00057187
Ni      22.90600000      38.76400000       8.81000000       0.60000000      -0.00101979      -0.01230089      -0.14125162       0.08954954
Ni      22.90600000      40.52600000       7.04800000       0.60000000       0.00068868      -0.00412110       0.00272953       0.00377531
Ni      21.14400000      38.76400000      10.57200000       0.60000000       0.00075655       0.03206673      -0.17994071       0.13099167
Ni      21.14400000      40.52600000      12.33400000       0.60000000      -0.00225314       0.00020101       0.01733685      -0.00017344
Ni      22.90600000      38.76400000      12.33400000       0.60000000       0.00368976       0.00314051      -0.24958713       0.14793544
Ni      22.90600000      40.52600000      10.57200000       0.60000000      -0.00349664       0.00001978       0.01355761      -0.00027634
Ni      21.14400000      38.76400000      14.09600000       0.60000000       0.01056130       0.06253511      -0.30431665       0.18237654
Ni      21.14400000      40.52600000      15.85800000       0.60000000       0.00084697       0.00037688       0.02705814       0.00001445
Ni      22.90600000      38.76400000      15.85800000       0.60000000       0.01670408       0.05459699      -0.35936536       0.21357321
Ni      22.90600000      40.52600000      14.09600000       0.60000000      -0.00108724       0.00033484       0.02083388      -0.00007046
Ni      21.14400000      38.76400000      17.62000000       0.60000000       0.02184391       0.09894499      -0.42396154       0.18598234
Ni      21.14400000      40.52600000      19.38200000       0.60000000       0.00357911       0.00036167       0.03533991       0.00029188
Ni      22.90600000      38.76400000      19.38200000       0.60000000       0.02773413       0.09331916      -0.49164340       0.18248637
Ni      22.90600000      40.52600000      17.62000000       0.60000000       0.00238902       0.00044269       0.03172524       0.00015470
Ni      21.14400000      38.76400000      21.14400000       0.60000000       0.02893011       0.12956070      -0.52138709       0.12956070
Ni      21.14400000      40.52600000      22.90600000       0.60000000       0.00497144       0.00038725       0.03924638       0.00042291
Ni      22.90600000      38.76400000      22.90600000       0.60000000       0.03420861       0.11884197      -0.58281827       0.11884197
Ni      22.90600000      40.52600000      21.14400000       0.60000000       0.00497144       0.00042291       0.03924638       0.00038725
Ni      21.14400000      38.76400000      24.66800000       0.60000000       0.03378614       0.17441650      -0.55203376       0.09334465
Ni      21.14400000      40.52600000      26.43000000       0.60000000       0.00529022       0.00049563       0.04020301       0.00055687
Ni      22.90600000      38.76400000      26.43000000       0.60000000       0.03671831       0.14813537      -0.59954983       0.09016436
Ni      22.90600000      40.52600000      24.66800000       0.60000000       0.00606714       0.00053860       0.04227199       0.00049844
Ni      21.14400000      38.76400000      28.19200000       0.60000000       0.03772980       0.22335361      -0.52992909       0.09833606
Ni      21.14400000      40.52600000      29.95400000       0.60000000       0.00535959       0.00074084       0.03898597       0.00232081
Ni      22.90600000      38.76400000      29.95400000       0.60000000       0.04515778       0.14913310      -0.55652502       0.12028688
Ni      22.90600000      40.52600000      28.19200000       0.60000000       0.00584668       0.00100671       0.04180057       0.00096781
Ni      21.14400000      38.76400000      31.71600000       0.60000000       0.06896736       0.27649563      -0.49130526       0.17188939
Ni      21.14400000      40.52600000      33.47800000       0.60000000       0.01836858      -0.00811101       0.05863744      -0.01260686
Ni      22.90600000      38.76400000      33.47800000       0.60000000       0.42427051       0.02756394      -0.38696755       0.08571358
Ni      22.90600000      40.52600000      31.71600000       0.60000000       0.01734692      -0.00586405       0.04148226      -0.00856074
Ni      21.14400000      38.76400000      35.24000000       0.60000000       0.28496639       0.12732775      -0.17038633       0.05616864
Ni      21.14400000      40.52600000      37.00200000       0.60000000       0.12022530       0.11352004      -0.12044741       0.02724393
Ni      22.90600000      40.52600000      35.24000000       0.60000000       0.27835527       0.11104836      -0.11160757       0.13141873
Ni      21.14400000      38.76400000      38.76400000       0.60000000       0.16795073       0.09993858      -0.08776825      -0.08776825
Ni      21.14400000      40.52600000      40.52600000       0.60000000      -0.00026722      -0.01029451       0.01087641       0.01087641
Ni      22.90600000      38.76400000      40.52600000       0.60000000       0.21025446       0.02339315      -0.16825673      -0.31434429
Ni      22.90600000      40.52600000      38.76400000       0.60000000       0.21025446       0.02339315      -0.31434429      -0.16825673
Ni      24.66800000       0.00000000       0.00000000       0.60000000       0.07873643       0.54340914       0.07214105       0.07214105
Ni      24.66800000       1.76200000       1.76200000       0.60000000       1.00251454       3.34251012      -2.67888946      -2.67888946
Ni      24.66800000       0.00000000       3.52400000       0.60000000       0.48884236       0.02249976       0.42058877      -0.02241939
Ni      26.43000000       0.00000000       5.28600000       0.60000000       0.65391867       0.01053065       0.45143139      -0.00166600
Ni      24.66800000       0.00000000       7.04800000       0.60000000       0.30022442       0.09169674       0.05060308      -0.08973929
Ni      24.66800000       1.76200000       8.81000000       0.60000000       0.49730857      -0.14256122       0.26824547       0.10167172
Ni      26.43000000       0.00000000       8.81000000       0.60000000       0.30030037       0.09066291       0.05155155      -0.09065659
Ni      24.66800000       0.00000000      10.57200000       0.60000000       0.01151670      -0.00986970      -0.01716671       0.00972475
Ni      24.66800000       1.76200000      12.33400000       0.60000000       0.02400274      -0.20184110       0.22015173       0.11450752
Ni      26.43000000       0.00000000      12.33400000       0.60000000       0.01126148      -0.00989569      -0.01612036       0.00972601
Ni      26.43000000       1.76200000      10.57200000       0.60000000       0.49783923      -0.13839477       0.26633529       0.10658692
Ni      24.66800000       0.00000000      14.09600000       0.60000000      -0.00168252      -0.00016152      -0.01928151      -0.00014793
Ni      24.66800000       1.76200000      15.85800000       0.60000000       0.00603022      -0.12242504       0.27901215       0.08577105
Ni      26.43000000       0.00000000      15.85800000       0.60000000      -0.00187680       0.00036627      -0.01867727       0.00026576
Ni      26.43000000       1.76200000      14.09600000       0.60000000       0.02361747      -0.17749549       0.22246402       0.14982913
Ni      24.66800000       0.00000000      17.62000000       0.60000000      -0.00112258      -0.00007951      -0.02139497       0.00024218
Ni      24.66800000       1.76200000      19.38200000       0.60000000       0.00553286      -0.10093799       0.27502722       0.02126236
Ni      26.43000000       0.00000000      19.38200000       0.60000000      -0.00222207       0.00033699      -0.01777706       0.00013758
Ni      26.43000000       1.76200000      17.62000000       0.60000000       0.00600381      -0.14267699       0.22424445       0.06108465
Ni      24.66800000       0.00000000      21.14400000       0.60000000      -0.00130996       0.00013570      -0.02080901       0.00004763
Ni      24.66800000       1.76200000      22.90600000       0.60000000       0.00452448      -0.08637755       0.26289188      -0.05486578
Ni      26.43000000       0.00000000      22.90600000       0.60000000      -0.00249154       0.00019727      -0.01699981      -0.00010654
Ni      26.43000000       1.76200000      21.14400000       0.60000000       0.00376041      -0.12087856       0.22222856      -0.01965546
Ni      24.66800000       0.00000000      24.66800000       0.60000000      -0.00209837       0.00001803      -0.01825682       0.00001803
Ni      24.66800000       1.76200000      26.43000000       0.60000000       0.00234058      -0.07878337       0.21248787      -0.10522682
Ni      26.43000000       0.00000000      26.43000000       0.60000000      -0.00332505       0.00006041      -0.01429021       0.00006041
Ni      26.43000000       1.76200000      24.66800000       0.60000000       0.00234058      -0.10522682       0.21248787      -0.07878337
Ni      24.66800000       0.00000000      28.19200000       0.60000000      -0.00369148      -0.00008920      -0.01310623       0.00022888
Ni      24.66800000       1.76200000      29.95400000       0.60000000      -0.00130694      -0.03653112       0.13986686      -0.10550410
Ni      26.43000000       0.00000000      29.95400000       0.60000000       0.00102153      -0.00383915      -0.00357726      -0.00368006
Ni      26.43000000       1.76200000      28.19200000       0.60000000      -0.00016687      -0.07887986       0.16986755      -0.10002580
Ni      24.66800000       0.00000000      31.71600000       0.60000000       0.00038770      -0.00383703      -0.00129997      -0.00379083
Ni      24.66800000       1.76200000      33.47800000       0.60000000      -0.00345169      -0.02266603       0.10819586      -0.07088294
Ni      26.43000000       0.00000000      33.47800000       0.60000000       0.04242283       0.00559659       0.08511465       0.00513759
Ni      26.43000000       1.76200000      31.71600000       0.60000000      -0.00295580      -0.04212088       0.12282755      -0.08706498
Ni      24.66800000       0.00000000      35.24000000       0.60000000       0.04133913       0.00553337       0.08662675       0.00182297
Ni      24.66800000       1.76200000      37.00200000       0.60000000      -0.00098499      -0.01712196       0.08512281      -0.05608343
Ni      26.43000000       0.00000000      37.00200000       0.60000000       0.29777320       0.06573598      -0.09920277       0.08866910
Ni      26.43000000       1.76200000      35.24000000       0.60000000       0.00050049      -0.03396472       0.10145900      -0.06051431
Ni      24.66800000       0.00000000      38.76400000       0.60000000       0.15306335       0.18381297      -0.00720231       0.10683922
Ni      24.66800000       1.76200000      40.52600000       0.60000000       0.11022859       0.25165846      -0.14842476       0.13669257
Ni      26.43000000       0.00000000      40.52600000       0.60000000       8.44746821     -25.37678352      26.00007438     -51.45214368
Ni      26.43000000       1.76200000      38.76400000       0.60000000       0.03389372       0.11973408       0.02642849       0.08764642
Ni      24.66800000       3.52400000       0.00000000       0.60000000       0.48884236       0.02249977      -0.02241939       0.42058877
Ni      26.43000000       5.28600000       0.00000000       0.60000000       0.65391867       0.01053065      -0.00166600       0.45143139
Ni      23.49333333       2.93666667       2.93666667       0.60000000       1.25694402      -3.29069038       2.61990718       2.61990706
Ni      24.67226973       5.26320421       5.26320409       0.60000000       0.90380088      -0.00735097       0.00302836       0.00302827
Ni      25.25533333       2.93666667       4.69866667       0.60000000       0.81199320       0.09352051      -0.46159038      -0.06699976
Ni      25.25533333       4.69866667       2.93666667       0.60000000       0.81199317       0.09352043      -0.06699977      -0.46159061
Ni      26.49432614       5.26977925       7.03245733       0.60000000       0.51106019      -0.00328494       0.00357407      -0.00697389
Ni      24.56807777       3.57901716      10.62546894       0.60000000       0.54999017       0.00303970       0.00002629       0.00100911
Ni      26.34419382       3.57296703      12.39985786       0.60000000       0.54509677       0.00055387       0.00065598       0.00031588
Ni      24.59311467       3.58958627      14.13922137       0.60000000       0.03230723       0.00096111       0.00058294       0.00121508
Ni      24.56128126       5.44623259      15.93053353       0.60000000       0.04399681       0.00205193      -0.00262569       0.00341353
Ni      26.36711222       3.59034943      15.90784039       0.60000000       0.03518670       0.00329850      -0.00082257       0.00061266
Ni      24.61937644       3.60002034      17.64905721       0.60000000       0.01739675       0.00371017       0.00039667       0.00149338
Ni      24.60426947       5.46946891      19.41190210       0.60000000       0.03113070       0.00219494       0.00545321      -0.00044869
Ni      26.38403144       3.58610258      19.39070941       0.60000000       0.01746266       0.00215300       0.00198466       0.00188850
Ni      26.33968509       5.44328448      17.68585767       0.60000000       0.07076713       0.00582862       0.00144357      -0.00016465
Ni      24.63493109       3.59740946      21.13765363       0.60000000       0.01503364       0.00243108       0.00396528       0.00074167
Ni      24.61758613       5.44893095      22.86638806       0.60000000       0.02385618       0.00134807      -0.00096813      -0.00036268
Ni      26.39205148       3.58158785      22.88500671       0.60000000       0.00962991       0.00069260       0.00044560       0.00281748
Ni      26.38073032       5.43403440      21.12822211       0.60000000       0.02819977      -0.00110954      -0.00276979       0.00223142
Ni      24.63645465       3.58615220      24.63645465       0.60000000       0.01108551       0.00251655       0.00688667       0.00251655
Ni      24.61673945       5.40698964      26.36913099       0.60000000       0.01866358       0.00204213       0.00575030       0.00171599
Ni      26.39533129       3.57030771      26.39533129       0.60000000       0.00660140       0.00138055       0.00562445       0.00138055
Ni      26.36913099       5.40698964      24.61673945       0.60000000       0.01866358       0.00171599       0.00575030       0.00204213
Ni      24.64393228       3.56615193      28.15286349       0.60000000       0.00525491       0.00046423       0.00078225       0.00213851
Ni      24.62855408       5.35931097      29.89326421       0.60000000       0.01173860       0.00832831      -0.00491359      -0.00123978
Ni      26.40523256       3.55686044      29.91912368       0.60000000       0.00104695       0.00015022       0.00013711      -0.00057834
Ni      26.37510052       5.37153481      28.13014485       0.60000000       0.00889764      -0.00117051       0.00730185      -0.00233779
Ni      24.65788501       3.54899638      31.68550384       0.60000000       0.00409337       0.00364731      -0.00521298       0.00209832
Ni      24.65873531       5.33212032      33.43487161       0.60000000       0.03354687      -0.00279152      -0.00305920      -0.01064800
Ni      26.41691739       3.54505636      33.45466190       0.60000000      -0.00255756       0.00084923      -0.00072691       0.00305758
Ni      26.39509403       5.34029154      31.66255719       0.60000000       0.00048944       0.00100113       0.00156836       0.00470707
Ni      24.66034386       3.54278359      35.22078371       0.60000000       0.00065777       0.00027632       0.00128419       0.00088492
Ni      24.65597711       5.30992315      36.97920620       0.60000000      -0.00213852      -0.00336708       0.00050199       0.00074032
Ni      26.42367907       3.53644903      36.99046544       0.60000000      -0.00539436      -0.00559065       0.00416488      -0.00039267
Ni      26.40981093       5.32014865      35.21074507       0.60000000       0.00021373       0.00572493      -0.00395739       0.00456029
Ni      24.66800000       3.52400000      38.76400000       0.60000000      -0.00110024      -0.01712376       0.06673096      -0.09579831
Ni      24.66800000       5.28600000      40.52600000       0.60000000       0.04159483       0.00490023       0.00874223      -0.09687873
Ni      26.43000000       3.52400000      40.52600000       0.60000000       0.25955831       0.24057334      -0.25321053       0.15098895
Ni      26.43000000       5.28600000      38.76400000       0.60000000       0.00059475      -0.04559590       0.07090365      -0.11810610
Ni      24.66800000       7.04800000       0.00000000       0.60000000       0.30022441       0.09169681      -0.08973930       0.05060300
Ni      24.66800000       8.81000000       1.76200000       0.60000000       0.49730843      -0.14255992       0.10167195       0.26824459
Ni      26.43000000       8.81000000       0.00000000       0.60000000       0.30030037       0.09066293      -0.09065659       0.05155152
Ni      26.49432615       7.03245736       5.26977923       0.60000000       0.51106018      -0.00328493      -0.00697387       0.00357406
Ni      24.79081338       7.03114638       7.03114636       0.60000000       1.04706002       0.00089395      -0.00054173      -0.00054176
Ni      24.80811666       8.78132307       8.78132306       0.60000000       1.05503061       0.00345632      -0.00037437      -0.00037438
Ni      26.54916005       7.04010302       8.79125608       0.60000000       0.53692649      -0.00332286      -0.00033145      -0.00702811
Ni      26.54916005       8.79125609       7.04010302       0.60000000       0.53692648      -0.00332285      -0.00702810      -0.00033146
Ni      22.66851019       5.42709858      10.58663457       0.60000000       0.57454527       0.00167917      -0.00257373       0.00316635
Ni      22.65399845       7.25472697      12.35626707       0.60000000       0.57467264      -0.00328225      -0.00254648       0.00346602
Ni      24.49318709       5.40033210      12.40414291       0.60000000       0.55725395       0.00015992      -0.00235835       0.00249617
Ni      26.54863613       8.79239413      10.54096199       0.60000000       0.54089032      -0.00675506       0.00552386       0.00056043
Ni      24.49489659       7.23694748      14.18013951       0.60000000       0.55944661      -0.00527740      -0.00165331       0.00156111
Ni      24.57921121       7.33410408      17.70025465       0.60000000       0.05439862       0.00082207       0.00441669      -0.00033153
Ni      26.37790856       7.31895117      19.43759757       0.60000000       0.09434099      -0.00060260       0.00018829      -0.00043972
Ni      24.61567361       7.35415526      21.14081338       0.60000000       0.04919352       0.00065686       0.00292510       0.00174751
Ni      24.60915918       9.21826328      22.85706895       0.60000000       0.20465662       0.00113528      -0.00035677      -0.00046482
Ni      26.38116117       7.26787266      22.85505709       0.60000000       0.16074330       0.00004704       0.00071213      -0.00232861
Ni      24.59811846       7.28183278      24.59811846       0.60000000       0.04045852      -0.00470206      -0.00135250      -0.00470206
Ni      24.58894410       9.08294843      26.34918311       0.60000000       0.27712172      -0.00196222      -0.00093789       0.00095558
Ni      26.35410939       7.21468853      26.35410939       0.60000000       0.02276371      -0.00037136      -0.00232257      -0.00037136
Ni      26.34918311       9.08294843      24.58894410       0.60000000       0.27712172       0.00095558      -0.00093789      -0.00196222
Ni      24.60137449       7.20645833      28.12641870       0.60000000       0.13320851       0.00250550       0.00039484      -0.01247167
Ni      26.37149395       7.14978635      29.88117562       0.60000000       0.01101465       0.00834367      -0.00017643      -0.00303842
Ni      26.35342364       8.99153177      28.11441660       0.60000000       0.04660687       0.00831375       0.00216832      -0.00485610
Ni      24.62310935       7.13158656      31.64557983       0.60000000       0.08201174      -0.00035075      -0.00023760      -0.00345847
Ni      24.60718959       8.89810674      33.37543118       0.60000000       0.16823131      -0.02840527      -0.00202117      -0.02048894
Ni      26.39298177       7.10696613      33.42630925       0.60000000       0.00646304       0.00583720       0.00851885      -0.00447274
Ni      26.39154900       8.88826328      31.65405685       0.60000000       0.15765423       0.00380837       0.00845262       0.00625296
Ni      24.63593409       7.10298775      35.18379001       0.60000000       0.00961935       0.00475367      -0.00544359      -0.00596486
Ni      24.64366153       8.84192502      36.96559331       0.60000000       0.00181081       0.01414179      -0.01310627       0.02667924
Ni      26.41128600       7.07468803      36.97758943       0.60000000      -0.00195698      -0.00413809       0.00980588      -0.00150509
Ni      26.39193762       8.86598946      35.18468949       0.60000000       0.00673700      -0.00037339       0.00031513      -0.01019468
Ni      24.66800000       7.04800000      38.76400000       0.60000000      -0.00290365      -0.05378599       0.08656265      -0.14466248
Ni      24.66800000       8.81000000      40.52600000       0.60000000       0.00131968      -0.00373097       0.00374963       0.00479993
Ni      26.43000000       7.04800000      40.52600000       0.60000000       0.04259266       0.00493366      -0.00478327      -0.08259709
Ni      26.43000000       8.81000000      38.76400000       0.60000000      -0.00239580      -0.07232080       0.08678940      -0.15509099
Ni      24.66800000      10.57200000       0.00000000       0.60000000       0.01151669      -0.00986971       0.00972477      -0.01716669
Ni      24.66800000      12.33400000       1.76200000       0.60000000       0.02400271      -0.20184062       0.11450837       0.22015102
Ni      26.43000000      10.57200000       1.76200000       0.60000000       0.49783918      -0.13839423       0.10658701       0.26633494
Ni      26.43000000      12.33400000       0.00000000       0.60000000       0.01126147      -0.00989570       0.00972601      -0.01612036
Ni      24.56807833      10.62546937       3.57901705       0.60000000       0.54998997       0.00304013       0.00100943       0.00002621
Ni      26.34419404      12.39985803       3.57296701       0.60000000       0.54509671       0.00055408       0.00031606       0.00065596
Ni      22.66851163      10.58663572       5.42709834       0.60000000       0.57454478       0.00168004       0.00316688      -0.00257381
Ni      22.65399861      12.35626732       7.25472709       0.60000000       0.57467252      -0.00328201       0.00346625      -0.00254644
Ni      26.54863613      10.54096200       8.79239413       0.60000000       0.54089032      -0.00675506       0.00056044       0.00552386
Ni      24.49318754      12.40414334       5.40033208       0.60000000       0.55725380       0.00016024       0.00249648      -0.00235837
Ni      24.78510779      10.51390762      10.51390762       0.60000000       1.20939902       0.00110008       0.00438973       0.00438973
Ni      22.17917407      12.76510335      12.76510335       0.60000000       0.83899767      -0.01168303      -0.00239946      -0.00239946
Ni      26.48025563      10.53692508      12.27892867       0.60000000       0.67780018       0.00224142       0.00688538       0.00862043
Ni      26.48025563      12.27892867      10.53692508       0.60000000       0.67780018       0.00224142       0.00862044       0.00688538
Ni      22.71104577       9.12241003      14.12604908       0.60000000       0.56951120       0.00276962       0.00470180      -0.00358124
Ni      22.81027759      11.06552040      15.82246449       0.60000000       0.53197938      -0.00813284       0.00969078       0.00158882
Ni      24.55245196       9.11336583      15.94212520       0.60000000       0.56583482      -0.00721035       0.00504792      -0.00638075
Ni      26.24133745      12.27437616      13.99330186       0.60000000       0.68094933      -0.00619640       0.00845458       0.00633938
Ni      22.83382968       9.25418463      17.65887081       0.60000000       0.07495526       0.00029384       0.00206989      -0.00101445
Ni      22.91747905      11.15914016      19.39253605       0.60000000       0.26562504       0.00490485       0.00595952       0.00288985
Ni      24.64691482       9.24485536      19.45162747       0.60000000       0.08146350       0.00295729       0.00167049      -0.00087395
Ni      24.64776303      11.05497832      17.66114646       0.60000000       0.54433770      -0.00638433       0.00129935      -0.00632025
Ni      24.74489026      11.13276702      21.18497428       0.60000000       0.30668086       0.00259724      -0.00471335       0.00032526
Ni      24.60328447      11.07519010      24.60328446       0.60000000       0.43861314      -0.00022840      -0.00497572      -0.00022840
Ni      26.36121932      10.87932049      26.36121932       0.60000000       0.08929014      -0.00085145      -0.00086627      -0.00085145
Ni      24.42837989      10.68747518      28.18377443       0.60000000       0.60012029      -0.00455975       0.00707406      -0.00208778
Ni      26.37210278      10.67234464      29.91986067       0.60000000       0.33633788       0.00760798       0.00796398       0.00250543
Ni      26.35811634      12.47425337      28.26222385       0.60000000       0.39148140       0.00055740      -0.00070215      -0.00162331
Ni      24.56905388       8.94141033      29.90631289       0.60000000       0.37376856       0.01028740      -0.01541007      -0.01044278
Ni      24.65345423      12.44258424      33.36491643       0.60000000       0.31305098      -0.00678081      -0.00981032      -0.03485597
Ni      26.39127283      10.66322004      33.39386047       0.60000000       0.15049694       0.01237736      -0.00603196       0.00329993
Ni      26.43571419      12.49358038      31.60247187       0.60000000       0.34890749      -0.00164269      -0.00515144       0.01472763
Ni      24.63133754      10.63650722      35.17361441       0.60000000       0.03487823       0.01154467      -0.00427193      -0.00820324
Ni      24.66129429      12.39151561      36.95833145       0.60000000       0.00870237      -0.01632703      -0.01549651      -0.01854106
Ni      26.40806821      10.60769017      36.97020851       0.60000000       0.00236196      -0.00429406       0.00377210      -0.01042947
Ni      26.40565297      12.42054875      35.17102217       0.60000000       0.01383890      -0.01106752      -0.00746732      -0.01432386
Ni      24.66800000      10.57200000      38.76400000       0.60000000      -0.00045518      -0.05232563       0.11011307      -0.19694102
Ni      24.66800000      12.33400000      40.52600000       0.60000000      -0.00301063       0.00037174      -0.00004161       0.01478151
Ni      26.43000000      10.57200000      40.52600000       0.60000000       0.00124745      -0.00356668       0.00380891       0.00422740
Ni      26.43000000      12.33400000      38.76400000       0.60000000       0.00150273      -0.04977523       0.14330649      -0.20442567
Ni      24.66800000      14.09600000       0.00000000       0.60000000      -0.00168253      -0.00016152      -0.00014793      -0.01928149
Ni      24.66800000      15.85800000       1.76200000       0.60000000       0.00603022      -0.12242500       0.08577123       0.27901199
Ni      26.43000000      14.09600000       1.76200000       0.60000000       0.02361746      -0.17749528       0.14982947       0.22246371
Ni      26.43000000      15.85800000       0.00000000       0.60000000      -0.00187681       0.00036627       0.00026576      -0.01867726
Ni      24.59311476      14.13922147       3.58958623       0.60000000       0.03230720       0.00096118       0.00121515       0.00058291
Ni      24.56128126      15.93053353       5.44623259       0.60000000       0.04399679       0.00205194       0.00341354      -0.00262569
Ni      26.36711226      15.90784043       3.59034941       0.60000000       0.03518670       0.00329855       0.00061271      -0.00082259
Ni      24.49489666      14.18013962       7.23694753       0.60000000       0.55944657      -0.00527730       0.00156124      -0.00165328
Ni      22.71104578      14.12604914       9.12241008       0.60000000       0.56951117       0.00276965      -0.00358116       0.00470184
Ni      22.81027758      15.82246451      11.06552042       0.60000000       0.53197937      -0.00813284       0.00158885       0.00969080
Ni      26.24133745      13.99330186      12.27437616       0.60000000       0.68094933      -0.00619640       0.00633938       0.00845458
Ni      24.55245197      15.94212523       9.11336586       0.60000000       0.56583481      -0.00721033      -0.00638070       0.00504795
Ni      24.13015718      13.88301738      13.88301738       0.60000000       0.68969068      -0.02919989       0.00250556       0.00250556
Ni      23.89499769      15.56065111      15.56065111       0.60000000       0.25429894      -0.00907155       0.00217949       0.00217949
Ni      25.91622388      13.94292606      15.73993640       0.60000000       0.34952864       0.00088937       0.00124478       0.00531827
Ni      25.91622388      15.73993640      13.94292606       0.60000000       0.34952864       0.00088937       0.00531827       0.00124478
Ni      23.57727866      13.35868502      16.88859614       0.60000000       0.41406355       0.00879635       0.00636184      -0.00494773
Ni      23.57424958      15.19957359      18.70313810       0.60000000       0.12885620       0.00618740       0.00895884      -0.00481953
Ni      25.33929673      13.34628468      18.64225842       0.60000000       0.40728470       0.00255998      -0.00601294       0.00431643
Ni      25.76120065      15.60378858      17.45872145       0.60000000       0.16155022       0.01782709       0.01385124       0.00206582
Ni      23.57666829      13.32810802      20.51881178       0.60000000       0.26253259      -0.00061555       0.00374481       0.00036899
Cr      24.76820081      15.72097896      22.93641248       0.60000000       0.10000252       0.00259690      -0.00081661       0.00312313
Ni      25.40831638      13.34931919      22.25054354       0.60000000       0.33587053       0.01266530       0.00406980       0.00299092
Ni      25.36180125      15.21722711      20.43330411       0.60000000       0.12439181       0.00290122      -0.00123585      -0.00756462
Cr      24.68055713      14.00044544      24.68055713       0.60000000       0.33629306       0.00419472       0.00292295       0.00419472
Cr      24.76791392      15.80445286      26.59761393       0.60000000       0.40672368      -0.00113679       0.00462168      -0.00354913
Cr      26.44285469      14.05473574      26.44285469       0.60000000       0.49348429       0.00044424      -0.00063470       0.00044424
Cr      26.59761393      15.80445286      24.76791392       0.60000000       0.40672368      -0.00354913       0.00462168      -0.00113679
Ni      24.37963489      12.54697682      26.60213206       0.60000000       0.58460452       0.00183042      -0.00325311      -0.00273831
Ni      25.40356643      16.68278868      29.06684493       0.60000000       0.53435728       0.00159937       0.00012720       0.00065197
Ni      26.49595152      14.50785968      29.86479904       0.60000000       0.60433798      -0.00056088       0.00110585       0.00132657
Ni      24.73537918      14.29348835      31.55632831       0.60000000       0.71612786       0.00168414       0.00046430       0.01281299
Ni      24.75198941      16.06998811      33.23183715       0.60000000       0.17445665       0.00526200       0.00949494       0.00591244
Ni      26.44900518      14.25332451      33.36851746       0.60000000       0.14168363      -0.01396568      -0.01543736       0.01180087
Ni      27.17973780      16.69686169      30.97436366       0.60000000       0.38456053      -0.00037310       0.00092907       0.00146095
Ni      24.68269980      14.23074956      35.12360386       0.60000000       0.03020717      -0.00880839      -0.02323180      -0.01508772
Ni      24.69168119      15.95771774      36.91954931       0.60000000       0.03130566      -0.00234037      -0.01012275      -0.01112754
Ni      26.42565475      14.16886728      36.95052667       0.60000000       0.01368042      -0.01056613      -0.00962584      -0.00977051
Ni      26.47469927      16.02502349      35.10663638       0.60000000       0.05118170       0.00412369      -0.00126257      -0.00447128
Ni      24.66800000      14.09600000      38.76400000       0.60000000       0.00875659      -0.00457301       0.20008006      -0.27780354
Ni      24.66800000      15.85800000      40.52600000       0.60000000       0.00017590       0.00042104       0.00002125       0.02481729
Ni      26.43000000      14.09600000      40.52600000       0.60000000      -0.00237210       0.00045348      -0.00007868       0.01683817
Ni      26.43000000      15.85800000      38.76400000       0.60000000       0.01354267      -0.00080424       0.23156539      -0.30821030
Ni      24.66800000      17.62000000       0.00000000       0.60000000      -0.00112258      -0.00007951       0.00024218      -0.02139497
Ni      24.66800000      19.38200000       1.76200000       0.60000000       0.00553286      -0.10093799       0.02126235       0.27502723
Ni      26.43000000      17.62000000       1.76200000       0.60000000       0.00600381      -0.14267699       0.06108472       0.22424438
Ni      26.43000000      19.38200000       0.00000000       0.60000000      -0.00222207       0.00033699       0.00013758      -0.01777706
Ni      24.61937643      17.64905720       3.60002034       0.60000000       0.01739675       0.00371017       0.00149337       0.00039667
Ni      24.60426946      19.41190210       5.46946891       0.60000000       0.03113070       0.00219494      -0.00044870       0.00545321
Ni      26.33968509      17.68585767       5.44328448       0.60000000       0.07076712       0.00582864      -0.00016464       0.00144356
Ni      26.38403144      19.39070940       3.58610258       0.60000000       0.01746266       0.00215300       0.00188849       0.00198466
Ni      24.57921120      17.70025464       7.33410408       0.60000000       0.05439861       0.00082206      -0.00033153       0.00441669
Ni      26.37790855      19.43759756       7.31895117       0.60000000       0.09434099      -0.00060260      -0.00043972       0.00018829
Ni      22.83382967      17.65887081       9.25418463       0.60000000       0.07495526       0.00029383      -0.00101445       0.00206989
Ni      22.91747905      19.39253605      11.15914016       0.60000000       0.26562504       0.00490484       0.00288985       0.00595952
Ni      24.64776303      17.66114647      11.05497833       0.60000000       0.54433769      -0.00638433      -0.00632023       0.00129936
Ni      24.64691482      19.45162747       9.24485536       0.60000000       0.08146350       0.00295728      -0.00087394       0.00167049
Ni      23.57727866      16.88859615      13.35868502       0.60000000       0.41406354       0.00879635      -0.00494773       0.00636185
Ni      23.57424958      18.70313810      15.19957359       0.60000000       0.12885620       0.00618740      -0.00481952       0.00895885
Ni      25.76120065      17.45872145      15.60378858       0.60000000       0.16155022       0.01782709       0.00206582       0.01385124
Ni      25.33929673      18.64225842      13.34628468       0.60000000       0.40728470       0.00255999       0.00431643      -0.00601294
Ni      23.83913344      17.24497650      17.24497650       0.60000000       0.19648257       0.01698701       0.00882641       0.00882641
Cr      24.66589922      19.47271785      19.47271785       0.60000000       0.10011567      -0.00599869       0.00433407       0.00433407
Ni      25.71554739      17.33423075      19.10324589       0.60000000       0.14563973       0.01923884       0.01591997       0.01459500
Ni      25.71554739      19.10324589      17.33423075       0.60000000       0.14563973       0.01923884       0.01459500       0.01591997
Cr      24.77436499      17.56844775      21.29294609       0.60000000       0.08601878      -0.00106198      -0.00355711       0.00303855
Cr      24.76193251      19.37828642      23.03776277       0.60000000       0.05041126       0.00194322       0.00291950       0.00111599
Cr      26.53256584      17.55682940      23.08351611       0.60000000       0.23810959      -0.00197356       0.00655952      -0.00288568
Cr      26.37979360      19.46465937      21.25115509       0.60000000       0.18673244      -0.00223839       0.00058341      -0.00179499
Cr      24.77747633      17.54441652      24.77747633       0.60000000       0.05898370       0.00045622       0.00600375       0.00045622
Ni      25.40717601      18.26697113      27.17674444       0.60000000       0.14424424      -0.00419471       0.00007528      -0.00468594
Ni      24.84699040      17.77396981      31.24077297       0.60000000       0.21821876      -0.00121542      -0.00052310       0.00055089
Ni      24.81874312      19.57262216      33.04557575       0.60000000       0.08019825       0.00169762      -0.00087483      -0.00238701
Ni      26.55833745      17.82193175      33.16644474       0.60000000       0.17755125       0.00238790       0.00015042       0.00171615
Ni      24.74822192      17.80266649      35.01633330       0.60000000       0.06264637      -0.00024768       0.00332982       0.00468449
Ni      24.72026987      19.48877026      36.86978032       0.60000000       0.06201336       0.00021958       0.00176375       0.00006252
Ni      26.46971681      17.73726519      36.90176979       0.60000000       0.04495529       0.00255051       0.00326056      -0.00075216
Ni      26.54664418      19.57453080      34.97081528       0.60000000       0.07287180      -0.00177510      -0.00105400      -0.00084517
Ni      24.66800000      17.62000000      38.76400000       0.60000000       0.02324432       0.06456996       0.23397471      -0.41462032
Ni      24.66800000      19.38200000      40.52600000       0.60000000       0.00384607       0.00048179       0.00031319       0.03595603
Ni      26.43000000      17.62000000      40.52600000       0.60000000       0.00153482       0.00061412       0.00001648       0.02907735
Ni      26.43000000      19.38200000      38.76400000       0.60000000       0.03078222       0.08195548       0.24161708      -0.46852531
Ni      24.66800000      21.14400000       0.00000000       0.60000000      -0.00130996       0.00013570       0.00004763      -0.02080901
Ni      24.66800000      22.90600000       1.76200000       0.60000000       0.00452448      -0.08637755      -0.05486578       0.26289188
Ni      26.43000000      21.14400000       1.76200000       0.60000000       0.00376041      -0.12087856      -0.01965546       0.22222856
Ni      26.43000000      22.90600000       0.00000000       0.60000000      -0.00249154       0.00019727      -0.00010654      -0.01699981
Ni      24.63493108      21.13765362       3.59740946       0.60000000       0.01503364       0.00243108       0.00074167       0.00396528
Ni      24.61758613      22.86638806       5.44893095       0.60000000       0.02385618       0.00134807      -0.00036268      -0.00096813
Ni      26.38073032      21.12822210       5.43403440       0.60000000       0.02819977      -0.00110954       0.00223142      -0.00276979
Ni      26.39205148      22.88500671       3.58158785       0.60000000       0.00962991       0.00069260       0.00281748       0.00044560
Ni      24.61567361      21.14081338       7.35415526       0.60000000       0.04919352       0.00065685       0.00174751       0.00292510
Ni      24.60915918      22.85706895       9.21826328       0.60000000       0.20465662       0.00113528      -0.00046482      -0.00035677
Ni      26.38116117      22.85505709       7.26787266       0.60000000       0.16074330       0.00004704      -0.00232861       0.00071213
Ni      24.74489026      21.18497428      11.13276702       0.60000000       0.30668086       0.00259724       0.00032526      -0.00471335
Ni      23.57666829      20.51881178      13.32810802       0.60000000       0.26253259      -0.00061555       0.00036899       0.00374481
Cr      24.76820081      22.93641248      15.72097896       0.60000000       0.10000252       0.00259690       0.00312313      -0.00081661
Ni      25.36180125      20.43330411      15.21722711       0.60000000       0.12439181       0.00290122      -0.00756462      -0.00123585
Ni      25.40831638      22.25054354      13.34931919       0.60000000       0.33587053       0.01266530       0.00299092       0.00406980
Cr      24.77436499      21.29294609      17.56844775       0.60000000       0.08601878      -0.00106198       0.00303855      -0.00355711
Cr      24.76193251      23.03776277      19.37828642       0.60000000       0.05041126       0.00194322       0.00111599       0.00291950
Cr      26.37979360      21.25115509      19.46465937       0.60000000       0.18673244      -0.00223839      -0.00179499       0.00058341
Cr      26.53256584      23.08351611      17.55682940       0.60000000       0.23810959      -0.00197356      -0.00288568       0.00655952
Cr      24.70387912      21.23588339      21.23588339       0.60000000       0.06718579      -0.00143110       0.00039910       0.00039910
Ni      23.54491580      21.73630809      25.44380359       0.60000000       0.07920372      -0.00180258      -0.00305420      -0.00314637
Ni      25.38453407      20.01669399      25.38453407       0.60000000       0.09225760      -0.00202538      -0.00411682      -0.00202538
Ni      25.44380359      21.73630809      23.54491580       0.60000000       0.07920372      -0.00314637      -0.00305420      -0.00180258
Ni      23.43643117      19.82781958      27.33507194       0.60000000       0.15956526       0.00257865      -0.00188445      -0.00091794
Ni      23.22386553      21.41086669      29.26004881       0.60000000       0.13138534       0.00334644       0.00511739      -0.00172230
Ni      24.97814155      19.51948371      29.31568755       0.60000000       0.12756990      -0.00311696       0.00227303      -0.00206071
Ni      25.13343388      21.55187915      27.40209352       0.60000000       0.20783400      -0.00047016       0.00080770      -0.00593001
Ni      24.88011234      23.11356973      32.98894017       0.60000000       0.09491867       0.00430631       0.00398606      -0.00167344
Ni      26.64063644      21.34922766      33.01977197       0.60000000       0.09105069       0.00337136       0.00113551       0.00098118
Ni      24.92638818      21.33515281      31.13809417       0.60000000       0.08813114       0.00257055       0.00138441      -0.00087322
Ni      24.78985896      21.30519026      34.91722523       0.60000000       0.08583803       0.00312685       0.00237733      -0.00233555
Ni      24.73133010      22.98530428      36.83780774       0.60000000       0.08066636       0.00346877       0.00234587      -0.00120586
Ni      26.49129034      21.25260518      36.84883968       0.60000000       0.07764063       0.00002814      -0.00002340      -0.00074867
Ni      26.58439958      23.07933897      34.90029004       0.60000000       0.10687749       0.00361645       0.00372126      -0.00142852
Ni      24.66800000      21.14400000      38.76400000       0.60000000       0.03378614       0.09334465       0.17441650      -0.55203376
Ni      24.66800000      22.90600000      40.52600000       0.60000000       0.00606714       0.00049844       0.00053860       0.04227199
Ni      26.43000000      21.14400000      40.52600000       0.60000000       0.00529022       0.00055687       0.00049563       0.04020301
Ni      26.43000000      22.90600000      38.76400000       0.60000000       0.03671831       0.09016436       0.14813537      -0.59954983
Ni      24.66800000      24.66800000       0.00000000       0.60000000      -0.00209837       0.00001803       0.00001803      -0.01825682
Ni      24.66800000      26.43000000       1.76200000       0.60000000       0.00234058      -0.07878337      -0.10522682       0.21248787
Ni      26.43000000      24.66800000       1.76200000       0.60000000       0.00234058      -0.10522682      -0.07878337       0.21248787
Ni      26.43000000      26.43000000       0.00000000       0.60000000      -0.00332505       0.00006041       0.00006041      -0.01429021
Ni      24.63645465      24.63645465       3.58615220       0.60000000       0.01108551       0.00251655       0.00251655       0.00688667
Ni      24.61673945      26.36913099       5.40698964       0.60000000       0.01866358       0.00204213       0.00171599       0.00575030
Ni      26.36913099      24.61673945       5.40698964       0.60000000       0.01866358       0.00171599       0.00204213       0.00575030
Ni      26.39533129      26.39533129       3.57030771       0.60000000       0.00660140       0.00138055       0.00138055       0.00562445
Ni      24.59811846      24.59811846       7.28183278       0.60000000       0.04045852      -0.00470206      -0.00470206      -0.00135250
Ni      24.58894410      26.34918311       9.08294843       0.60000000       0.27712172      -0.00196222       0.00095558      -0.00093789
Ni      26.34918311      24.58894410       9.08294843       0.60000000       0.27712172       0.00095558      -0.00196222      -0.00093789
Ni      26.35410939      26.35410939       7.21468853       0.60000000       0.02276371      -0.00037136      -0.00037136      -0.00232257
Ni      24.60328446      24.60328446      11.07519010       0.60000000       0.43861314      -0.00022840      -0.00022840      -0.00497572
Ni      26.36121932      26.36121932      10.87932049       0.60000000       0.08929014      -0.00085145      -0.00085145      -0.00086627
Cr      24.68055713      24.68055713      14.00044544       0.60000000       0.33629306       0.00419472       0.00419472       0.00292295
Cr      24.76791392      26.59761393      15.80445286       0.60000000       0.40672368      -0.00113679      -0.00354913       0.00462168
Cr      26.59761393      24.76791392      15.80445286       0.60000000       0.40672368      -0.00354913      -0.00113679       0.00462168
Cr      26.44285469      26.44285469      14.05473574       0.60000000       0.49348429       0.00044424       0.00044424      -0.00063470
Cr      24.77747633      24.77747633      17.54441652       0.60000000       0.05898370       0.00045622       0.00045622       0.00600375
Ni      23.54491580      25.44380359      21.73630808       0.60000000       0.07920372      -0.00180258      -0.00314637      -0.00305420
Ni      25.44380359      23.54491580      21.73630808       0.60000000       0.07920372      -0.00314637      -0.00180258      -0.00305420
Ni      25.38453407      25.38453407      20.01669399       0.60000000       0.09225760      -0.00202538      -0.00202538      -0.00411682
Ni      23.58994355      23.58994355      23.58994355       0.60000000       0.07229654      -0.00450527      -0.00450527      -0.00450527
Ni      23.44075066      25.37460756      25.37460756       0.60000000       0.20150138      -0.00272939      -0.00554782      -0.00554782
Ni      25.37460756      23.44075066      25.37460756       0.60000000       0.20150138      -0.00554782      -0.00272939      -0.00554782
Ni      25.37460756      25.37460756      23.44075066       0.60000000       0.20150138      -0.00554782      -0.00554782      -0.00272939
Ni      23.44329564      23.44329564      27.30807405       0.60000000       0.18193400      -0.00546161      -0.00546161      -0.00103543
Ni      23.21233592      25.01980715      29.26584749       0.60000000       0.21468493       0.00389886       0.00581197      -0.00628323
Ni      25.01980715      23.21233592      29.26584749       0.60000000       0.21468493       0.00581197       0.00389886      -0.00628323
Ni      25.20416301      25.20416301      27.15483449       0.60000000       0.33924915      -0.00499625      -0.00499625      -0.00202978
Ni      23.14961093      23.14961093      31.11545287       0.60000000       0.09277506       0.00475147       0.00475147      -0.00206501
Ni      24.96030752      24.96030752      31.09998639       0.60000000       0.23816987       0.00666108       0.00666108      -0.00355335
Ni      24.82254121      24.82254121      34.89495899       0.60000000       0.10702386       0.00454011       0.00454011      -0.00117928
Ni      24.73980204      26.49434106      36.83666296       0.60000000       0.09285512       0.00251573       0.00206453      -0.00050000
Ni      26.49434106      24.73980204      36.83666296       0.60000000       0.09285512       0.00206453       0.00251573      -0.00050000
Ni      24.66800000      24.66800000      38.76400000       0.60000000       0.03625301       0.10385413       0.10385413      -0.62452377
Ni      24.66800000      26.43000000      40.52600000       0.60000000       0.00600094       0.00099967       0.00097532       0.04214885
Ni      26.43000000      24.66800000      40.52600000       0.60000000       0.00600094       0.00097532       0.00099967       0.04214885
Ni      26.43000000      26.43000000      38.76400000       0.60000000       0.03724747       0.06970435       0.06970435      -0.58188288
Ni      24.66800000      28.19200000       0.00000000       0.60000000      -0.00369148      -0.00008920       0.00022888      -0.01310623
Ni      24.66800000      29.95400000       1.76200000       0.60000000      -0.00130694      -0.03653112      -0.10550410       0.13986686
Ni      26.43000000      28.19200000       1.76200000       0.60000000      -0.00016687      -0.07887986      -0.10002580       0.16986755
Ni      26.43000000      29.95400000       0.00000000       0.60000000       0.00102153      -0.00383915      -0.00368006      -0.00357726
Ni      24.64393228      28.15286349       3.56615193       0.60000000       0.00525491       0.00046423       0.00213851       0.00078225
Ni      24.62855408      29.89326421       5.35931097       0.60000000       0.01173860       0.00832831      -0.00123978      -0.00491359
Ni      26.37510052      28.13014485       5.37153481       0.60000000       0.00889764      -0.00117051      -0.00233779       0.00730185
Ni      26.40523256      29.91912368       3.55686044       0.60000000       0.00104695       0.00015022      -0.00057834       0.00013711
Ni      24.60137449      28.12641870       7.20645833       0.60000000       0.13320851       0.00250550      -0.01247167       0.00039484
Ni      26.35342364      28.11441660       8.99153177       0.60000000       0.04660687       0.00831375      -0.00485610       0.00216832
Ni      26.37149395      29.88117562       7.14978635       0.60000000       0.01101465       0.00834367      -0.00303842      -0.00017643
Ni      24.42837989      28.18377443      10.68747518       0.60000000       0.60012029      -0.00455975      -0.00208778       0.00707406
Ni      26.35811634      28.26222385      12.47425337       0.60000000       0.39148140       0.00055740      -0.00162331      -0.00070215
Ni      26.37210278      29.91986067      10.67234464       0.60000000       0.33633788       0.00760798       0.00250543       0.00796398
Ni      24.37963489      26.60213206      12.54697682       0.60000000       0.58460452       0.00183042      -0.00273831      -0.00325311
Ni      25.40356643      29.06684493      16.68278868       0.60000000       0.53435728       0.00159937       0.00065197       0.00012720
Ni      26.49595152      29.86479904      14.50785968       0.60000000       0.60433798      -0.00056088       0.00132657       0.00110585
Ni      25.40717601      27.17674444      18.26697113       0.60000000       0.14424424      -0.00419471      -0.00468594       0.00007528
Ni      23.43643117      27.33507194      19.82781958       0.60000000       0.15956526       0.00257865      -0.00091794      -0.00188445
Ni      23.22386553      29.26004881      21.41086669       0.60000000       0.13138534       0.00334644      -0.00172230       0.00511739
Ni      25.13343388      27.40209352      21.55187915       0.60000000       0.20783400      -0.00047016      -0.00593001       0.00080770
Ni      24.97814155      29.31568755      19.51948371       0.60000000       0.12756990      -0.00311696      -0.00206071       0.00227303
Ni      23.44329564      27.30807405      23.44329564       0.60000000       0.18193400      -0.00546161      -0.00103543      -0.00546161
Ni      23.21233592      29.26584749      25.01980715       0.60000000       0.21468493       0.00389886      -0.00628323       0.00581197
Ni      25.20416301      27.15483449      25.20416301       0.60000000       0.33924915      -0.00499625      -0.00202978      -0.00499625
Ni      25.01980715      29.26584749      23.21233592       0.60000000       0.21468493       0.00581197      -0.00628323       0.00389886
Ni      22.96725858      27.12706677      27.12706677       0.60000000       0.30108395       0.01005360       0.00042107       0.00042107
Ni      22.74383505      28.86694473      28.86694473       0.60000000       0.22809445       0.00779983       0.00106589       0.00106589
Ni      24.75400397      26.97511759      28.87493119       0.60000000       0.34496136       0.01620328      -0.00225735       0.00050846
Ni      24.75400397      28.87493119      26.97511759       0.60000000       0.34496136       0.01620328       0.00050846      -0.00225735
Ni      23.14427343      26.74756958      31.10734515       0.60000000       0.20616658       0.00512676       0.00420811       0.00028979
Ni      23.13159066      28.48227274      32.97875374       0.60000000       0.23864596       0.00367772       0.00186537      -0.00025055
Ni      24.90732817      26.69268477      32.97900600       0.60000000       0.28387048       0.00528960       0.00388197      -0.00158319
Ni      24.62276397      28.74750470      30.60073146       0.60000000       0.28883920       0.00986293      -0.00103097       0.00120347
Ni      24.72328293      30.03979497      36.86928630       0.60000000       0.41988701       0.00246311       0.00081456      -0.00058620
Ni      26.47605846      28.24952576      36.88353583       0.60000000       0.43096572       0.00094938       0.00062328      -0.00055426
Ni      24.83675835      28.39756554      34.90512632       0.60000000       0.35249136       0.00472253       0.00377714      -0.00340879
Ni      24.66800000      28.19200000      38.76400000       0.60000000       0.03916780       0.08953947       0.08766973      -0.57608171
Ni      24.66800000      29.95400000      40.52600000       0.60000000       0.01610070      -0.00714398      -0.00820233       0.03623555
Ni      26.43000000      28.19200000      40.52600000       0.60000000       0.01548254      -0.00798314      -0.00835667       0.03369762
Ni      26.43000000      29.95400000      38.76400000       0.60000000       0.44067445       0.01395760       0.03983872      -0.35085633
Ni      24.66800000      31.71600000       0.00000000       0.60000000       0.00038770      -0.00383703      -0.00379083      -0.00129997
Ni      24.66800000      33.47800000       1.76200000       0.60000000      -0.00345169      -0.02266603      -0.07088294       0.10819586
Ni      26.43000000      31.71600000       1.76200000       0.60000000      -0.00295580      -0.04212088      -0.08706498       0.12282755
Ni      26.43000000      33.47800000       0.00000000       0.60000000       0.04242283       0.00559659       0.00513759       0.08511465
Ni      24.65788501      31.68550384       3.54899638       0.60000000       0.00409337       0.00364731       0.00209832      -0.00521298
Ni      24.65873531      33.43487161       5.33212032       0.60000000       0.03354687      -0.00279152      -0.01064800      -0.00305920
Ni      26.39509403      31.66255719       5.34029154       0.60000000       0.00048944       0.00100113       0.00470707       0.00156836
Ni      26.41691739      33.45466190       3.54505636       0.60000000      -0.00255756       0.00084923       0.00305758      -0.00072691
Ni      24.62310935      31.64557983       7.13158656       0.60000000       0.08201174      -0.00035075      -0.00345847      -0.00023760
Ni      24.60718959      33.37543118       8.89810674       0.60000000       0.16823131      -0.02840527      -0.02048894      -0.00202117
Ni      26.39154900      31.65405685       8.88826328       0.60000000       0.15765423       0.00380837       0.00625296       0.00845262
Ni      26.39298177      33.42630925       7.10696613       0.60000000       0.00646304       0.00583720      -0.00447274       0.00851885
Ni      24.56905388      29.90631289       8.94141033       0.60000000       0.37376856       0.01028740      -0.01044278      -0.01541007
Ni      24.65345423      33.36491643      12.44258424       0.60000000       0.31305098      -0.00678081      -0.03485597      -0.00981032
Ni      26.43571419      31.60247187      12.49358038       0.60000000       0.34890749      -0.00164269       0.01472763      -0.00515144
Ni      26.39127283      33.39386047      10.66322004       0.60000000       0.15049694       0.01237736       0.00329993      -0.00603196
Ni      24.73537918      31.55632831      14.29348835       0.60000000       0.71612786       0.00168414       0.01281299       0.00046430
Ni      24.75198941      33.23183715      16.06998811       0.60000000       0.17445665       0.00526200       0.00591244       0.00949494
Ni      27.17973780      30.97436366      16.69686169       0.60000000       0.38456053      -0.00037310       0.00146095       0.00092907
Ni      26.44900518      33.36851746      14.25332451       0.60000000       0.14168363      -0.01396568       0.01180087      -0.01543736
Ni      24.84699040      31.24077297      17.77396981       0.60000000       0.21821876      -0.00121542       0.00055089      -0.00052310
Ni      24.81874312      33.04557575      19.57262216       0.60000000       0.08019825       0.00169762      -0.00238701      -0.00087483
Ni      26.55833745      33.16644474      17.82193175       0.60000000       0.17755125       0.00238790       0.00171615       0.00015042
Ni      24.88011234      32.98894017      23.11356973       0.60000000       0.09491867       0.00430631      -0.00167344       0.00398606
Ni      24.92638818      31.13809417      21.33515281       0.60000000       0.08813114       0.00257055      -0.00087322       0.00138441
Ni      26.64063644      33.01977197      21.34922766       0.60000000       0.09105069       0.00337136       0.00098118       0.00113551
Ni      23.14961093      31.11545287      23.14961093       0.60000000       0.09277506       0.00475147      -0.00206501       0.00475147
Ni      24.96030752      31.09998639      24.96030752       0.60000000       0.23816987       0.00666108      -0.00355335       0.00666108
Ni      23.14427343      31.10734515      26.74756958       0.60000000       0.20616658       0.00512676       0.00028979       0.00420811
Ni      23.13159066      32.97875374      28.48227274       0.60000000       0.23864596       0.00367772      -0.00025055       0.00186537
Ni      24.62276397      30.60073146      28.74750470       0.60000000       0.28883920       0.00986293       0.00120347      -0.00103097
Ni      24.90732817      32.97900600      26.69268477       0.60000000       0.28387048       0.00528960      -0.00158319       0.00388197
Ni      22.72047794      30.62154475      30.62154475       0.60000000       0.23917782       0.00819151       0.00093256       0.00093256
Ni      22.75154086      32.37989674      32.37989674       0.60000000       0.30621508       0.00313193       0.00042748       0.00042748
Ni      24.60347635      30.50006511      32.35349462       0.60000000       0.29849640       0.00729586       0.00236934       0.00031642
Ni      24.60347635      32.35349462      30.50006511       0.60000000       0.29849640       0.00729586       0.00031642       0.00236934
Ni      23.10172565      30.21912551      34.87827804       0.60000000       0.31441173       0.00296797       0.00115849       0.00004067
Ni      24.64787267      32.27556186      34.09429910       0.60000000       0.36912766       0.00340688       0.00233424       0.00098957
Ni      24.66800000      31.71600000      38.76400000       0.60000000       0.43401792       0.02058577       0.06504670      -0.36333243
Ni      24.66800000      33.47800000      40.52600000       0.60000000       0.29138061       0.10082271       0.10527029      -0.08840086
Ni      26.43000000      31.71600000      40.52600000       0.60000000       0.29595765       0.09278751       0.09645774      -0.07179437
Ni      24.66800000      35.24000000       0.00000000       0.60000000       0.04133913       0.00553337       0.00182297       0.08662675
Ni      24.66800000      37.00200000       1.76200000       0.60000000      -0.00098499      -0.01712196      -0.05608343       0.08512281
Ni      26.43000000      35.24000000       1.76200000       0.60000000       0.00050049      -0.03396472      -0.06051431       0.10145900
Ni      26.43000000      37.00200000       0.00000000       0.60000000       0.29777320       0.06573598       0.08866910      -0.09920277
Ni      24.66034386      35.22078371       3.54278359       0.60000000       0.00065777       0.00027632       0.00088492       0.00128419
Ni      24.65597711      36.97920620       5.30992315       0.60000000      -0.00213852      -0.00336708       0.00074032       0.00050199
Ni      26.40981093      35.21074507       5.32014865       0.60000000       0.00021373       0.00572493       0.00456029      -0.00395739
Ni      26.42367907      36.99046544       3.53644903       0.60000000      -0.00539436      -0.00559065      -0.00039267       0.00416488
Ni      24.63593409      35.18379001       7.10298775       0.60000000       0.00961935       0.00475367      -0.00596486      -0.00544359
Ni      24.64366153      36.96559331       8.84192502       0.60000000       0.00181081       0.01414179       0.02667924      -0.01310627
Ni      26.39193762      35.18468949       8.86598946       0.60000000       0.00673700      -0.00037339      -0.01019468       0.00031513
Ni      26.41128600      36.97758943       7.07468803       0.60000000      -0.00195698      -0.00413809      -0.00150509       0.00980588
Ni      24.63133754      35.17361441      10.63650722       0.60000000       0.03487823       0.01154467      -0.00820324      -0.00427193
Ni      24.66129429      36.95833145      12.39151561       0.60000000       0.00870237      -0.01632703      -0.01854106      -0.01549651
Ni      26.40565297      35.17102217      12.42054875       0.60000000       0.01383890      -0.01106752      -0.01432386      -0.00746732
Ni      26.40806821      36.97020851      10.60769017       0.60000000       0.00236196      -0.00429406      -0.01042947       0.00377210
Ni      24.68269980      35.12360386      14.23074956       0.60000000       0.03020717      -0.00880839      -0.01508772      -0.02323180
Ni      24.69168119      36.91954931      15.95771774       0.60000000       0.03130566      -0.00234037      -0.01112754      -0.01012275
Ni      26.47469927      35.10663638      16.02502349       0.60000000       0.05118170       0.00412369      -0.00447128      -0.00126257
Ni      26.42565475      36.95052667      14.16886728       0.60000000       0.01368042      -0.01056613      -0.00977051      -0.00962584
Ni      24.74822192      35.01633330      17.80266649       0.60000000       0.06264637      -0.00024768       0.00468449       0.00332982
Ni      24.72026987      36.86978032      19.48877026       0.60000000       0.06201336       0.00021958       0.00006252       0.00176375
Ni      26.54664418      34.97081528      19.57453080       0.60000000       0.07287180      -0.00177510      -0.00084517      -0.00105400
Ni      26.46971681      36.90176979      17.73726519       0.60000000       0.04495529       0.00255051      -0.00075216       0.00326056
Ni      24.78985896      34.91722523      21.30519026       0.60000000       0.08583803       0.00312685      -0.00233555       0.00237733
Ni      24.73133010      36.83780774      22.98530428       0.60000000       0.08066636       0.00346877      -0.00120586       0.00234587
Ni      26.58439958      34.90029004      23.07933897       0.60000000       0.10687749       0.00361645      -0.00142852       0.00372126
Ni      26.49129034      36.84883968      21.25260518       0.60000000       0.07764063       0.00002814      -0.00074867      -0.00002340
Ni      24.82254121      34.89495899      24.82254121       0.60000000       0.10702386       0.00454011      -0.00117928       0.00454011
Ni      24.73980204      36.83666296      26.49434106       0.60000000       0.09285512       0.00251573      -0.00050000       0.00206453
Ni      26.49434106      36.83666296      24.73980204       0.60000000       0.09285512       0.00206453      -0.00050000       0.00251573
Ni      24.72328293      36.86928630      30.03979497       0.60000000       0.41988701       0.00246311      -0.00058620       0.00081456
Ni      24.83675835      34.90512632      28.39756554       0.60000000       0.35249136       0.00472253      -0.00340879       0.00377714
Ni      26.47605846      36.88353583      28.24952576       0.60000000       0.43096572       0.00094938      -0.00055426       0.00062328
Ni      23.10172565      34.87827804      30.21912551       0.60000000       0.31441173       0.00296797       0.00004067       0.00115849
Ni      24.64787267      34.09429910      32.27556186       0.60000000       0.36912766       0.00340688       0.00098957       0.00233424
Ni      22.72019296      34.14392886      34.14392886       0.60000000       0.42567349       0.00321592       0.00080534       0.00080534
Ni      23.06812676      35.90238287      35.90238287       0.60000000       0.65329940       0.00558271       0.00183538       0.00183538
Ni      24.79173746      34.05537821      35.84509622       0.60000000       0.45376850       0.00451969       0.00211465       0.00181464
Ni      24.79173746      35.84509622      34.05537821       0.60000000       0.45376850       0.00451969       0.00181464       0.00211465
Ni      24.66800000      37.00200000      40.52600000       0.60000000       0.59645463      -0.06239013       0.10056881      -0.55288787
Ni      26.43000000      35.24000000      40.52600000       0.60000000       0.67032334      -0.02706601      -0.01104687      -0.41179454
Ni      24.94317741      35.88733588      37.64685808       0.60000000       0.72606959       0.00356091       0.00331515       0.00327292
Ni      24.66800000      38.76400000       0.00000000       0.60000000       0.15306335       0.18381297       0.10683922      -0.00720231
Ni      24.66800000      40.52600000       1.76200000       0.60000000       0.11022859       0.25165846       0.13669257      -0.14842476
Ni      26.43000000      38.76400000       1.76200000       0.60000000       0.03389372       0.11973408       0.08764642       0.02642849
Ni      26.43000000      40.52600000       0.00000000       0.60000000       8.44746821     -25.37678352     -51.45214368      26.00007438
Ni      24.66800000      38.76400000       3.52400000       0.60000000      -0.00110024      -0.01712376      -0.09579831       0.06673096
Ni      24.66800000      40.52600000       5.28600000       0.60000000       0.04159483       0.00490023      -0.09687873       0.00874223
Ni      26.43000000      38.76400000       5.28600000       0.60000000       0.00059475      -0.04559590      -0.11810610       0.07090365
Ni      26.43000000      40.52600000       3.52400000       0.60000000       0.25955831       0.24057334       0.15098895      -0.25321053
Ni      24.66800000      38.76400000       7.04800000       0.60000000      -0.00290365      -0.05378599      -0.14466248       0.08656265
Ni      24.66800000      40.52600000       8.81000000       0.60000000       0.00131968      -0.00373097       0.00479993       0.00374963
Ni      26.43000000      38.76400000       8.81000000       0.60000000      -0.00239580      -0.07232080      -0.15509099       0.08678940
Ni      26.43000000      40.52600000       7.04800000       0.60000000       0.04259266       0.00493366      -0.08259709      -0.00478327
Ni      24.66800000      38.76400000      10.57200000       0.60000000      -0.00045518      -0.05232563      -0.19694102       0.11011307
Ni      24.66800000      40.52600000      12.33400000       0.60000000      -0.00301063       0.00037174       0.01478151      -0.00004161
Ni      26.43000000      38.76400000      12.33400000       0.60000000       0.00150273      -0.04977523      -0.20442567       0.14330649
Ni      26.43000000      40.52600000      10.57200000       0.60000000       0.00124745      -0.00356668       0.00422740       0.00380891
Ni      24.66800000      38.76400000      14.09600000       0.60000000       0.00875659      -0.00457301      -0.27780354       0.20008006
Ni      24.66800000      40.52600000      15.85800000       0.60000000       0.00017590       0.00042104       0.02481729       0.00002125
Ni      26.43000000      38.76400000      15.85800000       0.60000000       0.01354267      -0.00080424      -0.30821030       0.23156539
Ni      26.43000000      40.52600000      14.09600000       0.60000000      -0.00237210       0.00045348       0.01683817      -0.00007868
Ni      24.66800000      38.76400000      17.62000000       0.60000000       0.02324432       0.06456996      -0.41462032       0.23397471
Ni      24.66800000      40.52600000      19.38200000       0.60000000       0.00384607       0.00048179       0.03595603       0.00031319
Ni      26.43000000      38.76400000      19.38200000       0.60000000       0.03078222       0.08195548      -0.46852531       0.24161708
Ni      26.43000000      40.52600000      17.62000000       0.60000000       0.00153482       0.00061412       0.02907735       0.00001648
Ni      24.66800000      38.76400000      21.14400000       0.60000000       0.03378614       0.09334465      -0.55203376       0.17441650
Ni      24.66800000      40.52600000      22.90600000       0.60000000       0.00606714       0.00049844       0.04227199       0.00053860
Ni      26.43000000      38.76400000      22.90600000       0.60000000       0.03671831       0.09016436      -0.59954983       0.14813537
Ni      26.43000000      40.52600000      21.14400000       0.60000000       0.00529022       0.00055687       0.04020301       0.00049563
Ni      24.66800000      38.76400000      24.66800000       0.60000000       0.03625301       0.10385413      -0.62452377       0.10385413
Ni      24.66800000      40.52600000      26.43000000       0.60000000       0.00600094       0.00099967       0.04214885       0.00097532
Ni      26.43000000      38.76400000      26.43000000       0.60000000       0.03724747       0.06970435      -0.58188288       0.06970435
Ni      26.43000000      40.52600000      24.66800000       0.60000000       0.00600094       0.00097532       0.04214885       0.00099967
Ni      24.66800000      38.76400000      28.19200000       0.60000000       0.03916780       0.08953947      -0.57608171       0.08766973
Ni      24.66800000      40.52600000      29.95400000       0.60000000       0.01610070      -0.00714398       0.03623555      -0.00820233
Ni      26.43000000      38.76400000      29.95400000       0.60000000       0.44067445       0.01395760      -0.35085633       0.03983872
Ni      26.43000000      40.52600000      28.19200000       0.60000000       0.01548254      -0.00798314       0.03369762      -0.00835667
Ni      24.66800000      38.76400000      31.71600000       0.60000000       0.43401792       0.02058577      -0.36333243       0.06504670
Ni      24.66800000      40.52600000      33.47800000       0.60000000       0.29138061       0.10082271      -0.08840086       0.10527029
Ni      26.43000000      40.52600000      31.71600000       0.60000000       0.29595765       0.09278751      -0.07179437       0.09645774
Ni      24.66800000      40.52600000      37.00200000       0.60000000       0.59645463      -0.06239013      -0.55288787       0.10056881
Ni      24.94317741      37.64685808      35.88733588       0.60000000       0.72606959       0.00356091       0.00327292       0.00331515
Ni      26.43000000      40.52600000      35.24000000       0.60000000       0.67032334      -0.02706601      -0.41179454      -0.01104687
Ni      23.39136972      37.97810992      37.97810992       0.60000000       0.77431059       0.00173995       0.00051521       0.00051521
Ni      24.66800000      40.52600000      40.52600000       0.60000000       0.25584758       0.70261328      -0.06202660      -0.06202660
Ni      27.01733333      -0.58733333      -0.58733333       0.60000000      15.68873061      52.45115089      25.90148750      25.90148750
Ni      27.01733333       1.17466667       1.17466667       0.60000000       0.44807696      -0.17346183      -0.80818348      -0.80818348
Ni      28.77933333      -0.58733333       1.17466667       0.60000000       8.54057652      24.74026780      56.05734688     -24.83069506
Ni      28.77933333       1.17466667      -0.58733333       0.60000000       8.54057652      24.74026780     -24.83069506      56.05734688
Ni      28.77933333       1.17466667       2.93666667       0.60000000       0.35287907       0.02146292      -0.68318080      -0.06106888
Ni      28.19200000       0.00000000       7.04800000       0.60000000       0.65765003       0.00203097       0.44392026      -0.00242780
Ni      29.95400000       0.00000000       8.81000000       0.60000000       0.65769860       0.00172111       0.44383132      -0.00251666
Ni      28.19200000       0.00000000      10.57200000       0.60000000       0.30026115       0.09059735       0.05161440      -0.09075106
Ni      28.19200000       1.76200000      12.33400000       0.60000000       0.49695508      -0.12209312       0.25996234       0.11446803
Ni      29.95400000       0.00000000      12.33400000       0.60000000       0.30022037       0.09076439       0.05130115      -0.09105919
Ni      28.19200000       0.00000000      14.09600000       0.60000000       0.01118134      -0.01022369      -0.01638103       0.00977575
Ni      28.19200000       1.76200000      15.85800000       0.60000000       0.02345234      -0.09776230       0.21527160       0.12216892
Ni      29.95400000       0.00000000      15.85800000       0.60000000       0.01168022      -0.01062019      -0.01875361       0.00972374
Ni      29.95400000       1.76200000      14.09600000       0.60000000       0.49521124      -0.10568522       0.25849872       0.11859827
Ni      28.19200000       0.00000000      17.62000000       0.60000000      -0.00321829       0.00021767      -0.01338992       0.00052893
Ni      28.19200000       1.76200000      19.38200000       0.60000000       0.00630510      -0.11625194       0.17413002       0.02404020
Ni      29.95400000       0.00000000      19.38200000       0.60000000      -0.00388877      -0.00033670      -0.01087013       0.00051389
Ni      29.95400000       1.76200000      17.62000000       0.60000000       0.03897834       0.00612570       0.18060313       0.01502847
Ni      28.19200000       0.00000000      21.14400000       0.60000000      -0.00357515       0.00021276      -0.01319550       0.00001174
Ni      28.19200000       1.76200000      22.90600000       0.60000000       0.00085212      -0.12460093       0.17844315      -0.04099560
Ni      29.95400000       0.00000000      22.90600000       0.60000000      -0.00465825       0.00017361      -0.00965615      -0.00000546
Ni      29.95400000       1.76200000      21.14400000       0.60000000       0.00309477      -0.10302585       0.16374218      -0.02176583
Ni      28.19200000       0.00000000      24.66800000       0.60000000      -0.00369148       0.00022888      -0.01310623      -0.00008920
Ni      28.19200000       1.76200000      26.43000000       0.60000000      -0.00016687      -0.10002580       0.16986755      -0.07887986
Ni      29.95400000       0.00000000      26.43000000       0.60000000       0.00102153      -0.00368006      -0.00357726      -0.00383915
Ni      29.95400000       1.76200000      24.66800000       0.60000000      -0.00130694      -0.10550410       0.13986685      -0.03653112
Ni      28.19200000       0.00000000      28.19200000       0.60000000       0.00124667      -0.00373936      -0.00429604      -0.00373936
Ni      28.19200000       1.76200000      29.95400000       0.60000000      -0.00229284      -0.07378962       0.14465943      -0.08637585
Ni      29.95400000       0.00000000      29.95400000       0.60000000       0.04324019       0.00572340       0.08582689       0.00572340
Ni      29.95400000       1.76200000      28.19200000       0.60000000      -0.00229284      -0.08637585       0.14465943      -0.07378962
Ni      28.19200000       0.00000000      31.71600000       0.60000000       0.04304937       0.00564686       0.08583346       0.00560279
Ni      28.19200000       1.76200000      33.47800000       0.60000000       0.00107292      -0.04815156       0.11318065      -0.07118041
Ni      29.95400000       0.00000000      33.47800000       0.60000000       0.30400575       0.06507612      -0.09329704       0.06452788
Ni      29.95400000       1.76200000      31.71600000       0.60000000       0.00135723      -0.06681035       0.12567596      -0.07259405
Ni      28.19200000       0.00000000      35.24000000       0.60000000       0.30360878       0.06588611      -0.09273585       0.06486783
Ni      28.19200000       1.76200000      37.00200000       0.60000000       0.03183419      -0.01364418       0.17772955      -0.02097430
Ni      29.95400000       0.00000000      37.00200000       0.60000000       0.48717337       0.00607781      -0.46918201       0.01725651
Ni      29.95400000       1.76200000      35.24000000       0.60000000       0.03400607      -0.02914843       0.19298555      -0.03986479
Ni      28.19200000       0.00000000      38.76400000       0.60000000       0.40197416      -0.01185055      -0.36699491       0.54942762
Ni      28.19200000       1.76200000      40.52600000       0.60000000       8.30203875     -26.68512518      26.75868129     -53.35763315
Ni      29.95400000       0.00000000      40.52600000       0.60000000       8.76398964     -22.95736453      23.53428854     -53.19246700
Ni      29.95400000       1.76200000      38.76400000       0.60000000      -0.05759258       0.03422435       0.12082976       0.65591379
Ni      28.77933333       2.93666667       1.17466667       0.60000000       0.35287907       0.02146292      -0.06106888      -0.68318080
Ni      27.01733333       2.93666667       2.93666667       0.60000000       0.50770042      -0.45746809      -0.07575906      -0.07575905
Ni      27.03518921       4.69617448       4.69617447       0.60000000       0.14891721       0.00725972      -0.00161602      -0.00161602
Ni      28.77933333       2.93666667       4.69866667       0.60000000       0.30233119      -0.05460438      -0.05798376       0.10645168
Ni      28.77933333       4.69866667       2.93666667       0.60000000       0.30233119      -0.05460438       0.10645168      -0.05798377
Ni      27.01733333       2.93666667       6.46066667       0.60000000       0.81106138       0.10199936      -0.38468166      -0.05483308
Ni      28.27790833       5.27542056       8.80506021       0.60000000       0.49563582       0.00492565      -0.00011220      -0.00294207
Ni      28.77933333       2.93666667       8.22266667       0.60000000       0.81167241       0.11961708      -0.32748972      -0.07403073
Ni      28.82308096       4.70185600       6.45140459       0.60000000       0.07214635      -0.00809819       0.00217106      -0.00422716
Ni      30.04008756       5.28041042      10.58083292       0.60000000       0.49746395       0.00531945      -0.00392857      -0.00043525
Ni      28.12154697       3.57246038      14.17312543       0.60000000       0.54261984       0.00126529       0.00162832      -0.00146962
Ni      29.91585924       3.58780487      15.91769286       0.60000000       0.61511038       0.00286450      -0.00120730      -0.00319141
Ni      28.14326303       3.56709152      17.64729520       0.60000000       0.16854593       0.00390885       0.00067827      -0.00224220
Ni      28.13219935       5.39748322      19.38515285       0.60000000       0.33070066       0.00089075       0.00003269       0.00318080
Ni      29.92647767       3.55636545      19.37707481       0.60000000       0.31270370       0.00321467      -0.00380182      -0.00325873
Ni      28.15108560       3.56525052      21.13370033       0.60000000       0.01965347       0.00141390      -0.00178641       0.00130413
Ni      28.13081707       5.38360692      22.87480176       0.60000000       0.04155966      -0.00099317      -0.00836454      -0.00182041
Ni      29.91768342       3.55170214      22.89685701       0.60000000       0.01452804       0.00118434      -0.00356485      -0.00247081
Ni      29.88917210       5.34145352      21.14528445       0.60000000       0.50420114       0.00544459      -0.00194124      -0.00727542
Ni      28.15286349       3.56615193      24.64393228       0.60000000       0.00525491       0.00213852       0.00078225       0.00046423
Ni      28.13014485       5.37153481      26.37510052       0.60000000       0.00889764      -0.00233779       0.00730185      -0.00117051
Ni      29.91912368       3.55686044      26.40523256       0.60000000       0.00104695      -0.00057834       0.00013711       0.00015022
Ni      29.89326421       5.35931097      24.62855408       0.60000000       0.01173860      -0.00123978      -0.00491359       0.00832831
Ni      28.15948115       3.55878452      28.15948115       0.60000000       0.00201821       0.00019390       0.00340939       0.00019390
Ni      28.14446003       5.34492132      29.90014194       0.60000000       0.00236340      -0.00008588      -0.00018787      -0.00024021
Ni      29.92749536       3.54984079      29.92749536       0.60000000      -0.00180169      -0.00212744       0.00152352      -0.00212744
Ni      29.90014194       5.34492132      28.14446003       0.60000000       0.00236340      -0.00024021      -0.00018787      -0.00008588
Ni      28.16970739       3.54897571      31.68880650       0.60000000      -0.00235711       0.00021204       0.00069036      -0.00213916
Ni      28.16169281       5.32271967      33.44170195       0.60000000      -0.00176262      -0.00290279       0.00084664       0.00298603
Ni      29.93676263       3.54187168      33.45886354       0.60000000      -0.00383955      -0.00083475      -0.00024831      -0.00058209
Ni      29.91811948       5.32344595      31.67774010       0.60000000      -0.00096705      -0.00030325      -0.00083300       0.00084681
Ni      28.18026646       3.53988372      35.22385316       0.60000000      -0.00392476      -0.00312826       0.00368215       0.00024711
Ni      28.17998437       5.30362446      36.98659528       0.60000000      -0.00364566      -0.00635954       0.00665920       0.00078041
Ni      29.94741197       3.53356934      36.99410173       0.60000000      -0.00718980      -0.00290834       0.00086548      -0.00161855
Ni      29.93233572       5.31130745      35.21645130       0.60000000      -0.00229038       0.00151458      -0.00310760      -0.00040113
Ni      28.19200000       3.52400000      38.76400000       0.60000000       0.00407550       0.09667744      -0.07646901       0.04908860
Ni      28.19200000       5.28600000      40.52600000       0.60000000       0.26753302       0.23543704      -0.23530317       0.14722422
Ni      29.95400000       3.52400000      40.52600000       0.60000000       8.27245320     -26.64609266      26.64621183     -53.37852739
Ni      29.95400000       5.28600000      38.76400000       0.60000000       0.00476332       0.08086673      -0.06786292       0.03942340
Ni      28.19200000       7.04800000       0.00000000       0.60000000       0.65765003       0.00203097      -0.00242780       0.44392026
Ni      29.95400000       8.81000000       0.00000000       0.60000000       0.65769860       0.00172111      -0.00251666       0.44383132
Ni      27.01733333       6.46066667       2.93666667       0.60000000       0.81106137       0.10199934      -0.05483307      -0.38468168
Ni      28.27790834       8.80506022       5.27542056       0.60000000       0.49563582       0.00492566      -0.00294206      -0.00011220
Ni      28.82308096       6.45140459       4.70185600       0.60000000       0.07214635      -0.00809818      -0.00422716       0.00217106
Ni      28.77933333       8.22266667       2.93666667       0.60000000       0.81167241       0.11961708      -0.07403073      -0.32748972
Ni      28.28081575       7.04207019       7.04207018       0.60000000       0.01898736      -0.00062541       0.00193028       0.00193028
Ni      28.31130539       8.80813999       8.80813999       0.60000000       0.02048610      -0.01433333       0.00352282       0.00352281
Ni      30.04447794       7.05308588       8.81605777       0.60000000       0.00818133       0.00703002       0.00748833       0.00306117
Ni      30.04447794       8.81605777       7.05308588       0.60000000       0.00818133       0.00703003       0.00306117       0.00748833
Ni      28.31153146       7.05523548      10.56379191       0.60000000       0.51980556      -0.00455512      -0.00178122       0.00455807
Ni      28.28172824       8.81978573      12.32785556       0.60000000       0.52011336      -0.00132250       0.00093132       0.00573051
Ni      30.04656000       7.06248218      12.35624780       0.60000000       0.51836641      -0.00472397      -0.00215339       0.00234454
Ni      30.04608578       8.83125458      10.59385889       0.60000000       0.00965342      -0.01177574       0.00368410       0.00103286
Ni      26.30317378       5.39117027      14.20403553       0.60000000       0.55076211       0.00248779       0.00125177       0.00132994
Ni      26.32171981       7.23632944      15.98614494       0.60000000       0.55591137      -0.00163124       0.00199063       0.00104622
Ni      28.12115852       5.40172304      15.99283212       0.60000000       0.64930215       0.00760223       0.00087211      -0.00117027
Ni      29.98109191       8.83042168      14.14343541       0.60000000       0.50287023       0.00110465      -0.00249176      -0.00296404
Ni      28.16988263       7.27455955      17.76016816       0.60000000       0.74506956       0.00449935      -0.00423273       0.00632952
Ni      28.16920944       7.26170255      21.12262814       0.60000000       0.35137993       0.00174026       0.00127432       0.00153979
Ni      29.90299713       7.16717700      22.84928624       0.60000000       0.36284715      -0.00670072      -0.01186609       0.02174653
Ni      28.12641870       7.20645833      24.60137449       0.60000000       0.13320851      -0.01247167       0.00039484       0.00250550
Ni      28.11441660       8.99153177      26.35342364       0.60000000       0.04660687      -0.00485610       0.00216832       0.00831375
Ni      29.88117562       7.14978635      26.37149395       0.60000000       0.01101465      -0.00303842      -0.00017643       0.00834367
Ni      28.12025770       7.15608485      28.12025770       0.60000000       0.00667696       0.00150295      -0.00511843       0.00150295
Ni      28.14162752       8.90055621      29.89196191       0.60000000       0.01054227      -0.00021224      -0.00117372       0.00097307
Ni      29.90194166       7.10815306      29.90194166       0.60000000       0.00048765       0.00026336      -0.00056668       0.00026336
Ni      29.89196191       8.90055621      28.14162752       0.60000000       0.01054227       0.00097307      -0.00117372      -0.00021224
Ni      28.14919573       7.10660415      31.66238812       0.60000000       0.00106201      -0.00181983      -0.00082010       0.00199711
Ni      28.15553587       8.87075042      33.42742276       0.60000000       0.00482038       0.00732107       0.00182354       0.00451428
Ni      29.91931432       7.08889458      33.44032916       0.60000000      -0.00154598       0.00097261      -0.00238788      -0.00102674
Ni      29.91227146       8.86839460      31.66830945       0.60000000      -0.00138979      -0.00176770      -0.00174324      -0.00049944
Ni      28.16289979       7.08724461      35.20500957       0.60000000      -0.00026351       0.00151642      -0.00089293       0.00476626
Ni      28.17040108       8.83737634      36.97703515       0.60000000      -0.00139015      -0.00023581       0.00159237       0.00133375
Ni      29.93731720       7.06810231      36.98497145       0.60000000      -0.00363206       0.00294545      -0.00264899       0.00184551
Ni      29.92339608       8.85049370      35.20619962       0.60000000      -0.00083290       0.00058318      -0.00136200      -0.00036848
Ni      28.19200000       7.04800000      38.76400000       0.60000000       0.00114075      -0.05974543       0.07392663      -0.12233263
Ni      28.19200000       8.81000000      40.52600000       0.60000000       0.04261735       0.00485223      -0.00477618      -0.08245841
Ni      29.95400000       7.04800000      40.52600000       0.60000000       0.26766514       0.23525397      -0.23525248       0.14774628
Ni      29.95400000       8.81000000      38.76400000       0.60000000       0.00115760      -0.06561105       0.07390714      -0.12234451
Ni      28.19200000      10.57200000       0.00000000       0.60000000       0.30026115       0.09059736      -0.09075106       0.05161439
Ni      28.19200000      12.33400000       1.76200000       0.60000000       0.49695507      -0.12209291       0.11446807       0.25996221
Ni      29.95400000      12.33400000       0.00000000       0.60000000       0.30022037       0.09076439      -0.09105920       0.05130115
Ni      30.04008757      10.58083293       5.28041042       0.60000000       0.49746394       0.00531945      -0.00043525      -0.00392857
Ni      28.31153146      10.56379191       7.05523548       0.60000000       0.51980556      -0.00455511       0.00455807      -0.00178122
Ni      28.28172824      12.32785556       8.81978573       0.60000000       0.52011336      -0.00132250       0.00573051       0.00093132
Ni      30.04608578      10.59385889       8.83125458       0.60000000       0.00965342      -0.01177574       0.00103287       0.00368410
Ni      30.04656000      12.35624780       7.06248218       0.60000000       0.51836641      -0.00472397       0.00234454      -0.00215340
Ni      28.28319840      10.57474887      10.57474887       0.60000000       0.02123203       0.00147277      -0.00116346      -0.00116346
Ni      28.17227902      12.34267677      12.34267677       0.60000000       0.04983771      -0.00267811      -0.00080949      -0.00080949
Ni      29.98297588      10.61244011      12.38045520       0.60000000       0.00989174       0.00386133      -0.00069526      -0.00762883
Ni      29.98297588      12.38045520      10.61244011       0.60000000       0.00989174       0.00386133      -0.00762883      -0.00069526
Ni      28.16958720      10.58885404      14.08646107       0.60000000       0.52321736      -0.00266108       0.00029953       0.00216023
Ni      27.96740561      12.33794771      15.82849146       0.60000000       0.50651064       0.00875645      -0.00136944       0.00808640
Ni      29.86104610      10.60229246      15.92012894       0.60000000       0.49024176      -0.00053569      -0.00096155      -0.00665378
Ni      29.85707512      12.39159563      14.15892026       0.60000000       0.02375750       0.00036910       0.00009637       0.00132260
Ni      26.39659894       9.12273862      17.75426432       0.60000000       0.56391130      -0.00162068      -0.00080889      -0.00104631
Ni      26.54351549      11.05507906      19.48292080       0.60000000       0.43503426       0.00225313      -0.00153757       0.00049472
Ni      28.34286131       9.17782668      19.51988285       0.60000000       0.56513868       0.00405293       0.00251095       0.00206447
Ni      29.67384938      12.34152211      17.72236356       0.60000000       0.34496911      -0.00029296      -0.00041268      -0.00618590
Ni      26.49773362       9.18646361      21.19808014       0.60000000       0.22147889       0.00082370       0.00257766       0.00244032
Ni      27.21193926      11.48183669      21.99662698       0.60000000       0.45032014       0.00679219       0.00601094       0.00114645
Ni      29.04428089       9.61187559      21.99171252       0.60000000       0.46889297      -0.00485685       0.00602804      -0.00171149
Ni      29.04273644      11.54848505      20.16438643       0.60000000       0.31757568       0.00021083       0.00735487      -0.00073756
Ni      28.26222385      12.47425337      26.35811634       0.60000000       0.39148140      -0.00162331      -0.00070215       0.00055740
Ni      29.91986067      10.67234464      26.37210278       0.60000000       0.33633788       0.00250543       0.00796398       0.00760798
Ni      28.18377443      10.68747518      24.42837989       0.60000000       0.60012029      -0.00208778       0.00707406      -0.00455975
Ni      28.14814368      10.72040153      28.14814368       0.60000000       0.02863055       0.00280679       0.00180643       0.00280679
Ni      28.18676509      12.50117641      29.90851614       0.60000000       0.08228001      -0.00502058       0.00063948       0.00650821
Ni      29.90870069      10.66216916      29.90870069       0.60000000       0.00824822      -0.00081901      -0.00392030      -0.00081901
Ni      29.90851614      12.50117641      28.18676509       0.60000000       0.08228001       0.00650821       0.00063948      -0.00502058
Ni      28.16806797      10.66254712      31.65503145       0.60000000       0.03317777       0.00129701       0.00767817       0.00278550
Ni      28.16186635      12.43571503      33.40390653       0.60000000       0.01558953       0.00568217       0.00926720       0.00480504
Ni      29.91722274      10.63710449      33.43104095       0.60000000      -0.00025670      -0.00179420       0.00025530      -0.00231489
Ni      29.91648206      12.44307656      31.65848418       0.60000000       0.02689888       0.00134556      -0.00016594      -0.00212852
Ni      28.15479083      10.62988205      35.18903112       0.60000000       0.00332225       0.00665821       0.00601330       0.00706625
Ni      28.16972736      12.37644229      36.96944548       0.60000000       0.00330177      -0.00848188      -0.00404662      -0.00394093
Ni      29.93110910      10.60007220      36.97872305       0.60000000      -0.00190914       0.00442282       0.00004315       0.00211105
Ni      29.91836067      12.39398154      35.19561040       0.60000000       0.00281149       0.00469335       0.00351883       0.00097264
Ni      28.19200000      10.57200000      38.76400000       0.60000000      -0.00223149      -0.06755905       0.09484835      -0.15099033
Ni      28.19200000      12.33400000      40.52600000       0.60000000       0.00133274      -0.00348446       0.00372979       0.00446821
Ni      29.95400000      10.57200000      40.52600000       0.60000000       0.04253974       0.00489856      -0.00476798      -0.08272878
Ni      29.95400000      12.33400000      38.76400000       0.60000000      -0.00239822      -0.06974799       0.09987174      -0.15094006
Ni      28.19200000      14.09600000       0.00000000       0.60000000       0.01118134      -0.01022369       0.00977575      -0.01638103
Ni      28.19200000      15.85800000       1.76200000       0.60000000       0.02345234      -0.09776222       0.12216904       0.21527147
Ni      29.95400000      14.09600000       1.76200000       0.60000000       0.49521124      -0.10568514       0.11859828       0.25849867
Ni      29.95400000      15.85800000       0.00000000       0.60000000       0.01168022      -0.01062019       0.00972374      -0.01875361
Ni      28.12154705      14.17312550       3.57246038       0.60000000       0.54261982       0.00126537      -0.00146955       0.00162832
Ni      29.91585927      15.91769289       3.58780487       0.60000000       0.61511037       0.00286454      -0.00319138      -0.00120730
Ni      26.30317394      14.20403569       5.39117028       0.60000000       0.55076207       0.00248794       0.00133010       0.00125178
Ni      26.32171984      15.98614499       7.23632947       0.60000000       0.55591135      -0.00163118       0.00104629       0.00199065
Ni      29.98109191      14.14343542       8.83042168       0.60000000       0.50287023       0.00110465      -0.00296404      -0.00249176
Ni      28.12115860      15.99283220       5.40172306       0.60000000       0.64930213       0.00760232      -0.00117017       0.00087213
Ni      28.16958720      14.08646107      10.58885404       0.60000000       0.52321736      -0.00266108       0.00216023       0.00029953
Ni      27.96740561      15.82849146      12.33794771       0.60000000       0.50651064       0.00875645       0.00808640      -0.00136944
Ni      29.85707512      14.15892026      12.39159563       0.60000000       0.02375750       0.00036910       0.00132260       0.00009637
Ni      29.86104610      15.92012894      10.60229246       0.60000000       0.49024176      -0.00053569      -0.00665378      -0.00096155
Ni      27.94675053      14.07945955      14.07945955       0.60000000       0.07126967       0.00631452       0.00696333       0.00696333
Ni      27.71885381      15.78213195      15.78213195       0.60000000       0.07229958       0.00744644       0.00982439       0.00982439
Ni      29.67509099      14.13788808      15.92437193       0.60000000       0.04037122       0.01025577      -0.00543316       0.00398080
Ni      29.67509099      15.92437193      14.13788808       0.60000000       0.04037122       0.01025577       0.00398080      -0.00543316
Ni      27.71579758      13.98374240      17.63791092       0.60000000       0.27408171       0.00929967       0.00145814       0.01157230
Ni      27.62192280      15.68930658      19.33904611       0.60000000       0.13696056       0.00763150       0.00505405       0.01006773
Ni      29.54279349      14.06625549      19.49203116       0.60000000       0.10159494       0.00359861      -0.00003401       0.00674302
Ni      29.52855800      15.85822841      17.67009569       0.60000000       0.04879387       0.00510662      -0.00202504       0.00440306
Ni      27.16707730      13.39293452      20.28866981       0.60000000       0.27175882      -0.00105562       0.00421779      -0.00030504
Ni      27.16378247      15.22030191      22.12950109       0.60000000       0.41818392       0.00360112       0.00581730       0.00049124
Ni      29.04886416      13.37069322      21.85656684       0.60000000       0.66990716       0.00662991      -0.00369771      -0.00675486
Ni      29.46285216      15.85713050      21.24171224       0.60000000       0.25304911       0.00950724       0.00212182       0.00076264
Ni      26.60213206      12.54697682      24.37963489       0.60000000       0.58460452      -0.00273831      -0.00325311       0.00183042
Ni      29.86479904      14.50785968      26.49595152       0.60000000       0.60433798       0.00132657       0.00110585      -0.00056088
Ni      29.06684493      16.68278868      25.40356643       0.60000000       0.53435728       0.00065197       0.00012720       0.00159937
Cr      28.18856805      14.33481226      28.18856805       0.60000000       0.35358169       0.00102569      -0.00159233       0.00102569
Ni      29.94105792      14.37964003      29.94105792       0.60000000       0.30503811      -0.00035951       0.00155078      -0.00035951
Ni      28.18829772      14.30535448      31.61902191       0.60000000       0.29422514      -0.00360422       0.00588665       0.00314342
Ni      28.25816867      16.05527058      33.30506545       0.60000000       0.28755975       0.00913935       0.00409813      -0.00553211
Ni      29.92722750      14.20166233      33.41452151       0.60000000       0.12560894       0.00526698       0.00313812      -0.00104619
Ni      28.17776049      14.20156932      35.16874842       0.60000000       0.02115023      -0.00524669      -0.00127265      -0.00037065
Ni      28.19561395      15.94490077      36.94793035       0.60000000       0.02272887       0.00498738       0.00498502       0.00099025
Ni      29.93129732      14.14066463      36.97015748       0.60000000       0.00480683       0.00083201       0.00088627       0.00067898
Ni      29.94412641      15.97316161      35.17019477       0.60000000       0.05259190       0.00397928       0.00254862       0.00110809
Ni      28.19200000      14.09600000      38.76400000       0.60000000       0.00296951      -0.05824836       0.16576476      -0.21438622
Ni      28.19200000      15.85800000      40.52600000       0.60000000      -0.00190356       0.00066111      -0.00007466       0.01809974
Ni      29.95400000      14.09600000      40.52600000       0.60000000       0.00131742      -0.00339298       0.00374514       0.00425762
Ni      29.95400000      15.85800000      38.76400000       0.60000000       0.00532073      -0.05472054       0.19140277      -0.22319947
Ni      28.19200000      17.62000000       0.00000000       0.60000000      -0.00321829       0.00021767       0.00052893      -0.01338992
Ni      28.19200000      19.38200000       1.76200000       0.60000000       0.00630510      -0.11625193       0.02404024       0.17412999
Ni      29.95400000      17.62000000       1.76200000       0.60000000       0.03897833       0.00612574       0.01502851       0.18060309
Ni      29.95400000      19.38200000       0.00000000       0.60000000      -0.00388877      -0.00033670       0.00051389      -0.01087012
Ni      28.14326304      17.64729522       3.56709151       0.60000000       0.16854593       0.00390887      -0.00224218       0.00067826
Ni      28.13219935      19.38515285       5.39748322       0.60000000       0.33070065       0.00089076       0.00318080       0.00003269
Ni      29.92647767      19.37707481       3.55636545       0.60000000       0.31270370       0.00321468      -0.00325872      -0.00380182
Ni      28.16988265      17.76016819       7.27455957       0.60000000       0.74506955       0.00449939       0.00632957      -0.00423271
Ni      26.39659895      17.75426433       9.12273863       0.60000000       0.56391129      -0.00162067      -0.00104629      -0.00080888
Ni      26.54351549      19.48292080      11.05507906       0.60000000       0.43503425       0.00225313       0.00049473      -0.00153756
Ni      29.67384938      17.72236356      12.34152211       0.60000000       0.34496911      -0.00029296      -0.00618590      -0.00041268
Ni      28.34286131      19.51988285       9.17782669       0.60000000       0.56513868       0.00405294       0.00206448       0.00251096
Ni      27.71579758      17.63791092      13.98374240       0.60000000       0.27408171       0.00929967       0.01157230       0.00145814
Ni      27.62192280      19.33904611      15.68930658       0.60000000       0.13696056       0.00763150       0.01006773       0.00505405
Ni      29.52855800      17.67009569      15.85822841       0.60000000       0.04879387       0.00510662       0.00440306      -0.00202504
Ni      29.54279349      19.49203116      14.06625549       0.60000000       0.10159494       0.00359861       0.00674302      -0.00003401
Ni      27.62842672      17.48257217      17.48257217       0.60000000       0.08262056       0.00571852       0.01088427       0.01088427
Ni      27.54274361      19.18067502      19.18067502       0.60000000       0.14569174       0.01212249       0.00700107       0.00700107
Ni      29.44664743      17.62869214      19.41703288       0.60000000       0.09540284       0.01536989      -0.00298200       0.00036272
Ni      29.44664743      19.41703288      17.62869214       0.60000000       0.09540284       0.01536989       0.00036272      -0.00298200
Ni      27.55633928      17.42128742      20.95953741       0.60000000       0.25053703       0.01299286       0.00986418       0.00536241
Ni      29.15010288      17.78082875      23.07945639       0.60000000       0.28251006       0.00279249      -0.00131470       0.00209987
Ni      29.04193318      19.55555159      21.32513514       0.60000000       0.11043853       0.00783636       0.01074554       0.01076780
Ni      27.17674444      18.26697113      25.40717601       0.60000000       0.14424424      -0.00468594       0.00007528      -0.00419471
Ni      27.22575756      16.48306146      27.22575756       0.60000000       0.23788622       0.00174358      -0.00167061       0.00174358
Ni      27.22723236      18.38361653      29.02610605       0.60000000       0.14953807       0.00335451       0.00207937       0.00139560
Ni      29.06436854      16.60862800      29.06436854       0.60000000       0.35229326       0.00065337      -0.00020674       0.00065337
Ni      29.02610605      18.38361653      27.22723236       0.60000000       0.14953807       0.00139560       0.00207937       0.00335451
Ni      28.38254627      19.58641612      33.11601922       0.60000000       0.20392968      -0.00010922      -0.00022795       0.00015491
Ni      30.07004542      17.78168035      33.18584035       0.60000000       0.46012531       0.01086539       0.00893769      -0.00217860
Ni      29.02137190      18.44574946      30.89132444       0.60000000       0.30970963       0.00051769       0.00131356      -0.00011914
Ni      28.28039757      17.80764788      35.06353875       0.60000000       0.06995159       0.00829309       0.00629837      -0.00114591
Ni      28.24850427      19.51358047      36.87686527       0.60000000       0.06525175       0.00226767       0.00342357      -0.00023019
Ni      29.97539399      17.73114385      36.94364282       0.60000000       0.04342276       0.00273945       0.00341103       0.00077749
Ni      30.08275395      19.58558293      35.00889631       0.60000000       0.23255352       0.00357387       0.00230460       0.00004323
Ni      28.19200000      17.62000000      38.76400000       0.60000000       0.02092040       0.01997199       0.26743851      -0.33224711
Ni      28.19200000      19.38200000      40.52600000       0.60000000       0.00326602       0.00090701      -0.00005823       0.03427706
Ni      29.95400000      17.62000000      40.52600000       0.60000000      -0.00085175       0.00034745      -0.00055311       0.02100251
Ni      29.95400000      19.38200000      38.76400000       0.60000000       0.03589743       0.11571133       0.31632598      -0.42228715
Ni      28.19200000      21.14400000       0.00000000       0.60000000      -0.00357515       0.00021276       0.00001174      -0.01319550
Ni      28.19200000      22.90600000       1.76200000       0.60000000       0.00085212      -0.12460093      -0.04099560       0.17844315
Ni      29.95400000      21.14400000       1.76200000       0.60000000       0.00309477      -0.10302585      -0.02176583       0.16374218
Ni      29.95400000      22.90600000       0.00000000       0.60000000      -0.00465825       0.00017361      -0.00000546      -0.00965615
Ni      28.15108559      21.13370032       3.56525052       0.60000000       0.01965347       0.00141390       0.00130413      -0.00178641
Ni      28.13081707      22.87480175       5.38360692       0.60000000       0.04155966      -0.00099317      -0.00182041      -0.00836454
Ni      29.88917210      21.14528445       5.34145352       0.60000000       0.50420114       0.00544459      -0.00727542      -0.00194124
Ni      29.91768341      22.89685701       3.55170214       0.60000000       0.01452804       0.00118434      -0.00247082      -0.00356485
Ni      28.16920944      21.12262814       7.26170255       0.60000000       0.35137993       0.00174026       0.00153978       0.00127432
Ni      29.90299713      22.84928623       7.16717700       0.60000000       0.36284715      -0.00670072       0.02174653      -0.01186609
Ni      26.49773362      21.19808014       9.18646361       0.60000000       0.22147889       0.00082370       0.00244032       0.00257766
Ni      27.21193926      21.99662698      11.48183668       0.60000000       0.45032014       0.00679219       0.00114645       0.00601094
Ni      29.04273644      20.16438643      11.54848505       0.60000000       0.31757568       0.00021083      -0.00073756       0.00735487
Ni      29.04428089      21.99171252       9.61187559       0.60000000       0.46889297      -0.00485685      -0.00171148       0.00602804
Ni      27.16707730      20.28866981      13.39293452       0.60000000       0.27175882      -0.00105562      -0.00030504       0.00421779
Ni      27.16378247      22.12950109      15.22030191       0.60000000       0.41818392       0.00360112       0.00049124       0.00581730
Ni      29.46285216      21.24171224      15.85713050       0.60000000       0.25304911       0.00950724       0.00076264       0.00212182
Ni      29.04886416      21.85656684      13.37069322       0.60000000       0.66990716       0.00662991      -0.00675486      -0.00369771
Ni      27.55633928      20.95953741      17.42128742       0.60000000       0.25053703       0.01299286       0.00536241       0.00986418
Ni      29.04193318      21.32513514      19.55555159       0.60000000       0.11043853       0.00783636       0.01076780       0.01074554
Ni      29.15010288      23.07945639      17.78082875       0.60000000       0.28251006       0.00279249       0.00209987      -0.00131470
Ni      27.29505528      21.69341254      21.69341254       0.60000000       0.11713290       0.00197135      -0.00227865      -0.00227865
Ni      27.33507194      19.82781958      23.43643117       0.60000000       0.15956526      -0.00091794      -0.00188445       0.00257865
Ni      27.40209352      21.55187915      25.13343388       0.60000000       0.20783400      -0.00593001       0.00080770      -0.00047016
Ni      29.31568755      19.51948371      24.97814155       0.60000000       0.12756990      -0.00206071       0.00227303      -0.00311696
Ni      29.26004881      21.41086669      23.22386553       0.60000000       0.13138534      -0.00172230       0.00511739       0.00334644
Ni      27.18192534      20.11145734      27.18192534       0.60000000       0.14915886      -0.00075643      -0.00182891      -0.00075643
Ni      26.77211268      21.32721143      29.33420433       0.60000000       0.16321372       0.00155541       0.00284494      -0.00084289
Ni      29.01423015      20.16570369      29.01423015       0.60000000       0.15442730      -0.00016868       0.00265565      -0.00016868
Ni      29.33420433      21.32721143      26.77211268       0.60000000       0.16321372      -0.00084289       0.00284494       0.00155541
Ni      26.70474687      19.50110420      31.21418379       0.60000000       0.11642543      -0.00139541      -0.00045821       0.00168388
Ni      28.52823936      21.30921132      31.18759746       0.60000000       0.16777356      -0.00078688       0.00232137       0.00425572
Ni      28.35947734      21.35685326      34.92304648       0.60000000       0.10828497       0.00057347       0.00107384      -0.00119098
Ni      28.26387544      23.00395155      36.83958010       0.60000000       0.10043730       0.00165726       0.00025403      -0.00146545
Ni      30.03664197      21.27411131      36.84851130       0.60000000       0.11245800       0.00104761       0.00152452      -0.00030541
Ni      28.19200000      21.14400000      38.76400000       0.60000000       0.03772980       0.09833606       0.22335361      -0.52992909
Ni      28.19200000      22.90600000      40.52600000       0.60000000       0.00584668       0.00096781       0.00100671       0.04180057
Ni      29.95400000      21.14400000      40.52600000       0.60000000       0.00535959       0.00232081       0.00074084       0.03898597
Ni      29.95400000      22.90600000      38.76400000       0.60000000       0.04515778       0.12028688       0.14913310      -0.55652502
Ni      28.19200000      24.66800000       0.00000000       0.60000000      -0.00369148       0.00022888      -0.00008920      -0.01310623
Ni      28.19200000      26.43000000       1.76200000       0.60000000      -0.00016687      -0.10002580      -0.07887986       0.16986755
Ni      29.95400000      24.66800000       1.76200000       0.60000000      -0.00130694      -0.10550410      -0.03653112       0.13986685
Ni      29.95400000      26.43000000       0.00000000       0.60000000       0.00102153      -0.00368006      -0.00383915      -0.00357726
Ni      28.15286349      24.64393228       3.56615193       0.60000000       0.00525491       0.00213851       0.00046423       0.00078225
Ni      28.13014485      26.37510052       5.37153481       0.60000000       0.00889764      -0.00233779      -0.00117051       0.00730185
Ni      29.89326421      24.62855408       5.35931097       0.60000000       0.01173860      -0.00123978       0.00832831      -0.00491359
Ni      29.91912368      26.40523256       3.55686044       0.60000000       0.00104695      -0.00057834       0.00015022       0.00013711
Ni      28.12641870      24.60137449       7.20645833       0.60000000       0.13320851      -0.01247167       0.00250550       0.00039484
Ni      28.11441660      26.35342364       8.99153177       0.60000000       0.04660687      -0.00485610       0.00831375       0.00216832
Ni      29.88117562      26.37149395       7.14978635       0.60000000       0.01101465      -0.00303842       0.00834367      -0.00017643
Ni      28.26222385      26.35811634      12.47425337       0.60000000       0.39148140      -0.00162331       0.00055740      -0.00070215
Ni      28.18377443      24.42837989      10.68747518       0.60000000       0.60012029      -0.00208778      -0.00455975       0.00707406
Ni      29.91986067      26.37210278      10.67234464       0.60000000       0.33633788       0.00250543       0.00760798       0.00796398
Ni      26.60213206      24.37963489      12.54697682       0.60000000       0.58460452      -0.00273831       0.00183042      -0.00325311
Ni      29.06684493      25.40356643      16.68278868       0.60000000       0.53435728       0.00065197       0.00159937       0.00012720
Ni      29.86479904      26.49595152      14.50785968       0.60000000       0.60433798       0.00132657      -0.00056088       0.00110585
Ni      27.17674444      25.40717601      18.26697113       0.60000000       0.14424424      -0.00468594      -0.00419471       0.00007528
Ni      27.33507194      23.43643117      19.82781958       0.60000000       0.15956526      -0.00091794       0.00257865      -0.00188445
Ni      27.40209352      25.13343388      21.55187915       0.60000000       0.20783400      -0.00593001      -0.00047016       0.00080770
Ni      29.26004881      23.22386553      21.41086669       0.60000000       0.13138534      -0.00172230       0.00334644       0.00511739
Ni      29.31568755      24.97814155      19.51948371       0.60000000       0.12756990      -0.00206071      -0.00311696       0.00227303
Ni      27.30807405      23.44329564      23.44329564       0.60000000       0.18193400      -0.00103543      -0.00546161      -0.00546161
Ni      27.15483449      25.20416301      25.20416301       0.60000000       0.33924915      -0.00202978      -0.00499625      -0.00499625
Ni      29.26584749      23.21233592      25.01980715       0.60000000       0.21468493      -0.00628323       0.00389886       0.00581197
Ni      29.26584749      25.01980715      23.21233592       0.60000000       0.21468493      -0.00628323       0.00581197       0.00389886
Ni      27.12706677      22.96725858      27.12706677       0.60000000       0.30108395       0.00042107       0.01005360       0.00042107
Ni      26.97511759      24.75400397      28.87493119       0.60000000       0.34496136      -0.00225735       0.01620328       0.00050846
Ni      28.86694473      22.74383505      28.86694473       0.60000000       0.22809445       0.00106589       0.00779983       0.00106589
Ni      28.87493119      24.75400397      26.97511759       0.60000000       0.34496136       0.00050846       0.01620328      -0.00225735
Ni      26.74756958      23.14427343      31.10734515       0.60000000       0.20616658       0.00420811       0.00512676       0.00028979
Ni      26.69268477      24.90732817      32.97900600       0.60000000       0.28387048       0.00388197       0.00528960      -0.00158319
Ni      28.48227274      23.13159066      32.97875374       0.60000000       0.23864596       0.00186537       0.00367772      -0.00025055
Ni      28.74750470      24.62276397      30.60073146       0.60000000       0.28883920      -0.00103097       0.00986293       0.00120347
Ni      28.24952576      26.47605846      36.88353583       0.60000000       0.43096572       0.00062328       0.00094938      -0.00055426
Ni      30.03979497      24.72328293      36.86928630       0.60000000       0.41988701       0.00081456       0.00246311      -0.00058620
Ni      28.39756554      24.83675835      34.90512632       0.60000000       0.35249136       0.00377714       0.00472253      -0.00340879
Ni      28.19200000      24.66800000      38.76400000       0.60000000       0.03916780       0.08766973       0.08953947      -0.57608171
Ni      28.19200000      26.43000000      40.52600000       0.60000000       0.01548254      -0.00835667      -0.00798314       0.03369762
Ni      29.95400000      24.66800000      40.52600000       0.60000000       0.01610070      -0.00820233      -0.00714398       0.03623555
Ni      29.95400000      26.43000000      38.76400000       0.60000000       0.44067445       0.03983872       0.01395760      -0.35085633
Ni      28.19200000      28.19200000       0.00000000       0.60000000       0.00124667      -0.00373936      -0.00373936      -0.00429604
Ni      28.19200000      29.95400000       1.76200000       0.60000000      -0.00229284      -0.07378962      -0.08637585       0.14465943
Ni      29.95400000      28.19200000       1.76200000       0.60000000      -0.00229284      -0.08637585      -0.07378962       0.14465943
Ni      29.95400000      29.95400000       0.00000000       0.60000000       0.04324019       0.00572340       0.00572340       0.08582689
Ni      28.15948115      28.15948115       3.55878452       0.60000000       0.00201821       0.00019390       0.00019390       0.00340939
Ni      28.14446003      29.90014194       5.34492132       0.60000000       0.00236340      -0.00008588      -0.00024021      -0.00018787
Ni      29.90014194      28.14446003       5.34492132       0.60000000       0.00236340      -0.00024021      -0.00008588      -0.00018787
Ni      29.92749536      29.92749536       3.54984079       0.60000000      -0.00180169      -0.00212744      -0.00212744       0.00152352
Ni      28.12025770      28.12025770       7.15608485       0.60000000       0.00667696       0.00150295       0.00150295      -0.00511843
Ni      28.14162752      29.89196191       8.90055621       0.60000000       0.01054227      -0.00021224       0.00097307      -0.00117372
Ni      29.89196191      28.14162752       8.90055621       0.60000000       0.01054227       0.00097307      -0.00021224      -0.00117372
Ni      29.90194166      29.90194166       7.10815306       0.60000000       0.00048765       0.00026336       0.00026336      -0.00056668
Ni      28.14814368      28.14814368      10.72040153       0.60000000       0.02863055       0.00280679       0.00280679       0.00180643
Ni      28.18676509      29.90851614      12.50117641       0.60000000       0.08228001      -0.00502058       0.00650821       0.00063948
Ni      29.90851614      28.18676509      12.50117641       0.60000000       0.08228001       0.00650821      -0.00502058       0.00063948
Ni      29.90870069      29.90870069      10.66216916       0.60000000       0.00824822      -0.00081901      -0.00081901      -0.00392030
Cr      28.18856805      28.18856805      14.33481226       0.60000000       0.35358169       0.00102569       0.00102569      -0.00159233
Ni      29.94105792      29.94105792      14.37964003       0.60000000       0.30503811      -0.00035951      -0.00035951       0.00155078
Ni      27.22575756      27.22575756      16.48306146       0.60000000       0.23788622       0.00174358       0.00174358      -0.00167061
Ni      27.22723236      29.02610605      18.38361653       0.60000000       0.14953807       0.00335451       0.00139560       0.00207937
Ni      29.02610605      27.22723236      18.38361653       0.60000000       0.14953807       0.00139560       0.00335451       0.00207937
Ni      29.06436854      29.06436854      16.60862800       0.60000000       0.35229326       0.00065337       0.00065337      -0.00020674
Ni      27.18192534      27.18192534      20.11145733       0.60000000       0.14915886      -0.00075643      -0.00075643      -0.00182891
Ni      26.77211268      29.33420433      21.32721143       0.60000000       0.16321372       0.00155541      -0.00084289       0.00284494
Ni      29.33420433      26.77211268      21.32721143       0.60000000       0.16321372      -0.00084289       0.00155541       0.00284494
Ni      29.01423015      29.01423015      20.16570369       0.60000000       0.15442730      -0.00016868      -0.00016868       0.00265565
Ni      27.12706677      27.12706677      22.96725858       0.60000000       0.30108395       0.00042107       0.00042107       0.01005360
Ni      26.97511759      28.87493119      24.75400397       0.60000000       0.34496136      -0.00225735       0.00050846       0.01620328
Ni      28.87493119      26.97511759      24.75400397       0.60000000       0.34496136       0.00050846      -0.00225735       0.01620328
Ni      28.86694473      28.86694473      22.74383505       0.60000000       0.22809445       0.00106589       0.00106589       0.00779983
Ni      26.97004915      26.97004915      26.97004915       0.60000000       0.38541091      -0.00225775      -0.00225775      -0.00225775
Ni      26.59700874      28.71784026      28.71784026       0.60000000       0.27736913       0.01610129      -0.00285389      -0.00285389
Ni      28.71784026      26.59700874      28.71784026       0.60000000       0.27736913      -0.00285389       0.01610129      -0.00285389
Ni      28.71784026      28.71784026      26.59700874       0.60000000       0.27736913      -0.00285389      -0.00285389       0.01610129
Ni      26.70522104      26.70522104      30.46322820       0.60000000       0.36229861       0.00639595       0.00639595       0.00994609
Ni      26.58155446      28.53480440      32.20256225       0.60000000       0.35520263       0.00235411       0.00506948       0.00997708
Ni      28.53480440      26.58155446      32.20256225       0.60000000       0.35520263       0.00506948       0.00235411       0.00997708
Ni      28.50963579      28.50963579      30.38981055       0.60000000       0.18708233       0.00398272       0.00398272       0.00598024
Ni      26.60216274      26.60216274      34.91937490       0.60000000       0.36977795       0.00371955       0.00371955      -0.00253107
Ni      28.45709779      28.45709779      33.92300551       0.60000000       0.41352849       0.00420748       0.00420748       0.00587457
Ni      28.19200000      28.19200000      38.76400000       0.60000000       0.44309628       0.02043027       0.02043027      -0.34716765
Ni      28.19200000      29.95400000      40.52600000       0.60000000       0.29832900       0.08974355       0.09109500      -0.06284543
Ni      29.95400000      28.19200000      40.52600000       0.60000000       0.29832900       0.09109500       0.08974355      -0.06284543
Ni      28.19200000      31.71600000       0.00000000       0.60000000       0.04304937       0.00564686       0.00560279       0.08583346
Ni      28.19200000      33.47800000       1.76200000       0.60000000       0.00107292      -0.04815156      -0.07118041       0.11318065
Ni      29.95400000      31.71600000       1.76200000       0.60000000       0.00135723      -0.06681035      -0.07259405       0.12567596
Ni      29.95400000      33.47800000       0.00000000       0.60000000       0.30400575       0.06507612       0.06452788      -0.09329704
Ni      28.16970739      31.68880650       3.54897571       0.60000000      -0.00235711       0.00021204      -0.00213916       0.00069036
Ni      28.16169281      33.44170195       5.32271967       0.60000000      -0.00176262      -0.00290279       0.00298603       0.00084664
Ni      29.91811948      31.67774010       5.32344595       0.60000000      -0.00096705      -0.00030325       0.00084681      -0.00083300
Ni      29.93676263      33.45886354       3.54187168       0.60000000      -0.00383955      -0.00083475      -0.00058209      -0.00024831
Ni      28.14919573      31.66238812       7.10660415       0.60000000       0.00106201      -0.00181983       0.00199711      -0.00082010
Ni      28.15553587      33.42742276       8.87075042       0.60000000       0.00482038       0.00732107       0.00451428       0.00182354
Ni      29.91227146      31.66830945       8.86839460       0.60000000      -0.00138979      -0.00176770      -0.00049944      -0.00174324
Ni      29.91931432      33.44032916       7.08889458       0.60000000      -0.00154598       0.00097261      -0.00102674      -0.00238788
Ni      28.16806797      31.65503145      10.66254712       0.60000000       0.03317777       0.00129701       0.00278550       0.00767817
Ni      28.16186635      33.40390653      12.43571503       0.60000000       0.01558953       0.00568217       0.00480504       0.00926720
Ni      29.91648206      31.65848418      12.44307656       0.60000000       0.02689888       0.00134556      -0.00212852      -0.00016594
Ni      29.91722274      33.43104095      10.63710449       0.60000000      -0.00025670      -0.00179420      -0.00231489       0.00025530
Ni      28.18829772      31.61902191      14.30535448       0.60000000       0.29422514      -0.00360422       0.00314342       0.00588665
Ni      28.25816867      33.30506545      16.05527058       0.60000000       0.28755975       0.00913935      -0.00553211       0.00409813
Ni      29.92722750      33.41452151      14.20166233       0.60000000       0.12560894       0.00526698      -0.00104619       0.00313812
Ni      28.38254627      33.11601922      19.58641612       0.60000000       0.20392968      -0.00010922       0.00015491      -0.00022795
Ni      29.02137190      30.89132444      18.44574946       0.60000000       0.30970963       0.00051769      -0.00011914       0.00131356
Ni      30.07004542      33.18584035      17.78168035       0.60000000       0.46012531       0.01086539      -0.00217860       0.00893769
Ni      26.70474687      31.21418379      19.50110420       0.60000000       0.11642543      -0.00139541       0.00168388      -0.00045821
Ni      28.52823936      31.18759746      21.30921132       0.60000000       0.16777356      -0.00078688       0.00425572       0.00232137
Ni      26.74756958      31.10734515      23.14427343       0.60000000       0.20616658       0.00420811       0.00028979       0.00512676
Ni      26.69268477      32.97900600      24.90732817       0.60000000       0.28387048       0.00388197      -0.00158319       0.00528960
Ni      28.74750470      30.60073146      24.62276397       0.60000000       0.28883920      -0.00103097       0.00120347       0.00986293
Ni      28.48227274      32.97875374      23.13159066       0.60000000       0.23864596       0.00186537      -0.00025055       0.00367772
Ni      26.70522104      30.46322820      26.70522104       0.60000000       0.36229861       0.00639595       0.00994609       0.00639595
Ni      26.58155446      32.20256225      28.53480440       0.60000000       0.35520263       0.00235411       0.00997708       0.00506948
Ni      28.50963579      30.38981055      28.50963579       0.60000000       0.18708233       0.00398272       0.00598024       0.00398272
Ni      28.53480440      32.20256225      26.58155446       0.60000000       0.35520263       0.00506948       0.00997708       0.00235411
Ni      26.52450897      30.46958172      30.46958172       0.60000000       0.17820829       0.01053297      -0.00171567      -0.00171567
Ni      26.52254928      32.23045716      32.23045716       0.60000000       0.12890388       0.00611294       0.00041825       0.00041825
Ni      28.43483531      30.33068814      32.15828014       0.60000000       0.12089709       0.00313039       0.00284256       0.00514912
Ni      28.43483531      32.15828014      30.33068814       0.60000000       0.12089709       0.00313039       0.00514912       0.00284256
Ni      26.56020242      30.35110204      33.97065823       0.60000000       0.39893877       0.00356878       0.00522131       0.00679896
Ni      26.63406881      32.18817428      35.73977310       0.60000000       0.46066046       0.00329010       0.00285304       0.00414073
Ni      28.48418361      30.33253468      35.67560724       0.60000000       0.47162799       0.00382523       0.00399657       0.00549188
Ni      28.44439852      32.14603553      33.93356809       0.60000000       0.08406058       0.00345807       0.00280045       0.00322964
Ni      28.19200000      33.47800000      40.52600000       0.60000000       0.68804265      -0.02021060      -0.00903154      -0.34824229
Ni      29.95400000      31.71600000      40.52600000       0.60000000       0.69601988      -0.01354442      -0.00988529      -0.31956010
Ni      28.53546138      32.17037432      37.45403966       0.60000000       0.72713532       0.00241533       0.00314497       0.00533736
Ni      28.19200000      35.24000000       0.00000000       0.60000000       0.30360878       0.06588611       0.06486783      -0.09273585
Ni      28.19200000      37.00200000       1.76200000       0.60000000       0.03183419      -0.01364418      -0.02097430       0.17772955
Ni      29.95400000      35.24000000       1.76200000       0.60000000       0.03400607      -0.02914843      -0.03986479       0.19298555
Ni      29.95400000      37.00200000       0.00000000       0.60000000       0.48717337       0.00607781       0.01725651      -0.46918201
Ni      28.18026646      35.22385316       3.53988372       0.60000000      -0.00392476      -0.00312826       0.00024711       0.00368215
Ni      28.17998437      36.98659528       5.30362446       0.60000000      -0.00364566      -0.00635954       0.00078041       0.00665920
Ni      29.93233572      35.21645130       5.31130745       0.60000000      -0.00229038       0.00151458      -0.00040113      -0.00310760
Ni      29.94741197      36.99410173       3.53356934       0.60000000      -0.00718980      -0.00290834      -0.00161855       0.00086548
Ni      28.16289979      35.20500957       7.08724461       0.60000000      -0.00026351       0.00151642       0.00476626      -0.00089293
Ni      28.17040108      36.97703515       8.83737634       0.60000000      -0.00139015      -0.00023581       0.00133375       0.00159237
Ni      29.92339608      35.20619962       8.85049370       0.60000000      -0.00083290       0.00058318      -0.00036848      -0.00136200
Ni      29.93731720      36.98497145       7.06810231       0.60000000      -0.00363206       0.00294545       0.00184551      -0.00264899
Ni      28.15479083      35.18903112      10.62988205       0.60000000       0.00332225       0.00665821       0.00706625       0.00601330
Ni      28.16972736      36.96944548      12.37644229       0.60000000       0.00330177      -0.00848188      -0.00394093      -0.00404662
Ni      29.91836067      35.19561040      12.39398154       0.60000000       0.00281149       0.00469335       0.00097264       0.00351883
Ni      29.93110910      36.97872305      10.60007220       0.60000000      -0.00190914       0.00442282       0.00211105       0.00004315
Ni      28.17776049      35.16874842      14.20156932       0.60000000       0.02115023      -0.00524669      -0.00037065      -0.00127265
Ni      28.19561395      36.94793035      15.94490077       0.60000000       0.02272887       0.00498738       0.00099025       0.00498502
Ni      29.94412641      35.17019477      15.97316161       0.60000000       0.05259190       0.00397928       0.00110809       0.00254862
Ni      29.93129732      36.97015748      14.14066463       0.60000000       0.00480683       0.00083201       0.00067898       0.00088627
Ni      28.28039757      35.06353875      17.80764788       0.60000000       0.06995159       0.00829309      -0.00114591       0.00629837
Ni      28.24850427      36.87686527      19.51358047       0.60000000       0.06525175       0.00226767      -0.00023019       0.00342357
Ni      30.08275395      35.00889631      19.58558293       0.60000000       0.23255352       0.00357387       0.00004323       0.00230460
Ni      29.97539399      36.94364282      17.73114385       0.60000000       0.04342276       0.00273945       0.00077749       0.00341103
Ni      28.35947734      34.92304648      21.35685326       0.60000000       0.10828497       0.00057347      -0.00119098       0.00107384
Ni      28.26387544      36.83958010      23.00395155       0.60000000       0.10043730       0.00165726      -0.00146545       0.00025403
Ni      30.03664197      36.84851130      21.27411131       0.60000000       0.11245800       0.00104761      -0.00030541       0.00152452
Ni      28.24952576      36.88353583      26.47605846       0.60000000       0.43096572       0.00062328      -0.00055426       0.00094938
Ni      28.39756554      34.90512632      24.83675835       0.60000000       0.35249136       0.00377714      -0.00340879       0.00472253
Ni      30.03979497      36.86928630      24.72328293       0.60000000       0.41988701       0.00081456      -0.00058620       0.00246311
Ni      26.60216274      34.91937490      26.60216274       0.60000000       0.36977795       0.00371955      -0.00253107       0.00371955
Ni      28.45709779      33.92300551      28.45709779       0.60000000       0.41352849       0.00420748       0.00587457       0.00420748
Ni      26.56020242      33.97065823      30.35110204       0.60000000       0.39893877       0.00356878       0.00679896       0.00522131
Ni      26.63406881      35.73977310      32.18817428       0.60000000       0.46066046       0.00329010       0.00414073       0.00285304
Ni      28.44439852      33.93356809      32.14603553       0.60000000       0.08406058       0.00345807       0.00322964       0.00280045
Ni      28.48418361      35.67560724      30.33253468       0.60000000       0.47162799       0.00382523       0.00549188       0.00399657
Ni      26.59684422      34.00036521      34.00036521       0.60000000       0.09844302       0.00361220       0.00154468       0.00154468
Ni      26.70137436      35.78547403      35.78547403       0.60000000       0.14118907       0.00386239       0.00226473       0.00226473
Ni      28.51250227      33.95854160      35.72414737       0.60000000       0.09922288       0.00202779       0.00215720       0.00242168
Ni      28.51250227      35.72414737      33.95854160       0.60000000       0.09922288       0.00202779       0.00242168       0.00215720
Ni      26.73069021      34.01346354      37.53013386       0.60000000       0.71416718       0.00321000       0.00244624       0.00441338
Ni      28.62439756      35.76183037      37.54172421       0.60000000       0.36384191       0.00156490       0.00193418       0.00265802
Ni      28.19200000      38.76400000       0.00000000       0.60000000       0.40197416      -0.01185055       0.54942762      -0.36699491
Ni      28.19200000      40.52600000       1.76200000       0.60000000       8.30203875     -26.68512518     -53.35763315      26.75868129
Ni      29.95400000      38.76400000       1.76200000       0.60000000      -0.05759258       0.03422435       0.65591379       0.12082976
Ni      29.95400000      40.52600000       0.00000000       0.60000000       8.76398964     -22.95736453     -53.19246700      23.53428854
Ni      28.19200000      38.76400000       3.52400000       0.60000000       0.00407550       0.09667744       0.04908860      -0.07646901
Ni      28.19200000      40.52600000       5.28600000       0.60000000       0.26753302       0.23543704       0.14722422      -0.23530317
Ni      29.95400000      38.76400000       5.28600000       0.60000000       0.00476332       0.08086673       0.03942340      -0.06786292
Ni      29.95400000      40.52600000       3.52400000       0.60000000       8.27245320     -26.64609266     -53.37852739      26.64621183
Ni      28.19200000      38.76400000       7.04800000       0.60000000       0.00114075      -0.05974543      -0.12233263       0.07392663
Ni      28.19200000      40.52600000       8.81000000       0.60000000       0.04261735       0.00485223      -0.08245841      -0.00477618
Ni      29.95400000      38.76400000       8.81000000       0.60000000       0.00115760      -0.06561105      -0.12234451       0.07390714
Ni      29.95400000      40.52600000       7.04800000       0.60000000       0.26766514       0.23525397       0.14774628      -0.23525248
Ni      28.19200000      38.76400000      10.57200000       0.60000000      -0.00223149      -0.06755905      -0.15099033       0.09484835
Ni      28.19200000      40.52600000      12.33400000       0.60000000       0.00133274      -0.00348446       0.00446821       0.00372979
Ni      29.95400000      38.76400000      12.33400000       0.60000000      -0.00239822      -0.06974799      -0.15094006       0.09987174
Ni      29.95400000      40.52600000      10.57200000       0.60000000       0.04253974       0.00489856      -0.08272878      -0.00476798
Ni      28.19200000      38.76400000      14.09600000       0.60000000       0.00296951      -0.05824836      -0.21438622       0.16576476
Ni      28.19200000      40.52600000      15.85800000       0.60000000      -0.00190356       0.00066111       0.01809974      -0.00007466
Ni      29.95400000      38.76400000      15.85800000       0.60000000       0.00532073      -0.05472054      -0.22319947       0.19140277
Ni      29.95400000      40.52600000      14.09600000       0.60000000       0.00131742      -0.00339298       0.00425762       0.00374514
Ni      28.19200000      38.76400000      17.62000000       0.60000000       0.02092040       0.01997199      -0.33224711       0.26743851
Ni      28.19200000      40.52600000      19.38200000       0.60000000       0.00326602       0.00090701       0.03427706      -0.00005823
Ni      29.95400000      38.76400000      19.38200000       0.60000000       0.03589743       0.11571133      -0.42228715       0.31632598
Ni      29.95400000      40.52600000      17.62000000       0.60000000      -0.00085175       0.00034745       0.02100251      -0.00055311
Ni      28.19200000      38.76400000      21.14400000       0.60000000       0.03772980       0.09833606      -0.52992909       0.22335361
Ni      28.19200000      40.52600000      22.90600000       0.60000000       0.00584668       0.00096781       0.04180057       0.00100671
Ni      29.95400000      38.76400000      22.90600000       0.60000000       0.04515778       0.12028688      -0.55652502       0.14913310
Ni      29.95400000      40.52600000      21.14400000       0.60000000       0.00535959       0.00232081       0.03898597       0.00074084
Ni      28.19200000      38.76400000      24.66800000       0.60000000       0.03916780       0.08766973      -0.57608171       0.08953947
Ni      28.19200000      40.52600000      26.43000000       0.60000000       0.01548254      -0.00835667       0.03369762      -0.00798314
Ni      29.95400000      38.76400000      26.43000000       0.60000000       0.44067445       0.03983872      -0.35085633       0.01395760
Ni      29.95400000      40.52600000      24.66800000       0.60000000       0.01610070      -0.00820233       0.03623555      -0.00714398
Ni      28.19200000      38.76400000      28.19200000       0.60000000       0.44309628       0.02043027      -0.34716765       0.02043027
Ni      28.19200000      40.52600000      29.95400000       0.60000000       0.29832900       0.08974355      -0.06284543       0.09109500
Ni      29.95400000      40.52600000      28.19200000       0.60000000       0.29832900       0.09109500      -0.06284543       0.08974355
Ni      28.19200000      40.52600000      33.47800000       0.60000000       0.68804265      -0.02021060      -0.34824229      -0.00903154
Ni      28.53546138      37.45403966      32.17037432       0.60000000       0.72713532       0.00241533       0.00533736       0.00314497
Ni      29.95400000      40.52600000      31.71600000       0.60000000       0.69601988      -0.01354442      -0.31956010      -0.00988529
Ni      26.73069021      37.53013386      34.01346354       0.60000000       0.71416718       0.00321000       0.00441338       0.00244624
Ni      28.62439756      37.54172421      35.76183037       0.60000000       0.36384191       0.00156490       0.00265802       0.00193418
Ni      26.88231162      37.57963453      37.57963453       0.60000000       0.65586160      -0.00026372       0.00192795       0.00192795
Ni      27.01733333      39.35133333      39.35133333       0.60000000       1.12388594      -0.06697714       0.41764846       0.41764846
Ni      28.77933333      37.58933333      39.35133333       0.60000000       0.72603838      -0.20832786      -0.00193609       0.11355306
Ni      28.77933333      39.35133333      37.58933333       0.60000000       0.72603838      -0.20832786       0.11355306      -0.00193609
Ni      30.54133333      -0.58733333      -0.58733333       0.60000000      15.50527792      51.98206790      26.14471646      26.14471646
Ni      30.54133333       1.17466667       1.17466667       0.60000000      -0.18399938       0.04655654      -0.71008850      -0.71008850
Ni      32.30333333      -0.58733333       1.17466667       0.60000000       8.29300510      24.16791598      55.36023821     -24.25027843
Ni      32.30333333       1.17466667      -0.58733333       0.60000000       8.29300510      24.16791598     -24.25027843      55.36023821
Ni      30.54133333      -0.58733333       2.93666667       0.60000000       8.52042205      24.71801732      55.73786590     -24.72339025
Ni      30.54133333       1.17466667       4.69866667       0.60000000       0.34609313       0.04029257      -0.67871758      -0.04042902
Ni      32.30333333      -0.58733333       4.69866667       0.60000000       8.52099863      24.71786390      55.73279319     -24.71792251
Ni      32.30333333       1.17466667       2.93666667       0.60000000      -0.10289444       0.02469004      -0.74662929      -0.04775894
Ni      32.30333333       1.17466667       6.46066667       0.60000000       0.34679454       0.04033745      -0.68084622      -0.04005340
Ni      31.71600000       0.00000000      10.57200000       0.60000000       0.65774664       0.00141631       0.44352092      -0.00256155
Ni      33.47800000       0.00000000      12.33400000       0.60000000       0.65780017       0.00104830       0.44320389      -0.00264016
Ni      31.71600000       0.00000000      14.09600000       0.60000000       0.30012798       0.09108083       0.05102502      -0.09148506
Ni      31.71600000       1.76200000      15.85800000       0.60000000       0.49313795      -0.09254234       0.26322984       0.11603154
Ni      33.47800000       0.00000000      15.85800000       0.60000000       0.30004266       0.09076319       0.04985637      -0.09279525
Ni      31.71600000       0.00000000      17.62000000       0.60000000       0.01265453      -0.01090418      -0.02428696       0.01029053
Ni      31.71600000       1.76200000      19.38200000       0.60000000       0.04037887      -0.04947426       0.13788337      -0.09975384
Ni      33.47800000       0.00000000      19.38200000       0.60000000       0.00886410      -0.01788572      -0.02159499       0.01183329
Ni      33.47800000       1.76200000      17.62000000       0.60000000       0.48282227      -0.09813209       0.22136335       0.02327221
Ni      31.71600000       0.00000000      21.14400000       0.60000000      -0.00506469       0.00012939      -0.00723155       0.00006564
Ni      31.71600000       1.76200000      22.90600000       0.60000000       0.00076798      -0.08955399       0.11961427      -0.01264053
Ni      33.47800000       0.00000000      22.90600000       0.60000000       0.00004171      -0.00400998       0.00033059      -0.00389823
Ni      33.47800000       1.76200000      21.14400000       0.60000000       0.02930530      -0.05171289       0.03333509      -0.03242790
Ni      31.71600000       0.00000000      24.66800000       0.60000000       0.00038770      -0.00379083      -0.00129997      -0.00383703
Ni      31.71600000       1.76200000      26.43000000       0.60000000      -0.00295580      -0.08706498       0.12282755      -0.04212088
Ni      33.47800000       0.00000000      26.43000000       0.60000000       0.04242283       0.00513759       0.08511465       0.00559659
Ni      33.47800000       1.76200000      24.66800000       0.60000000      -0.00345169      -0.07088293       0.10819586      -0.02266603
Ni      31.71600000       0.00000000      28.19200000       0.60000000       0.04304937       0.00560279       0.08583346       0.00564686
Ni      31.71600000       1.76200000      29.95400000       0.60000000       0.00135723      -0.07259405       0.12567596      -0.06681035
Ni      33.47800000       0.00000000      29.95400000       0.60000000       0.30400575       0.06452788      -0.09329704       0.06507612
Ni      33.47800000       1.76200000      28.19200000       0.60000000       0.00107292      -0.07118041       0.11318065      -0.04815156
Ni      31.71600000       0.00000000      31.71600000       0.60000000       0.30410613       0.06459911      -0.09359665       0.06459911
Ni      31.71600000       1.76200000      33.47800000       0.60000000       0.03427611      -0.04034688       0.19865331      -0.04208975
Ni      33.47800000       0.00000000      33.47800000       0.60000000       0.48941400       0.00407258      -0.47057705       0.00407258
Ni      33.47800000       1.76200000      31.71600000       0.60000000       0.03427611      -0.04208975       0.19865331      -0.04034688
Ni      31.71600000       0.00000000      35.24000000       0.60000000       0.48933038       0.00403617      -0.47056811       0.00411989
Ni      31.71600000       1.76200000      37.00200000       0.60000000       0.03556210      -0.01896399       0.15154512      -0.01418872
Ni      33.47800000       0.00000000      37.00200000       0.60000000       0.48694423      -0.00453608      -0.47434411       0.00656882
Ni      33.47800000       1.76200000      35.24000000       0.60000000       0.03813974      -0.03146261       0.16467217      -0.03266590
Ni      31.71600000       0.00000000      38.76400000       0.60000000       0.39859519      -0.02934647      -0.31657915       0.58286231
Ni      31.71600000       1.76200000      40.52600000       0.60000000       8.31646213     -24.07704443      24.19197322     -55.02926761
Ni      33.47800000       0.00000000      40.52600000       0.60000000       8.75834145     -23.00862442      23.58672723     -53.16856323
Ni      33.47800000       1.76200000      38.76400000       0.60000000      -0.06580341      -0.00341832       0.15246236       0.72645547
Ni      30.54133333       2.93666667      -0.58733333       0.60000000       8.52042205      24.71801732     -24.72339025      55.73786590
Ni      30.54133333       4.69866667       1.17466667       0.60000000       0.34609313       0.04029257      -0.04042902      -0.67871759
Ni      32.30333333       2.93666667       1.17466667       0.60000000      -0.10289444       0.02469004      -0.04775894      -0.74662929
Ni      32.30333333       4.69866667      -0.58733333       0.60000000       8.52099863      24.71786390     -24.71792251      55.73279319
Ni      30.54133333       2.93666667       2.93666667       0.60000000       0.01512856       0.02580478      -0.01913064      -0.01913064
Ni      30.56812836       4.70017741       4.70017741       0.60000000       0.00361518       0.00193964      -0.00309170      -0.00309170
Ni      32.30333333       2.93666667       4.69866667       0.60000000       0.00480465       0.07922450       0.00415715       0.01311373
Ni      32.30333333       4.69866667       2.93666667       0.60000000       0.00480465       0.07922450       0.01311373       0.00415715
Ni      30.54133333       2.93666667       6.46066667       0.60000000       0.29912405       0.00650780      -0.04605234       0.13022883
Ni      30.59616795       4.71002716       8.21814482       0.60000000       0.07125391       0.00167817       0.00445040       0.00606993
Ni      32.30333333       2.93666667       8.22266667       0.60000000       0.30132712       0.02593394      -0.00352101       0.16473566
Ni      32.34279708       4.70837899       6.47005547       0.60000000      -0.00073267       0.00197982      -0.00527994       0.00192690
Ni      30.54133333       2.93666667       9.98466667       0.60000000       0.81301666       0.12503597      -0.27979912      -0.07835731
Ni      31.78699249       5.27994784      12.36785476       0.60000000       0.49630915      -0.00684958      -0.00331696      -0.00375766
Ni      32.30333333       2.93666667      11.74666667       0.60000000       0.81522184       0.13385362      -0.24223641      -0.06553927
Ni      32.36073920       4.71991565       9.99623664       0.60000000       0.07127330       0.01304394       0.01407711       0.00028307
Ni      33.51663378       5.27250365      14.17242685       0.60000000       0.47525409      -0.00074138       0.00236822      -0.00030048
Ni      31.69561095       3.62185778      17.63700770       0.60000000       0.68552087       0.00265656       0.00279378      -0.00270583
Ni      33.45628074       3.56372277      19.38152310       0.60000000       0.56738299      -0.00111150       0.00011078      -0.00402758
Ni      31.69382110       3.54486851      21.13825455       0.60000000       0.31257261       0.00368034      -0.00521164      -0.00274646
Ni      31.66971531       5.32757967      22.89584826       0.60000000       0.32312049      -0.00030571      -0.00627781       0.00773671
Ni      33.45329316       3.54520480      22.90225274       0.60000000       0.14557430       0.00262302       0.00098424      -0.00146018
Ni      31.68550384       3.54899638      24.65788502       0.60000000       0.00409337       0.00209833      -0.00521298       0.00364731
Ni      31.66255719       5.34029154      26.39509403       0.60000000       0.00048944       0.00470707       0.00156836       0.00100113
Ni      33.45466190       3.54505636      26.41691739       0.60000000      -0.00255756       0.00305758      -0.00072691       0.00084923
Ni      33.43487161       5.33212032      24.65873531       0.60000000       0.03354687      -0.01064800      -0.00305920      -0.00279152
Ni      31.68880650       3.54897571      28.16970739       0.60000000      -0.00235711      -0.00213916       0.00069036       0.00021204
Ni      31.67774010       5.32344595      29.91811948       0.60000000      -0.00096705       0.00084681      -0.00083300      -0.00030325
Ni      33.45886354       3.54187168      29.93676263       0.60000000      -0.00383955      -0.00058209      -0.00024831      -0.00083475
Ni      33.44170195       5.32271967      28.16169281       0.60000000      -0.00176262       0.00298603       0.00084664      -0.00290279
Ni      31.69670108       3.54205366      31.69670108       0.60000000      -0.00368807      -0.00076650       0.00033608      -0.00076650
Ni      31.68986794       5.31269962      33.45129434       0.60000000      -0.00223495       0.00048432      -0.00090226      -0.00078048
Ni      33.46440339       3.53722444      33.46440339       0.60000000      -0.00463315       0.00074306       0.00014042       0.00074306
Ni      33.45129434       5.31269962      31.68986794       0.60000000      -0.00223495      -0.00078048      -0.00090226       0.00048432
Ni      31.70407678       3.53691230      35.22733452       0.60000000      -0.00496193       0.00175743      -0.00144060       0.00053684
Ni      31.70448898       5.29951495      36.99153328       0.60000000      -0.00619304       0.00005089      -0.00111763      -0.00020991
Ni      33.47188685       3.53149540      36.99638321       0.60000000      -0.00847315      -0.00043584      -0.00033223       0.00052939
Ni      33.46067978       5.30439344      35.22290620       0.60000000      -0.00347816       0.00085559      -0.00006316       0.00054278
Ni      31.71600000       3.52400000      38.76400000       0.60000000      -0.10041565       0.01015860       0.00026621       0.65789375
Ni      31.71600000       5.28600000      40.52600000       0.60000000       8.27271465     -26.64615193      26.64609034     -53.37772259
Ni      33.47800000       3.52400000      40.52600000       0.60000000       8.28213634     -24.06419325      24.06443161     -55.04401367
Ni      33.47800000       5.28600000      38.76400000       0.60000000      -0.10001515      -0.00069643       0.00436351       0.65298371
Ni      32.30333333       6.46066667       1.17466667       0.60000000       0.34679454       0.04033745      -0.04005340      -0.68084622
Ni      30.54133333       6.46066667       2.93666667       0.60000000       0.29912405       0.00650781       0.13022883      -0.04605235
Ni      30.59616795       8.21814482       4.71002716       0.60000000       0.07125391       0.00167817       0.00606993       0.00445040
Ni      32.34279708       6.47005547       4.70837899       0.60000000      -0.00073267       0.00197982       0.00192690      -0.00527994
Ni      32.30333333       8.22266667       2.93666667       0.60000000       0.30132712       0.02593394       0.16473566      -0.00352101
Ni      30.60569768       6.46499869       6.46499869       0.60000000      -0.00474427      -0.00132796       0.00738391       0.00738391
Ni      31.78632858       8.83755128       8.83755128       0.60000000      -0.00307453       0.01144823      -0.00220102      -0.00220102
Ni      32.37397990       6.48615301       8.24604002       0.60000000      -0.00496798       0.02036696       0.01125015       0.00142872
Ni      32.37397990       8.24604002       6.48615301       0.60000000      -0.00496798       0.02036696       0.00142872       0.01125015
Ni      31.78410464       7.06590069      10.60288110       0.60000000       0.01293974       0.00904480      -0.00094459       0.00353434
Ni      31.74832184       8.84399133      12.40266573       0.60000000       0.01324809       0.00281829      -0.00234467      -0.00735605
Ni      33.49745709       7.07352492      12.40933521       0.60000000       0.02077386      -0.00090539      -0.00727418       0.00481344
Ni      33.50332207       8.85647323      10.63343089       0.60000000       0.00832050      -0.01090189       0.00740101       0.00685645
Ni      31.73649551       7.03322837      14.19739367       0.60000000       0.38513499      -0.00419831       0.00480504      -0.00945122
Ni      31.65636132       8.78939595      15.97716268       0.60000000       0.23878857      -0.00432820      -0.00000954      -0.00472039
Ni      33.46976933       7.05271482      15.97674152       0.60000000       0.22544563      -0.00529168      -0.00110093      -0.00919737
Ni      33.43199293       8.85287930      14.20815998       0.60000000       0.01022239      -0.00272636      -0.00011393       0.00002250
Ni      31.22028325       6.29640217      16.62773871       0.60000000       0.95315020      -0.02225015       0.00206261      -0.03001974
Ni      31.01214573       8.17003399      18.28855249       0.60000000       0.85719027      -0.00406727      -0.01299039      -0.01109973
Ni      33.01079557       6.41823465      18.37345715       0.60000000       0.85260161      -0.00293220      -0.05649833      -0.04886582
Ni      33.37082635       8.82921109      17.76553342       0.60000000       0.16029880      -0.01030142      -0.01396566      -0.00713042
Ni      31.51166288       9.03033567      22.69846981       0.60000000       0.49149002       0.01633559      -0.00762125      -0.01555243
Ni      33.37680961       7.12718997      22.86775616       0.60000000       0.33422378       0.00187438       0.01610506      -0.01108372
Ni      33.32621139       8.83818016      21.04172957       0.60000000       0.46082601       0.03342412       0.03752041       0.04876770
Ni      31.64557983       7.13158656      24.62310935       0.60000000       0.08201174      -0.00345847      -0.00023760      -0.00035075
Ni      31.65405685       8.88826328      26.39154900       0.60000000       0.15765423       0.00625296       0.00845262       0.00380837
Ni      33.42630925       7.10696613      26.39298177       0.60000000       0.00646304      -0.00447274       0.00851885       0.00583720
Ni      33.37543118       8.89810674      24.60718959       0.60000000       0.16823131      -0.02048894      -0.00202117      -0.02840527
Ni      31.66238812       7.10660415      28.14919573       0.60000000       0.00106201       0.00199711      -0.00082010      -0.00181983
Ni      31.66830945       8.86839460      29.91227146       0.60000000      -0.00138979      -0.00049944      -0.00174324      -0.00176770
Ni      33.44032916       7.08889458      29.91931432       0.60000000      -0.00154598      -0.00102674      -0.00238788       0.00097261
Ni      33.42742276       8.87075042      28.15553587       0.60000000       0.00482038       0.00451428       0.00182354       0.00732107
Ni      31.67749557       7.08844863      31.67749557       0.60000000      -0.00199388       0.00136146      -0.00044380       0.00136146
Ni      31.68058563       8.85330836      33.44114430       0.60000000      -0.00260492      -0.00016876      -0.00018857      -0.00016219
Ni      33.45006597       7.07748256      33.45006597       0.60000000      -0.00259168       0.00047596      -0.00029864       0.00047596
Ni      33.44114430       8.85330836      31.68058563       0.60000000      -0.00260492      -0.00016219      -0.00018857      -0.00016876
Ni      31.69134770       7.07572897      35.21520094       0.60000000      -0.00251585      -0.00007656      -0.00154261      -0.00095537
Ni      31.69870517       8.82956777      36.98571905       0.60000000      -0.00372254       0.00032138      -0.00098944      -0.00002212
Ni      33.46542937       7.06142611      36.99126298       0.60000000      -0.00612266      -0.00093719       0.00021906       0.00018391
Ni      33.45334724       8.83689121      35.21578420       0.60000000      -0.00274747       0.00062689      -0.00033736       0.00098591
Ni      31.71600000       7.04800000      38.76400000       0.60000000       0.00486696       0.07183340      -0.06762890       0.03626658
Ni      31.71600000       8.81000000      40.52600000       0.60000000       0.26762423       0.23527137      -0.23520146       0.14759518
Ni      33.47800000       7.04800000      40.52600000       0.60000000       8.27274142     -26.64613645      26.64616308     -53.37764361
Ni      33.47800000       8.81000000      38.76400000       0.60000000       0.00483349       0.07251932      -0.07144109       0.03882056
Ni      31.71600000      10.57200000       0.00000000       0.60000000       0.65774664       0.00141631      -0.00256155       0.44352092
Ni      33.47800000      12.33400000       0.00000000       0.60000000       0.65780017       0.00104830      -0.00264016       0.44320389
Ni      30.54133333       9.98466667       2.93666667       0.60000000       0.81301666       0.12503597      -0.07835731      -0.27979912
Ni      31.78699249      12.36785476       5.27994784       0.60000000       0.49630915      -0.00684958      -0.00375766      -0.00331696
Ni      32.36073920       9.99623664       4.71991565       0.60000000       0.07127330       0.01304394       0.00028307       0.01407711
Ni      32.30333333      11.74666667       2.93666667       0.60000000       0.81522184       0.13385362      -0.06553927      -0.24223641
Ni      31.78410464      10.60288110       7.06590069       0.60000000       0.01293974       0.00904480       0.00353434      -0.00094459
Ni      31.74832184      12.40266573       8.84399133       0.60000000       0.01324809       0.00281829      -0.00735605      -0.00234467
Ni      33.50332207      10.63343089       8.85647323       0.60000000       0.00832050      -0.01090189       0.00685645       0.00740101
Ni      33.49745709      12.40933521       7.07352492       0.60000000       0.02077386      -0.00090539       0.00481344      -0.00727418
Ni      31.74873935      10.62677575      10.62677575       0.60000000      -0.00336959       0.00710047      -0.00732379      -0.00732379
Ni      31.66665841      12.42148160      12.42148160       0.60000000       0.00389141       0.00292107      -0.00393775      -0.00393775
Ni      33.43559312      10.65042161      12.43256776       0.60000000       0.00478892      -0.00365812       0.00130156      -0.00202377
Ni      33.43559312      12.43256776      10.65042161       0.60000000       0.00478892      -0.00365812      -0.00202377       0.00130156
Ni      31.66473853      10.63235761      14.19878175       0.60000000       0.01971436       0.00474797      -0.00345918       0.00314757
Ni      31.54672495      12.41430126      15.98271654       0.60000000       0.02808366       0.00147900       0.00316506       0.00052319
Ni      33.35583973      10.63519243      15.99680708       0.60000000       0.00928654       0.00704054      -0.00547916       0.00512442
Ni      33.36965269      12.43621985      14.22067973       0.60000000       0.00838497      -0.00681162      -0.00253490      -0.00249356
Ni      31.52939769      10.59156339      17.75962133       0.60000000       0.22035799      -0.00530455      -0.00071654       0.00110694
Ni      31.41905478      12.35654699      19.52861967       0.60000000       0.09055426      -0.00012339      -0.00097344      -0.00987203
Ni      33.31280617      10.67325780      19.46547766       0.60000000       0.16089089       0.00647794      -0.00130294       0.01275004
Ni      33.29112873      12.43406327      17.74492547       0.60000000       0.02544079      -0.00902249      -0.00520278      -0.00858124
Ni      30.97830995       9.84751835      20.18221929       0.60000000       0.48457448      -0.00079095      -0.01400069      -0.00893922
Ni      30.98860101      11.58293023      21.88099045       0.60000000       0.60101684      -0.00221099      -0.01568620      -0.00270221
Ni      33.34253055      10.64779826      22.84667581       0.60000000       0.32678439      -0.00097653       0.02262947       0.01970852
Ni      33.29353114      12.44502995      21.20557520       0.60000000       0.17162128      -0.00823847      -0.00359623      -0.00849793
Ni      29.90631289       8.94141033      24.56905388       0.60000000       0.37376856      -0.01044278      -0.01541007       0.01028740
Ni      31.60247187      12.49358038      26.43571419       0.60000000       0.34890749       0.01472763      -0.00515144      -0.00164269
Ni      33.39386047      10.66322004      26.39127283       0.60000000       0.15049694       0.00329993      -0.00603196       0.01237736
Ni      33.36491643      12.44258424      24.65345423       0.60000000       0.31305098      -0.03485597      -0.00981032      -0.00678081
Ni      31.65503145      10.66254712      28.16806797       0.60000000       0.03317777       0.00278550       0.00767817       0.00129701
Ni      31.65848418      12.44307656      29.91648206       0.60000000       0.02689888      -0.00212852      -0.00016594       0.00134556
Ni      33.43104095      10.63710449      29.91722274       0.60000000      -0.00025670      -0.00231489       0.00025530      -0.00179420
Ni      33.40390653      12.43571503      28.16186635       0.60000000       0.01558953       0.00480504       0.00926720       0.00568217
Ni      31.67159553      10.63761024      31.67159553       0.60000000      -0.00300705       0.00076640      -0.00179995       0.00076640
Ni      31.67617503      12.39833152      33.43427331       0.60000000       0.00159232      -0.00027210      -0.00081436      -0.00084817
Ni      33.44361164      10.61482951      33.44361164       0.60000000      -0.00283656       0.00063396      -0.00148728       0.00063396
Ni      33.43427331      12.39833152      31.67617503       0.60000000       0.00159232      -0.00084817      -0.00081436      -0.00027210
Ni      31.68506627      10.61192584      35.20881584       0.60000000      -0.00105613      -0.00012953      -0.00092591      -0.00085531
Ni      31.69450960      12.36227236      36.98068627       0.60000000      -0.00229511       0.00013506       0.00028902      -0.00012546
Ni      33.46140604      10.58987994      36.98668145       0.60000000      -0.00355650      -0.00044172      -0.00077426      -0.00004641
Ni      33.44791593      12.37021825      35.21126182       0.60000000      -0.00087716       0.00066493      -0.00075792       0.00016016
Ni      31.71600000      10.57200000      38.76400000       0.60000000       0.00103252      -0.06548929       0.07214634      -0.11959074
Ni      31.71600000      12.33400000      40.52600000       0.60000000       0.04243774       0.00488668      -0.00481344      -0.08310621
Ni      33.47800000      10.57200000      40.52600000       0.60000000       0.26755030       0.23525925      -0.23521172       0.14732804
Ni      33.47800000      12.33400000      38.76400000       0.60000000       0.00087847      -0.06049951       0.07460872      -0.12142565
Ni      31.71600000      14.09600000       0.00000000       0.60000000       0.30012798       0.09108083      -0.09148506       0.05102502
Ni      31.71600000      15.85800000       1.76200000       0.60000000       0.49313795      -0.09254231       0.11603155       0.26322982
Ni      33.47800000      15.85800000       0.00000000       0.60000000       0.30004266       0.09076319      -0.09279525       0.04985637
Ni      33.51663378      14.17242685       5.27250365       0.60000000       0.47525409      -0.00074138      -0.00030048       0.00236822
Ni      31.73649551      14.19739367       7.03322837       0.60000000       0.38513499      -0.00419832      -0.00945122       0.00480504
Ni      31.65636132      15.97716268       8.78939595       0.60000000       0.23878857      -0.00432821      -0.00472039      -0.00000954
Ni      33.43199293      14.20815998       8.85287930       0.60000000       0.01022239      -0.00272636       0.00002250      -0.00011393
Ni      33.46976933      15.97674152       7.05271482       0.60000000       0.22544563      -0.00529168      -0.00919737      -0.00110093
Ni      31.66473853      14.19878175      10.63235761       0.60000000       0.01971436       0.00474797       0.00314757      -0.00345919
Ni      31.54672495      15.98271654      12.41430126       0.60000000       0.02808366       0.00147900       0.00052319       0.00316506
Ni      33.36965269      14.22067973      12.43621985       0.60000000       0.00838497      -0.00681162      -0.00249356      -0.00253490
Ni      33.35583973      15.99680708      10.63519243       0.60000000       0.00928654       0.00704054       0.00512443      -0.00547916
Ni      31.55411574      14.20132510      14.20132510       0.60000000       0.01546162      -0.00226918       0.00388482       0.00388482
Ni      31.42461410      15.96078164      15.96078164       0.60000000       0.02724382       0.00117446       0.00246794       0.00246794
Ni      33.29154906      14.21535251      15.98930784       0.60000000       0.02034130       0.00350678       0.00166296       0.00367321
Ni      33.29154906      15.98930784      14.21535251       0.60000000       0.02034130       0.00350678       0.00367321       0.00166296
Ni      31.42376555      14.17004916      17.75048073       0.60000000       0.03184118       0.00064095      -0.00339461      -0.00614864
Ni      31.31908158      15.93994383      19.51381563       0.60000000       0.04576123       0.00806914      -0.00067122       0.00138842
Ni      33.22246760      14.21057500      19.49818838       0.60000000       0.03494715      -0.00029795       0.01167203      -0.00360193
Ni      33.19983913      15.98811244      17.75481060       0.60000000       0.03267407       0.00464409      -0.00454444       0.00106795
Ni      31.38454205      14.14326564      21.28169679       0.60000000       0.22798137       0.01033424       0.00510317       0.00783302
Ni      31.30049458      16.04876341      23.00443065       0.60000000       0.37568978       0.00381122      -0.00281758       0.00551828
Ni      33.28036898      14.24963085      22.95506886       0.60000000       0.19511683       0.00603683       0.00363173       0.00847341
Ni      33.14920089      16.01800067      21.25003665       0.60000000       0.06227558       0.00778069      -0.00125149       0.00231373
Ni      31.55632831      14.29348835      24.73537918       0.60000000       0.71612786       0.01281299       0.00046430       0.00168414
Ni      30.97436366      16.69686169      27.17973780       0.60000000       0.38456053       0.00146095       0.00092907      -0.00037310
Ni      33.36851746      14.25332451      26.44900518       0.60000000       0.14168363       0.01180087      -0.01543736      -0.01396568
Ni      33.23183715      16.06998811      24.75198941       0.60000000       0.17445665       0.00591244       0.00949494       0.00526200
Ni      31.61902191      14.30535448      28.18829772       0.60000000       0.29422514       0.00314342       0.00588665      -0.00360422
Ni      33.41452151      14.20166233      29.92722750       0.60000000       0.12560894      -0.00104619       0.00313812       0.00526698
Ni      33.30506545      16.05527058      28.25816867       0.60000000       0.28755975      -0.00553211       0.00409813       0.00913935
Ni      31.67037933      14.20992946      31.67037933       0.60000000       0.16986952      -0.00084849      -0.00214177      -0.00084849
Ni      31.68938842      15.96292777      33.41042076       0.60000000       0.20935282       0.00076881      -0.00028114      -0.00101851
Ni      33.43902487      14.14939962      33.43902487       0.60000000       0.01081505      -0.00105798      -0.00082751      -0.00105798
Ni      33.41042076      15.96292777      31.68938842       0.60000000       0.20935282      -0.00101851      -0.00028114       0.00076881
Ni      31.68205313      14.15666084      35.19860942       0.60000000       0.00438878       0.00143326       0.00022376       0.00044144
Ni      31.69329024      15.90020933      36.97188777       0.60000000       0.01071936       0.00172622       0.00164379       0.00138626
Ni      33.45770384      14.12527256      36.97897036       0.60000000      -0.00252050      -0.00029837       0.00040350       0.00065911
Ni      33.44047985      15.92083212      35.18542661       0.60000000       0.03784021      -0.00022469      -0.00030803       0.00050413
Ni      31.71600000      14.09600000      38.76400000       0.60000000      -0.00259269      -0.06497056       0.09839370      -0.14751611
Ni      31.71600000      15.85800000      40.52600000       0.60000000       0.00129166      -0.00321229       0.00381864       0.00369870
Ni      33.47800000      14.09600000      40.52600000       0.60000000       0.04252027       0.00467356      -0.00486742      -0.08283020
Ni      33.47800000      15.85800000      38.76400000       0.60000000      -0.00146746      -0.05819494       0.08009586      -0.13113159
Ni      31.71600000      17.62000000       0.00000000       0.60000000       0.01265453      -0.01090418       0.01029053      -0.02428696
Ni      31.71600000      19.38200000       1.76200000       0.60000000       0.04037887      -0.04947425      -0.09975383       0.13788336
Ni      33.47800000      17.62000000       1.76200000       0.60000000       0.48282227      -0.09813208       0.02327221       0.22136335
Ni      33.47800000      19.38200000       0.00000000       0.60000000       0.00886410      -0.01788572       0.01183329      -0.02159499
Ni      31.69561096      17.63700771       3.62185778       0.60000000       0.68552087       0.00265657      -0.00270581       0.00279378
Ni      33.45628074      19.38152310       3.56372277       0.60000000       0.56738299      -0.00111149      -0.00402758       0.00011078
Ni      31.22028324      16.62773871       6.29640217       0.60000000       0.95315018      -0.02225017      -0.03001974       0.00206260
Ni      31.01214573      18.28855249       8.17003399       0.60000000       0.85719027      -0.00406728      -0.01109973      -0.01299039
Ni      33.37082635      17.76553342       8.82921110       0.60000000       0.16029880      -0.01030142      -0.00713042      -0.01396566
Ni      33.01079557      18.37345715       6.41823465       0.60000000       0.85260161      -0.00293221      -0.04886582      -0.05649834
Ni      31.52939770      17.75962133      10.59156339       0.60000000       0.22035799      -0.00530455       0.00110694      -0.00071654
Ni      31.41905478      19.52861967      12.35654699       0.60000000       0.09055426      -0.00012339      -0.00987203      -0.00097344
Ni      33.29112873      17.74492547      12.43406327       0.60000000       0.02544079      -0.00902249      -0.00858124      -0.00520278
Ni      33.31280617      19.46547766      10.67325780       0.60000000       0.16089089       0.00647794       0.01275004      -0.00130294
Ni      31.42376555      17.75048073      14.17004916       0.60000000       0.03184118       0.00064095      -0.00614864      -0.00339460
Ni      31.31908158      19.51381563      15.93994383       0.60000000       0.04576123       0.00806914       0.00138842      -0.00067122
Ni      33.19983913      17.75481060      15.98811244       0.60000000       0.03267407       0.00464409       0.00106795      -0.00454444
Ni      33.22246760      19.49818838      14.21057500       0.60000000       0.03494715      -0.00029795      -0.00360193       0.01167203
Ni      31.31006892      17.72427172      17.72427172       0.60000000       0.04418246       0.00720717      -0.00132594      -0.00132594
Ni      31.10810287      19.54800004      19.54800004       0.60000000       0.11290790       0.00353347       0.00040442       0.00040442
Ni      33.08786589      17.77941012      19.52662595       0.60000000       0.06237965       0.00239420       0.00101151      -0.00107369
Ni      33.08786589      19.52662595      17.77941012       0.60000000       0.06237965       0.00239420      -0.00107369       0.00101151
Ni      31.14415379      17.79325785      21.28698368       0.60000000       0.11896222       0.00289232       0.00270200       0.00436962
Ni      31.08206102      19.54729706      23.08324655       0.60000000       0.11316881      -0.00016234       0.00444419       0.00368197
Ni      33.09463089      17.81422941      23.01687332       0.60000000       0.08240031       0.00200641      -0.00049902      -0.00255160
Ni      33.01817860      19.55479563      21.28984804       0.60000000       0.09216914       0.00201143       0.00519732       0.00441302
Ni      31.24077297      17.77396981      24.84699040       0.60000000       0.21821876       0.00055089      -0.00052310      -0.00121542
Ni      33.16644474      17.82193175      26.55833745       0.60000000       0.17755125       0.00171615       0.00015042       0.00238790
Ni      33.04557575      19.57262216      24.81874312       0.60000000       0.08019825      -0.00238701      -0.00087483       0.00169762
Ni      30.89132444      18.44574946      29.02137190       0.60000000       0.30970963      -0.00011914       0.00131356       0.00051769
Ni      33.18584035      17.78168035      30.07004542       0.60000000       0.46012531      -0.00217860       0.00893769       0.01086539
Ni      33.11601922      19.58641612      28.38254627       0.60000000       0.20392968       0.00015491      -0.00022795      -0.00010922
Ni      30.94049768      16.59099075      30.94049768       0.60000000       0.56022203      -0.00057200      -0.00056138      -0.00057200
Ni      33.41155927      17.86396227      33.41155927       0.60000000       0.49073033      -0.00064355      -0.00181193      -0.00064355
Ni      31.71234816      17.72885610      35.17799722       0.60000000       0.29395490       0.00342325       0.00282935       0.00021291
Ni      31.81430019      19.54085811      36.88957202       0.60000000       0.19621989      -0.00288762      -0.00186344       0.00286250
Ni      33.45739023      17.65402604      36.97795201       0.60000000       0.13621026      -0.00010512       0.00069584       0.00049673
Ni      31.71600000      17.62000000      38.76400000       0.60000000       0.01696700      -0.04514341       0.24382479      -0.25574844
Ni      31.71600000      19.38200000      40.52600000       0.60000000       0.00290519       0.00065365      -0.00120282       0.03375587
Ni      33.47800000      17.62000000      40.52600000       0.60000000       0.00144745      -0.00292602       0.00404428       0.00198328
Ni      33.47800000      19.38200000      38.76400000       0.60000000       0.05625966      -0.00315877       0.27485117      -0.21990440
Ni      31.71600000      21.14400000       0.00000000       0.60000000      -0.00506469       0.00012939       0.00006564      -0.00723155
Ni      31.71600000      22.90600000       1.76200000       0.60000000       0.00076798      -0.08955399      -0.01264053       0.11961427
Ni      33.47800000      21.14400000       1.76200000       0.60000000       0.02930530      -0.05171289      -0.03242789       0.03333508
Ni      33.47800000      22.90600000       0.00000000       0.60000000       0.00004171      -0.00400998      -0.00389823       0.00033059
Ni      31.69382110      21.13825455       3.54486851       0.60000000       0.31257261       0.00368034      -0.00274645      -0.00521164
Ni      31.66971531      22.89584826       5.32757967       0.60000000       0.32312049      -0.00030571       0.00773671      -0.00627781
Ni      33.45329316      22.90225274       3.54520480       0.60000000       0.14557430       0.00262302      -0.00146018       0.00098424
Ni      31.51166288      22.69846981       9.03033567       0.60000000       0.49149002       0.01633559      -0.01555243      -0.00762126
Ni      33.32621139      21.04172957       8.83818016       0.60000000       0.46082601       0.03342412       0.04876770       0.03752041
Ni      33.37680961      22.86775616       7.12718997       0.60000000       0.33422378       0.00187438      -0.01108372       0.01610506
Ni      30.97830995      20.18221929       9.84751835       0.60000000       0.48457448      -0.00079095      -0.00893922      -0.01400069
Ni      30.98860101      21.88099045      11.58293023       0.60000000       0.60101684      -0.00221099      -0.00270221      -0.01568620
Ni      33.29353114      21.20557520      12.44502995       0.60000000       0.17162128      -0.00823847      -0.00849793      -0.00359623
Ni      33.34253055      22.84667581      10.64779826       0.60000000       0.32678439      -0.00097653       0.01970852       0.02262947
Ni      31.38454205      21.28169679      14.14326564       0.60000000       0.22798137       0.01033424       0.00783302       0.00510317
Ni      31.30049458      23.00443065      16.04876341       0.60000000       0.37568978       0.00381122       0.00551828      -0.00281758
Ni      33.14920089      21.25003665      16.01800067       0.60000000       0.06227558       0.00778069       0.00231373      -0.00125149
Ni      33.28036898      22.95506886      14.24963085       0.60000000       0.19511683       0.00603683       0.00847341       0.00363173
Ni      31.14415379      21.28698368      17.79325785       0.60000000       0.11896222       0.00289232       0.00436962       0.00270200
Ni      31.08206102      23.08324655      19.54729706       0.60000000       0.11316881      -0.00016234       0.00368197       0.00444419
Ni      33.01817860      21.28984804      19.55479563       0.60000000       0.09216914       0.00201143       0.00441302       0.00519732
Ni      33.09463089      23.01687332      17.81422941       0.60000000       0.08240031       0.00200641      -0.00255160      -0.00049902
Ni      31.03794991      21.32642785      21.32642785       0.60000000       0.11975686       0.00205869       0.00316526       0.00316526
Ni      32.98180986      21.32051243      23.07034119       0.60000000       0.08793276      -0.00123758       0.00426432       0.00389606
Ni      32.98180986      23.07034119      21.32051243       0.60000000       0.08793276      -0.00123758       0.00389606       0.00426432
Ni      31.13809417      21.33515281      24.92638818       0.60000000       0.08813114      -0.00087322       0.00138441       0.00257055
Ni      33.01977197      21.34922766      26.64063644       0.60000000       0.09105069       0.00098118       0.00113551       0.00337136
Ni      32.98894017      23.11356973      24.88011234       0.60000000       0.09491867      -0.00167344       0.00398606       0.00430631
Ni      31.21418379      19.50110420      26.70474687       0.60000000       0.11642543       0.00168388      -0.00045821      -0.00139541
Ni      31.18759746      21.30921132      28.52823936       0.60000000       0.16777356       0.00425572       0.00232137      -0.00078688
Ni      30.84206548      20.21496418      30.84206548       0.60000000       0.42244456       0.00089371       0.00472298       0.00089371
Ni      30.28708713      21.35632988      33.03758073       0.60000000       0.28320569       0.00084380       0.00172827       0.00185023
Ni      32.68849789      20.30197731      32.68849789       0.60000000       0.62479687       0.00059765       0.00335152       0.00059765
Ni      33.03758073      21.35632988      30.28708713       0.60000000       0.28320569       0.00185023       0.00172827       0.00084380
Ni      31.83746002      22.98500943      36.84690900       0.60000000       0.40204394      -0.00024581       0.00054573       0.00218686
Ni      33.70526635      21.33478362      36.76110848       0.60000000       0.40646064      -0.00637269      -0.00677356       0.00625101
Ni      32.02868519      21.32069577      34.90066277       0.60000000       0.37319869      -0.00001852       0.00018995       0.00221765
Ni      31.71600000      21.14400000      38.76400000       0.60000000       0.06896736       0.17188939       0.27649563      -0.49130526
Ni      31.71600000      22.90600000      40.52600000       0.60000000       0.01734692      -0.00856074      -0.00586405       0.04148226
Ni      33.47800000      21.14400000      40.52600000       0.60000000       0.01836858      -0.01260686      -0.00811101       0.05863744
Ni      33.47800000      22.90600000      38.76400000       0.60000000       0.42427051       0.08571358       0.02756394      -0.38696755
Ni      31.71600000      24.66800000       0.00000000       0.60000000       0.00038770      -0.00379083      -0.00383703      -0.00129997
Ni      31.71600000      26.43000000       1.76200000       0.60000000      -0.00295580      -0.08706498      -0.04212088       0.12282755
Ni      33.47800000      24.66800000       1.76200000       0.60000000      -0.00345169      -0.07088294      -0.02266603       0.10819586
Ni      33.47800000      26.43000000       0.00000000       0.60000000       0.04242283       0.00513759       0.00559659       0.08511465
Ni      31.68550384      24.65788502       3.54899638       0.60000000       0.00409337       0.00209832       0.00364731      -0.00521298
Ni      31.66255719      26.39509403       5.34029154       0.60000000       0.00048944       0.00470707       0.00100113       0.00156836
Ni      33.43487161      24.65873531       5.33212032       0.60000000       0.03354687      -0.01064800      -0.00279152      -0.00305920
Ni      33.45466190      26.41691739       3.54505636       0.60000000      -0.00255756       0.00305758       0.00084923      -0.00072691
Ni      31.64557983      24.62310935       7.13158656       0.60000000       0.08201174      -0.00345847      -0.00035075      -0.00023760
Ni      31.65405685      26.39154900       8.88826328       0.60000000       0.15765423       0.00625296       0.00380837       0.00845262
Ni      33.37543118      24.60718959       8.89810674       0.60000000       0.16823131      -0.02048894      -0.02840527      -0.00202117
Ni      33.42630925      26.39298177       7.10696613       0.60000000       0.00646304      -0.00447274       0.00583720       0.00851885
Ni      29.90631289      24.56905388       8.94141033       0.60000000       0.37376856      -0.01044278       0.01028740      -0.01541007
Ni      31.60247187      26.43571419      12.49358038       0.60000000       0.34890749       0.01472763      -0.00164269      -0.00515144
Ni      33.36491643      24.65345423      12.44258424       0.60000000       0.31305098      -0.03485597      -0.00678081      -0.00981032
Ni      33.39386047      26.39127283      10.66322004       0.60000000       0.15049694       0.00329993       0.01237736      -0.00603196
Ni      31.55632831      24.73537918      14.29348835       0.60000000       0.71612786       0.01281299       0.00168414       0.00046430
Ni      30.97436366      27.17973780      16.69686169       0.60000000       0.38456053       0.00146095      -0.00037310       0.00092907
Ni      33.23183715      24.75198941      16.06998811       0.60000000       0.17445665       0.00591244       0.00526200       0.00949494
Ni      33.36851746      26.44900518      14.25332451       0.60000000       0.14168363       0.01180087      -0.01396568      -0.01543736
Ni      31.24077297      24.84699040      17.77396981       0.60000000       0.21821876       0.00055089      -0.00121542      -0.00052310
Ni      33.04557575      24.81874312      19.57262216       0.60000000       0.08019825      -0.00238701       0.00169762      -0.00087483
Ni      33.16644474      26.55833745      17.82193175       0.60000000       0.17755125       0.00171615       0.00238790       0.00015042
Ni      31.13809417      24.92638818      21.33515281       0.60000000       0.08813114      -0.00087322       0.00257055       0.00138441
Ni      32.98894017      24.88011234      23.11356973       0.60000000       0.09491867      -0.00167344       0.00430631       0.00398606
Ni      33.01977197      26.64063644      21.34922766       0.60000000       0.09105069       0.00098118       0.00337136       0.00113551
Ni      31.11545287      23.14961093      23.14961093       0.60000000       0.09277506      -0.00206501       0.00475147       0.00475147
Ni      31.09998639      24.96030752      24.96030752       0.60000000       0.23816987      -0.00355335       0.00666108       0.00666108
Ni      31.10734515      23.14427343      26.74756958       0.60000000       0.20616658       0.00028979       0.00512676       0.00420811
Ni      30.60073146      24.62276397      28.74750470       0.60000000       0.28883920       0.00120347       0.00986293      -0.00103097
Ni      32.97875374      23.13159066      28.48227274       0.60000000       0.23864596      -0.00025055       0.00367772       0.00186537
Ni      32.97900600      24.90732817      26.69268477       0.60000000       0.28387048      -0.00158319       0.00528960       0.00388197
Ni      30.62154475      22.72047794      30.62154475       0.60000000       0.23917782       0.00093256       0.00819151       0.00093256
Ni      30.50006511      24.60347635      32.35349462       0.60000000       0.29849640       0.00236934       0.00729586       0.00031642
Ni      32.37989674      22.75154086      32.37989674       0.60000000       0.30621508       0.00042748       0.00313193       0.00042748
Ni      32.35349462      24.60347635      30.50006511       0.60000000       0.29849640       0.00031642       0.00729586       0.00236934
Ni      30.21912551      23.10172565      34.87827804       0.60000000       0.31441173       0.00115849       0.00296797       0.00004067
Ni      32.27556186      24.64787267      34.09429910       0.60000000       0.36912766       0.00233424       0.00340688       0.00098957
Ni      31.71600000      24.66800000      38.76400000       0.60000000       0.43401792       0.06504670       0.02058577      -0.36333243
Ni      31.71600000      26.43000000      40.52600000       0.60000000       0.29595765       0.09645774       0.09278751      -0.07179437
Ni      33.47800000      24.66800000      40.52600000       0.60000000       0.29138061       0.10527029       0.10082271      -0.08840086
Ni      31.71600000      28.19200000       0.00000000       0.60000000       0.04304937       0.00560279       0.00564686       0.08583346
Ni      31.71600000      29.95400000       1.76200000       0.60000000       0.00135723      -0.07259405      -0.06681035       0.12567596
Ni      33.47800000      28.19200000       1.76200000       0.60000000       0.00107292      -0.07118041      -0.04815156       0.11318065
Ni      33.47800000      29.95400000       0.00000000       0.60000000       0.30400575       0.06452788       0.06507612      -0.09329704
Ni      31.68880650      28.16970739       3.54897571       0.60000000      -0.00235711      -0.00213916       0.00021204       0.00069036
Ni      31.67774010      29.91811948       5.32344595       0.60000000      -0.00096705       0.00084681      -0.00030325      -0.00083300
Ni      33.44170195      28.16169281       5.32271967       0.60000000      -0.00176262       0.00298603      -0.00290279       0.00084664
Ni      33.45886354      29.93676263       3.54187168       0.60000000      -0.00383955      -0.00058209      -0.00083475      -0.00024831
Ni      31.66238812      28.14919573       7.10660415       0.60000000       0.00106201       0.00199711      -0.00181983      -0.00082010
Ni      31.66830945      29.91227146       8.86839460       0.60000000      -0.00138979      -0.00049944      -0.00176770      -0.00174324
Ni      33.42742276      28.15553587       8.87075042       0.60000000       0.00482038       0.00451428       0.00732107       0.00182354
Ni      33.44032916      29.91931432       7.08889458       0.60000000      -0.00154598      -0.00102674       0.00097261      -0.00238788
Ni      31.65503145      28.16806797      10.66254712       0.60000000       0.03317777       0.00278550       0.00129701       0.00767817
Ni      31.65848418      29.91648206      12.44307656       0.60000000       0.02689888      -0.00212852       0.00134556      -0.00016594
Ni      33.40390653      28.16186635      12.43571503       0.60000000       0.01558953       0.00480504       0.00568217       0.00926720
Ni      33.43104095      29.91722274      10.63710449       0.60000000      -0.00025670      -0.00231489      -0.00179420       0.00025530
Ni      31.61902191      28.18829772      14.30535448       0.60000000       0.29422514       0.00314342      -0.00360422       0.00588665
Ni      33.30506545      28.25816867      16.05527058       0.60000000       0.28755975      -0.00553211       0.00913935       0.00409813
Ni      33.41452151      29.92722750      14.20166233       0.60000000       0.12560894      -0.00104619       0.00526698       0.00313812
Ni      30.89132444      29.02137190      18.44574946       0.60000000       0.30970963      -0.00011914       0.00051769       0.00131356
Ni      33.11601922      28.38254627      19.58641612       0.60000000       0.20392968       0.00015491      -0.00010922      -0.00022795
Ni      33.18584035      30.07004542      17.78168035       0.60000000       0.46012531      -0.00217860       0.01086539       0.00893769
Ni      31.21418379      26.70474687      19.50110420       0.60000000       0.11642543       0.00168388      -0.00139541      -0.00045821
Ni      31.18759746      28.52823936      21.30921132       0.60000000       0.16777356       0.00425572      -0.00078688       0.00232137
Ni      31.10734515      26.74756958      23.14427343       0.60000000       0.20616658       0.00028979       0.00420811       0.00512676
Ni      30.60073146      28.74750470      24.62276397       0.60000000       0.28883920       0.00120347      -0.00103097       0.00986293
Ni      32.97900600      26.69268477      24.90732817       0.60000000       0.28387048      -0.00158319       0.00388197       0.00528960
Ni      32.97875374      28.48227274      23.13159066       0.60000000       0.23864596      -0.00025055       0.00186537       0.00367772
Ni      30.46322820      26.70522104      26.70522104       0.60000000       0.36229861       0.00994609       0.00639595       0.00639595
Ni      30.38981055      28.50963579      28.50963579       0.60000000       0.18708233       0.00598024       0.00398272       0.00398272
Ni      32.20256225      26.58155446      28.53480440       0.60000000       0.35520263       0.00997708       0.00235411       0.00506948
Ni      32.20256225      28.53480440      26.58155446       0.60000000       0.35520263       0.00997708       0.00506948       0.00235411
Ni      30.46958172      26.52450897      30.46958172       0.60000000       0.17820829      -0.00171567       0.01053297      -0.00171567
Ni      30.33068814      28.43483531      32.15828014       0.60000000       0.12089709       0.00284256       0.00313039       0.00514912
Ni      32.23045716      26.52254928      32.23045716       0.60000000       0.12890388       0.00041825       0.00611294       0.00041825
Ni      32.15828014      28.43483531      30.33068814       0.60000000       0.12089709       0.00514912       0.00313039       0.00284256
Ni      30.35110204      26.56020242      33.97065823       0.60000000       0.39893877       0.00522131       0.00356878       0.00679896
Ni      30.33253468      28.48418361      35.67560724       0.60000000       0.47162799       0.00399657       0.00382523       0.00549188
Ni      32.18817428      26.63406881      35.73977310       0.60000000       0.46066046       0.00285304       0.00329010       0.00414073
Ni      32.14603553      28.44439852      33.93356809       0.60000000       0.08406058       0.00280045       0.00345807       0.00322964
Ni      31.71600000      29.95400000      40.52600000       0.60000000       0.69601988      -0.00988529      -0.01354442      -0.31956010
Ni      33.47800000      28.19200000      40.52600000       0.60000000       0.68804265      -0.00903154      -0.02021060      -0.34824229
Ni      32.17037432      28.53546138      37.45403966       0.60000000       0.72713532       0.00314497       0.00241533       0.00533736
Ni      31.71600000      31.71600000       0.00000000       0.60000000       0.30410613       0.06459911       0.06459911      -0.09359665
Ni      31.71600000      33.47800000       1.76200000       0.60000000       0.03427611      -0.04034688      -0.04208975       0.19865331
Ni      33.47800000      31.71600000       1.76200000       0.60000000       0.03427611      -0.04208975      -0.04034688       0.19865331
Ni      33.47800000      33.47800000       0.00000000       0.60000000       0.48941400       0.00407258       0.00407258      -0.47057705
Ni      31.69670108      31.69670108       3.54205366       0.60000000      -0.00368807      -0.00076650      -0.00076650       0.00033608
Ni      31.68986794      33.45129434       5.31269962       0.60000000      -0.00223495       0.00048432      -0.00078048      -0.00090226
Ni      33.45129434      31.68986794       5.31269962       0.60000000      -0.00223495      -0.00078048       0.00048432      -0.00090226
Ni      33.46440339      33.46440339       3.53722444       0.60000000      -0.00463315       0.00074306       0.00074306       0.00014042
Ni      31.67749557      31.67749557       7.08844863       0.60000000      -0.00199388       0.00136146       0.00136146      -0.00044380
Ni      31.68058563      33.44114430       8.85330836       0.60000000      -0.00260492      -0.00016876      -0.00016219      -0.00018857
Ni      33.44114430      31.68058563       8.85330836       0.60000000      -0.00260492      -0.00016219      -0.00016876      -0.00018857
Ni      33.45006597      33.45006597       7.07748256       0.60000000      -0.00259168       0.00047596       0.00047596      -0.00029864
Ni      31.67159553      31.67159553      10.63761024       0.60000000      -0.00300705       0.00076640       0.00076640      -0.00179995
Ni      31.67617503      33.43427331      12.39833152       0.60000000       0.00159232      -0.00027210      -0.00084817      -0.00081436
Ni      33.43427331      31.67617503      12.39833152       0.60000000       0.00159232      -0.00084817      -0.00027210      -0.00081436
Ni      33.44361164      33.44361164      10.61482951       0.60000000      -0.00283656       0.00063396       0.00063396      -0.00148728
Ni      31.67037933      31.67037933      14.20992946       0.60000000       0.16986952      -0.00084849      -0.00084849      -0.00214177
Ni      31.68938842      33.41042076      15.96292777       0.60000000       0.20935282       0.00076881      -0.00101851      -0.00028114
Ni      33.41042076      31.68938842      15.96292777       0.60000000       0.20935282      -0.00101851       0.00076881      -0.00028114
Ni      33.43902487      33.43902487      14.14939962       0.60000000       0.01081505      -0.00105798      -0.00105798      -0.00082751
Ni      30.94049768      30.94049768      16.59099075       0.60000000       0.56022203      -0.00057200      -0.00057200      -0.00056138
Ni      33.41155927      33.41155927      17.86396227       0.60000000       0.49073033      -0.00064355      -0.00064355      -0.00181193
Ni      30.84206548      30.84206548      20.21496418       0.60000000       0.42244456       0.00089371       0.00089371       0.00472298
Ni      30.28708713      33.03758073      21.35632988       0.60000000       0.28320569       0.00084380       0.00185023       0.00172827
Ni      33.03758073      30.28708713      21.35632988       0.60000000       0.28320569       0.00185023       0.00084380       0.00172827
Ni      32.68849789      32.68849789      20.30197731       0.60000000       0.62479687       0.00059765       0.00059765       0.00335152
Ni      30.62154475      30.62154475      22.72047794       0.60000000       0.23917782       0.00093256       0.00093256       0.00819151
Ni      30.50006511      32.35349462      24.60347635       0.60000000       0.29849640       0.00236934       0.00031642       0.00729586
Ni      32.35349462      30.50006511      24.60347635       0.60000000       0.29849640       0.00031642       0.00236934       0.00729586
Ni      32.37989674      32.37989674      22.75154086       0.60000000       0.30621508       0.00042748       0.00042748       0.00313193
Ni      30.46958172      30.46958172      26.52450897       0.60000000       0.17820829      -0.00171567      -0.00171567       0.01053297
Ni      30.33068814      32.15828014      28.43483531       0.60000000       0.12089709       0.00284256       0.00514912       0.00313039
Ni      32.15828014      30.33068814      28.43483531       0.60000000       0.12089709       0.00514912       0.00284256       0.00313039
Ni      32.23045716      32.23045716      26.52254928       0.60000000       0.12890388       0.00041825       0.00041825       0.00611294
Ni      30.31453477      30.31453477      30.31453477       0.60000000       0.11629105       0.00379997       0.00379997       0.00379997
Ni      30.28331200      32.11558280      32.11558280       0.60000000       0.07187336       0.00254466       0.00348258       0.00348258
Ni      32.11558280      30.28331200      32.11558280       0.60000000       0.07187336       0.00348258       0.00254466       0.00348258
Ni      32.11558280      32.11558280      30.28331200       0.60000000       0.07187336       0.00348258       0.00348258       0.00254466
Ni      30.29636480      30.29636480      33.90682335       0.60000000       0.08139982       0.00331654       0.00331654       0.00438563
Ni      30.32492473      32.13936565      35.68869034       0.60000000       0.09709783       0.00162659       0.00230004       0.00330801
Ni      32.13936565      30.32492473      35.68869034       0.60000000       0.09709783       0.00230004       0.00162659       0.00330801
Ni      32.11459400      32.11459400      33.90441688       0.60000000       0.05120069       0.00270557       0.00270557       0.00355469
Ni      30.34706069      30.34706069      37.42787739       0.60000000       0.73109691       0.00317086       0.00317086       0.00604705
Ni      32.17289336      32.17289336      37.52262148       0.60000000       0.37010988       0.00187552       0.00187552       0.00081202
Ni      31.71600000      35.24000000       0.00000000       0.60000000       0.48933038       0.00403617       0.00411989      -0.47056811
Ni      31.71600000      37.00200000       1.76200000       0.60000000       0.03556210      -0.01896399      -0.01418872       0.15154512
Ni      33.47800000      35.24000000       1.76200000       0.60000000       0.03813974      -0.03146261      -0.03266590       0.16467217
Ni      33.47800000      37.00200000       0.00000000       0.60000000       0.48694423      -0.00453608       0.00656882      -0.47434411
Ni      31.70407678      35.22733452       3.53691230       0.60000000      -0.00496193       0.00175743       0.00053684      -0.00144060
Ni      31.70448898      36.99153328       5.29951495       0.60000000      -0.00619304       0.00005089      -0.00020991      -0.00111763
Ni      33.46067978      35.22290620       5.30439344       0.60000000      -0.00347816       0.00085559       0.00054278      -0.00006316
Ni      33.47188685      36.99638321       3.53149540       0.60000000      -0.00847315      -0.00043584       0.00052939      -0.00033223
Ni      31.69134770      35.21520094       7.07572897       0.60000000      -0.00251585      -0.00007656      -0.00095537      -0.00154261
Ni      31.69870517      36.98571905       8.82956777       0.60000000      -0.00372254       0.00032138      -0.00002212      -0.00098944
Ni      33.45334724      35.21578420       8.83689121       0.60000000      -0.00274747       0.00062689       0.00098591      -0.00033736
Ni      33.46542937      36.99126298       7.06142611       0.60000000      -0.00612266      -0.00093719       0.00018391       0.00021906
Ni      31.68506627      35.20881584      10.61192584       0.60000000      -0.00105613      -0.00012953      -0.00085531      -0.00092591
Ni      31.69450960      36.98068627      12.36227236       0.60000000      -0.00229511       0.00013506      -0.00012546       0.00028902
Ni      33.44791593      35.21126182      12.37021825       0.60000000      -0.00087716       0.00066493       0.00016016      -0.00075792
Ni      33.46140604      36.98668145      10.58987994       0.60000000      -0.00355650      -0.00044172      -0.00004641      -0.00077426
Ni      31.68205313      35.19860942      14.15666084       0.60000000       0.00438878       0.00143326       0.00044144       0.00022376
Ni      31.69329024      36.97188777      15.90020933       0.60000000       0.01071936       0.00172622       0.00138626       0.00164379
Ni      33.44047985      35.18542661      15.92083212       0.60000000       0.03784021      -0.00022469       0.00050413      -0.00030803
Ni      33.45770384      36.97897036      14.12527256       0.60000000      -0.00252050      -0.00029837       0.00065911       0.00040350
Ni      31.71234816      35.17799722      17.72885610       0.60000000       0.29395490       0.00342325       0.00021291       0.00282935
Ni      31.81430019      36.88957202      19.54085811       0.60000000       0.19621989      -0.00288762       0.00286250      -0.00186344
Ni      33.45739023      36.97795201      17.65402604       0.60000000       0.13621026      -0.00010512       0.00049673       0.00069584
Ni      31.83746002      36.84690900      22.98500943       0.60000000       0.40204394      -0.00024581       0.00218686       0.00054573
Ni      32.02868519      34.90066277      21.32069577       0.60000000       0.37319869      -0.00001852       0.00221765       0.00018995
Ni      33.70526635      36.76110848      21.33478362       0.60000000       0.40646064      -0.00637269       0.00625101      -0.00677356
Ni      30.21912551      34.87827804      23.10172565       0.60000000       0.31441173       0.00115849       0.00004067       0.00296797
Ni      32.27556186      34.09429910      24.64787267       0.60000000       0.36912766       0.00233424       0.00098957       0.00340688
Ni      30.35110204      33.97065823      26.56020242       0.60000000       0.39893877       0.00522131       0.00679896       0.00356878
Ni      30.33253468      35.67560724      28.48418361       0.60000000       0.47162799       0.00399657       0.00549188       0.00382523
Ni      32.14603553      33.93356809      28.44439852       0.60000000       0.08406058       0.00280045       0.00322964       0.00345807
Ni      32.18817428      35.73977310      26.63406881       0.60000000       0.46066046       0.00285304       0.00414073       0.00329010
Ni      30.29636480      33.90682335      30.29636480       0.60000000       0.08139982       0.00331654       0.00438563       0.00331654
Ni      30.32492473      35.68869034      32.13936565       0.60000000       0.09709783       0.00162659       0.00330801       0.00230004
Ni      32.11459400      33.90441688      32.11459400       0.60000000       0.05120069       0.00270557       0.00355469       0.00270557
Ni      32.13936565      35.68869034      30.32492473       0.60000000       0.09709783       0.00230004       0.00330801       0.00162659
Ni      30.31196161      33.91947084      33.91947084       0.60000000       0.05377036       0.00238411       0.00287642       0.00287642
Ni      30.37856688      35.72783680      35.72783680       0.60000000       0.05408579       0.00134284       0.00213885       0.00213885
Ni      32.14840953      33.93072589      35.71592362       0.60000000       0.04524468       0.00087931       0.00165064       0.00138346
Ni      32.14840953      35.71592362      33.93072589       0.60000000       0.04524468       0.00087931       0.00138346       0.00165064
Ni      30.39456870      33.96190405      37.52728692       0.60000000       0.36684996       0.00111990       0.00186122       0.00180995
Ni      30.54133333      35.82733333      39.35133333       0.60000000       0.69843107      -0.15970443      -0.12517468       0.07111957
Ni      32.30333333      34.06533333      39.35133333       0.60000000       0.70344702      -0.16179012      -0.15074990       0.05720628
Ni      32.22421659      35.75136973      37.51999822       0.60000000       0.07885065       0.00110855       0.00102448       0.00090918
Ni      31.71600000      38.76400000       0.00000000       0.60000000       0.39859519      -0.02934647       0.58286231      -0.31657915
Ni      31.71600000      40.52600000       1.76200000       0.60000000       8.31646213     -24.07704443     -55.02926761      24.19197322
Ni      33.47800000      38.76400000       1.76200000       0.60000000      -0.06580341      -0.00341832       0.72645547       0.15246236
Ni      33.47800000      40.52600000       0.00000000       0.60000000       8.75834145     -23.00862442     -53.16856323      23.58672723
Ni      31.71600000      38.76400000       3.52400000       0.60000000      -0.10041565       0.01015860       0.65789375       0.00026621
Ni      31.71600000      40.52600000       5.28600000       0.60000000       8.27271465     -26.64615193     -53.37772259      26.64609034
Ni      33.47800000      38.76400000       5.28600000       0.60000000      -0.10001515      -0.00069643       0.65298371       0.00436351
Ni      33.47800000      40.52600000       3.52400000       0.60000000       8.28213634     -24.06419325     -55.04401367      24.06443161
Ni      31.71600000      38.76400000       7.04800000       0.60000000       0.00486696       0.07183340       0.03626658      -0.06762890
Ni      31.71600000      40.52600000       8.81000000       0.60000000       0.26762423       0.23527137       0.14759518      -0.23520146
Ni      33.47800000      38.76400000       8.81000000       0.60000000       0.00483349       0.07251932       0.03882056      -0.07144109
Ni      33.47800000      40.52600000       7.04800000       0.60000000       8.27274142     -26.64613645     -53.37764361      26.64616308
Ni      31.71600000      38.76400000      10.57200000       0.60000000       0.00103252      -0.06548929      -0.11959074       0.07214634
Ni      31.71600000      40.52600000      12.33400000       0.60000000       0.04243774       0.00488668      -0.08310621      -0.00481344
Ni      33.47800000      38.76400000      12.33400000       0.60000000       0.00087847      -0.06049951      -0.12142565       0.07460872
Ni      33.47800000      40.52600000      10.57200000       0.60000000       0.26755030       0.23525925       0.14732804      -0.23521172
Ni      31.71600000      38.76400000      14.09600000       0.60000000      -0.00259269      -0.06497056      -0.14751611       0.09839370
Ni      31.71600000      40.52600000      15.85800000       0.60000000       0.00129166      -0.00321229       0.00369870       0.00381864
Ni      33.47800000      38.76400000      15.85800000       0.60000000      -0.00146746      -0.05819494      -0.13113159       0.08009586
Ni      33.47800000      40.52600000      14.09600000       0.60000000       0.04252027       0.00467356      -0.08283020      -0.00486742
Ni      31.71600000      38.76400000      17.62000000       0.60000000       0.01696700      -0.04514341      -0.25574844       0.24382479
Ni      31.71600000      40.52600000      19.38200000       0.60000000       0.00290519       0.00065365       0.03375587      -0.00120282
Ni      33.47800000      38.76400000      19.38200000       0.60000000       0.05625966      -0.00315877      -0.21990440       0.27485117
Ni      33.47800000      40.52600000      17.62000000       0.60000000       0.00144745      -0.00292602       0.00198328       0.00404428
Ni      31.71600000      38.76400000      21.14400000       0.60000000       0.06896736       0.17188939      -0.49130526       0.27649563
Ni      31.71600000      40.52600000      22.90600000       0.60000000       0.01734692      -0.00856074       0.04148226      -0.00586405
Ni      33.47800000      38.76400000      22.90600000       0.60000000       0.42427051       0.08571358      -0.38696755       0.02756394
Ni      33.47800000      40.52600000      21.14400000       0.60000000       0.01836858      -0.01260686       0.05863744      -0.00811101
Ni      31.71600000      38.76400000      24.66800000       0.60000000       0.43401792       0.06504670      -0.36333243       0.02058577
Ni      31.71600000      40.52600000      26.43000000       0.60000000       0.29595765       0.09645774      -0.07179437       0.09278751
Ni      33.47800000      40.52600000      24.66800000       0.60000000       0.29138061       0.10527029      -0.08840086       0.10082271
Ni      31.71600000      40.52600000      29.95400000       0.60000000       0.69601988      -0.00988529      -0.31956010      -0.01354442
Ni      32.17037432      37.45403966      28.53546138       0.60000000       0.72713532       0.00314497       0.00533736       0.00241533
Ni      33.47800000      40.52600000      28.19200000       0.60000000       0.68804265      -0.00903154      -0.34824229      -0.02021060
Ni      30.34706069      37.42787739      30.34706069       0.60000000       0.73109691       0.00317086       0.00604705       0.00317086
Ni      32.17289336      37.52262148      32.17289336       0.60000000       0.37010988       0.00187552       0.00081202       0.00187552
Ni      30.39456870      37.52728692      33.96190405       0.60000000       0.36684996       0.00111990       0.00180995       0.00186122
Ni      30.54133333      39.35133333      35.82733333       0.60000000       0.69843107      -0.15970443       0.07111957      -0.12517468
Ni      32.22421659      37.51999822      35.75136973       0.60000000       0.07885065       0.00110855       0.00090918       0.00102448
Ni      32.30333333      39.35133333      34.06533333       0.60000000       0.70344702      -0.16179012       0.05720628      -0.15074990
Ni      30.48109320      37.53387265      37.53387265       0.60000000       0.11891841       0.00083718       0.00086568       0.00086568
Ni      30.54133333      39.35133333      39.35133333       0.60000000       0.84561810      -0.03451790       0.25388484       0.25388484
Ni      32.30333333      37.58933333      39.35133333       0.60000000       0.54262026      -0.13996891      -0.15509004       0.15625365
Ni      32.30333333      39.35133333      37.58933333       0.60000000       0.54262026      -0.13996891       0.15625365      -0.15509004
Ni      34.06533333      -0.58733333      -0.58733333       0.60000000      15.50377860      51.96609195      26.15208993      26.15208993
Ni      34.06533333       1.17466667       1.17466667       0.60000000      -0.20163588       0.00888314      -0.71731191      -0.71731191
Ni      35.82733333      -0.58733333       1.17466667       0.60000000       8.29226590      24.15845295      55.35939246     -24.24207993
Ni      35.82733333       1.17466667      -0.58733333       0.60000000       8.29226590      24.15845295     -24.24207993      55.35939246
Ni      34.06533333      -0.58733333       2.93666667       0.60000000       8.27601468      24.12479810      55.02991100     -24.12993366
Ni      34.06533333       1.17466667       4.69866667       0.60000000      -0.10027477       0.02579918      -0.74897546      -0.02576422
Ni      35.82733333      -0.58733333       4.69866667       0.60000000       8.27657971      24.12329487      55.02503914     -24.12448226
Ni      35.82733333       1.17466667       2.93666667       0.60000000      -0.11169399       0.00696303      -0.77252461      -0.02870825
Ni      34.06533333      -0.58733333       6.46066667       0.60000000       8.52100495      24.71789095      55.73285299     -24.71790137
Ni      34.06533333       1.17466667       8.22266667       0.60000000       0.34777568       0.04009037      -0.68332570      -0.03954439
Ni      35.82733333      -0.58733333       8.22266667       0.60000000       8.52100166      24.71669195      55.73302326     -24.71783847
Ni      35.82733333       1.17466667       6.46066667       0.60000000      -0.09981927       0.02686964      -0.75004199      -0.02576972
Ni      35.82733333       1.17466667       9.98466667       0.60000000       0.34892450       0.04136017      -0.68539169      -0.03834586
Ni      35.24000000       0.00000000      14.09600000       0.60000000       0.65416909       0.00028789       0.45090045      -0.01079442
Ni      37.00200000       0.00000000      15.85800000       0.60000000       0.49042322       0.01753150       0.42148505      -0.02174354
Ni      35.24000000       0.00000000      17.62000000       0.60000000       0.28781306       0.10863068       0.07174472      -0.08263217
Ni      35.24000000       1.76200000      19.38200000       0.60000000       0.28877521       0.02208285       0.17700338      -0.03750608
Ni      37.00200000       0.00000000      19.38200000       0.60000000       0.13021908       0.01152538       0.08565517      -0.08348936
Ni      35.24000000       0.00000000      21.14400000       0.60000000       0.00413950      -0.01152989      -0.00079224       0.00512516
Ni      35.24000000       1.76200000      22.90600000       0.60000000      -0.00101272      -0.05371931       0.08636431      -0.00734477
Ni      37.00200000       0.00000000      22.90600000       0.60000000       0.03083007      -0.00494822       0.09652345       0.00321907
Ni      37.00200000       1.76200000      21.14400000       0.60000000       0.02620752      -0.05902245       0.06973992       0.13292666
Ni      35.24000000       0.00000000      24.66800000       0.60000000       0.04133913       0.00182297       0.08662675       0.00553337
Ni      35.24000000       1.76200000      26.43000000       0.60000000       0.00050049      -0.06051431       0.10145900      -0.03396472
Ni      37.00200000       0.00000000      26.43000000       0.60000000       0.29777320       0.08866910      -0.09920277       0.06573598
Ni      37.00200000       1.76200000      24.66800000       0.60000000      -0.00098499      -0.05608343       0.08512281      -0.01712196
Ni      35.24000000       0.00000000      28.19200000       0.60000000       0.30360878       0.06486783      -0.09273585       0.06588611
Ni      35.24000000       1.76200000      29.95400000       0.60000000       0.03400607      -0.03986479       0.19298555      -0.02914843
Ni      37.00200000       0.00000000      29.95400000       0.60000000       0.48717337       0.01725651      -0.46918201       0.00607781
Ni      37.00200000       1.76200000      28.19200000       0.60000000       0.03183419      -0.02097430       0.17772955      -0.01364418
Ni      35.24000000       0.00000000      31.71600000       0.60000000       0.48933038       0.00411989      -0.47056811       0.00403617
Ni      35.24000000       1.76200000      33.47800000       0.60000000       0.03813974      -0.03266590       0.16467217      -0.03146261
Ni      37.00200000       0.00000000      33.47800000       0.60000000       0.48694423       0.00656882      -0.47434411      -0.00453608
Ni      37.00200000       1.76200000      31.71600000       0.60000000       0.03556210      -0.01418872       0.15154512      -0.01896399
Ni      35.24000000       0.00000000      35.24000000       0.60000000       0.48889806      -0.00651761      -0.47551542      -0.00651761
Ni      35.24000000       1.76200000      37.00200000       0.60000000       0.03511474      -0.01523500       0.13922968      -0.00408998
Ni      37.00200000       0.00000000      37.00200000       0.60000000       0.48474854       0.00898119      -0.47268702       0.00898119
Ni      37.00200000       1.76200000      35.24000000       0.60000000       0.03511474      -0.00408998       0.13922968      -0.01523500
Ni      35.24000000       0.00000000      38.76400000       0.60000000       0.39848903      -0.02927502      -0.31628798       0.58291295
Ni      35.24000000       1.76200000      40.52600000       0.60000000       8.31073604     -24.12926449      24.24408600     -55.00651505
Ni      37.00200000       0.00000000      40.52600000       0.60000000       8.76303948     -23.04521312      23.58961818     -53.18224356
Ni      37.00200000       1.76200000      38.76400000       0.60000000      -0.06761914       0.00944915       0.14280554       0.73185923
Ni      34.06533333       2.93666667      -0.58733333       0.60000000       8.27601468      24.12479810     -24.12993366      55.02991100
Ni      34.06533333       4.69866667       1.17466667       0.60000000      -0.10027477       0.02579918      -0.02576422      -0.74897546
Ni      35.82733333       2.93666667       1.17466667       0.60000000      -0.11169399       0.00696303      -0.02870825      -0.77252461
Ni      35.82733333       4.69866667      -0.58733333       0.60000000       8.27657971      24.12329487     -24.12448226      55.02503914
Ni      34.06533333       2.93666667       2.93666667       0.60000000      -0.01214700      -0.00323610      -0.00620087      -0.00620087
Ni      34.07968045       4.70378770       4.70378770       0.60000000      -0.00536557      -0.00283118       0.00489067       0.00489067
Ni      35.82733333       2.93666667       4.69866667       0.60000000      -0.00857329       0.01043164      -0.00959923       0.03523521
Ni      35.82733333       4.69866667       2.93666667       0.60000000      -0.00857329       0.01043164       0.03523521      -0.00959923
Ni      34.06533333       2.93666667       6.46066667       0.60000000       0.00639479       0.08588706       0.02726580       0.04707048
Ni      34.10792606       4.71933206       8.24805620       0.60000000       0.00187477      -0.00295481       0.00133572      -0.00307490
Ni      35.82733333       2.93666667       8.22266667       0.60000000       0.00875783       0.05975388       0.05033692       0.08767838
Ni      35.83690228       4.70912564       6.47473864       0.60000000      -0.00075185      -0.00844848       0.00398267       0.00715496
Ni      34.06533333       2.93666667       9.98466667       0.60000000       0.30459713       0.02603390       0.05874967       0.21964351
Ni      34.12388440       4.73477433      11.78537307       0.60000000       0.07597482      -0.00328163       0.00143320       0.00142262
Ni      35.82733333       2.93666667      11.74666667       0.60000000       0.31621555       0.02508873       0.12927541       0.28326250
Ni      35.86859138       4.73187351      10.02938197       0.60000000       0.01867981      -0.00528021       0.00061798      -0.00609027
Ni      34.06533333       2.93666667      13.50866667       0.60000000       0.81885134       0.15729994      -0.19275646      -0.03561484
Ni      35.27710729       5.25561094      15.94800736       0.60000000       0.48289936      -0.00142314      -0.00334607      -0.00045790
Ni      35.82733333       2.93666667      15.27066667       0.60000000       0.81547727       0.32100971      -0.21343737      -0.03360363
Ni      35.89714757       4.75231187      13.58353972       0.60000000       0.23026224      -0.00229773       0.00113372      -0.00403393
Ni      35.20809350       5.30820685      19.33373004       0.60000000       0.46534774       0.00056847      -0.00234960       0.00525313
Ni      36.98780563       3.52943686      19.38724280       0.60000000       0.30797518       0.00105397       0.00081083       0.00328139
Ni      37.05066665       5.28442068      17.62044371       0.60000000       0.34445588      -0.00321660      -0.00319133      -0.00007294
Ni      35.21853398       3.54763701      21.14859568       0.60000000       0.17402576       0.00206274       0.00018373       0.00307917
Ni      35.19038443       5.32736526      22.89118661       0.60000000       0.14873044      -0.00574839       0.00123423       0.00145290
Ni      36.98832830       3.53839858      22.90455388       0.60000000      -0.00140894       0.00121513       0.00005098       0.00001975
Ni      36.98785217       5.30294056      21.14027519       0.60000000       0.03271334      -0.00235769      -0.00405798      -0.00664107
Ni      35.22078371       3.54278359      24.66034386       0.60000000       0.00065777       0.00088492       0.00128419       0.00027632
Ni      35.21074507       5.32014865      26.40981093       0.60000000       0.00021373       0.00456029      -0.00395739       0.00572493
Ni      36.99046544       3.53644903      26.42367907       0.60000000      -0.00539436      -0.00039267       0.00416488      -0.00559065
Ni      36.97920620       5.30992315      24.65597711       0.60000000      -0.00213852       0.00074032       0.00050199      -0.00336708
Ni      35.22385316       3.53988372      28.18026646       0.60000000      -0.00392476       0.00024711       0.00368215      -0.00312826
Ni      35.21645130       5.31130745      29.93233572       0.60000000      -0.00229038      -0.00040113      -0.00310760       0.00151458
Ni      36.99410173       3.53356934      29.94741197       0.60000000      -0.00718980      -0.00161855       0.00086548      -0.00290834
Ni      36.98659528       5.30362446      28.17998437       0.60000000      -0.00364566       0.00078041       0.00665920      -0.00635954
Ni      35.22733452       3.53691230      31.70407678       0.60000000      -0.00496193       0.00053684      -0.00144060       0.00175743
Ni      35.22290620       5.30439344      33.46067978       0.60000000      -0.00347816       0.00054278      -0.00006316       0.00085559
Ni      36.99638321       3.53149540      33.47188685       0.60000000      -0.00847315       0.00052939      -0.00033223      -0.00043584
Ni      36.99153328       5.29951495      31.70448898       0.60000000      -0.00619304      -0.00020991      -0.00111763       0.00005089
Ni      35.23159736       3.53345155      35.23159736       0.60000000      -0.00577958       0.00097065      -0.00147161       0.00097065
Ni      35.23209378       5.29498092      36.99528985       0.60000000      -0.00775899       0.00019747      -0.00110017       0.00144075
Ni      36.99962920       3.52800931      36.99962920       0.60000000      -0.01135266       0.00114509       0.00005661       0.00114509
Ni      36.99528985       5.29498092      35.23209378       0.60000000      -0.00775899       0.00144075      -0.00110017       0.00019747
Ni      35.24000000       3.52400000      38.76400000       0.60000000      -0.10894986      -0.02288511       0.02687913       0.73580314
Ni      35.24000000       5.28600000      40.52600000       0.60000000       8.28223973     -24.06438276      24.06421012     -55.04373499
Ni      37.00200000       3.52400000      40.52600000       0.60000000       8.28029594     -24.14757348      24.11815032     -55.03965335
Ni      37.00200000       5.28600000      38.76400000       0.60000000      -0.11059748      -0.01205876       0.02217747       0.73717451
Ni      34.06533333       6.46066667      -0.58733333       0.60000000       8.52100495      24.71789095     -24.71790137      55.73285299
Ni      34.06533333       8.22266667       1.17466667       0.60000000       0.34777568       0.04009037      -0.03954439      -0.68332570
Ni      35.82733333       6.46066667       1.17466667       0.60000000      -0.09981927       0.02686964      -0.02576972      -0.75004199
Ni      35.82733333       8.22266667      -0.58733333       0.60000000       8.52100166      24.71669195     -24.71783847      55.73302326
Ni      34.06533333       6.46066667       2.93666667       0.60000000       0.00639479       0.08588706       0.04707048       0.02726580
Ni      34.10792606       8.24805620       4.71933206       0.60000000       0.00187477      -0.00295481      -0.00307490       0.00133572
Ni      35.83690228       6.47473864       4.70912564       0.60000000      -0.00075185      -0.00844848       0.00715496       0.00398267
Ni      35.82733333       8.22266667       2.93666667       0.60000000       0.00875783       0.05975388       0.08767838       0.05033692
Ni      34.11600483       6.48965611       6.48965611       0.60000000      -0.00330510       0.01014604       0.00794113       0.00794113
Ni      34.14038828       8.28304339       8.28304339       0.60000000       0.00246699      -0.02035474      -0.00426107      -0.00426107
Ni      35.87501789       6.51289984       8.27970783       0.60000000       0.01455094       0.00861641      -0.00825311      -0.00394790
Ni      35.87501789       8.27970783       6.51289984       0.60000000       0.01455094       0.00861641      -0.00394790      -0.00825311
Ni      34.13349276       6.51296205      10.04189950       0.60000000       0.00324576      -0.00103438      -0.00783966       0.00583333
Ni      35.19687521       8.87560336      12.43358827       0.60000000       0.15789050       0.00123673      -0.00329242      -0.00186573
Ni      35.89188734       6.53939993      11.84218783       0.60000000       0.27543199       0.00574227       0.00431633       0.00429204
Ni      35.90360697       8.32071764      10.08944064       0.60000000       0.27745898      -0.00804439      -0.00104332      -0.00187178
Ni      35.21675127       7.07838814      14.19617758       0.60000000       0.15375504       0.00368608       0.00096856      -0.00158466
Ni      35.17801827       8.87664576      15.95179647       0.60000000       0.01434410      -0.00097343      -0.00060694       0.00030589
Ni      36.99191449       7.05681593      15.89015450       0.60000000       0.17651870      -0.00413500       0.00125320       0.00140846
Ni      36.95969775       8.84818389      14.15857422       0.60000000       0.16304108      -0.00315452       0.00187625       0.00294255
Ni      35.25906556       7.10043558      17.65760359       0.60000000       0.20733585      -0.00364718      -0.01084384      -0.00524773
Ni      35.19807712       8.85608411      19.40884017       0.60000000       0.14836024      -0.00370288      -0.00170075      -0.00381446
Ni      37.00331318       7.06863336      19.39466305       0.60000000       0.03372774      -0.00900972      -0.01286119      -0.00633430
Ni      36.98931719       8.85830156      17.64658231       0.60000000       0.01092074      -0.00730853      -0.01252290      -0.00817298
Ni      35.17664187       7.06657885      21.10772679       0.60000000       0.29077151      -0.01649157      -0.01077518       0.00423215
Ni      35.15606021       8.85733213      22.85864045       0.60000000       0.02798370       0.02390079       0.01780727       0.00440341
Ni      36.96973683       7.07455073      22.89120029       0.60000000       0.00464805       0.01333093      -0.01500029       0.00368179
Ni      36.97392671       8.83953900      21.15012686       0.60000000       0.00774464       0.00648798      -0.01954350      -0.02838479
Ni      35.18379001       7.10298775      24.63593409       0.60000000       0.00961935      -0.00596486      -0.00544359       0.00475367
Ni      35.18468949       8.86598946      26.39193762       0.60000000       0.00673700      -0.01019468       0.00031513      -0.00037339
Ni      36.97758943       7.07468803      26.41128600       0.60000000      -0.00195698      -0.00150509       0.00980588      -0.00413809
Ni      36.96559331       8.84192502      24.64366153       0.60000000       0.00181081       0.02667924      -0.01310627       0.01414179
Ni      35.20500957       7.08724461      28.16289979       0.60000000      -0.00026351       0.00476626      -0.00089293       0.00151642
Ni      35.20619962       8.85049370      29.92339608       0.60000000      -0.00083290      -0.00036848      -0.00136200       0.00058318
Ni      36.98497145       7.06810231      29.93731720       0.60000000      -0.00363206       0.00184551      -0.00264899       0.00294545
Ni      36.97703515       8.83737634      28.17040108       0.60000000      -0.00139015       0.00133375       0.00159237      -0.00023581
Ni      35.21520094       7.07572897      31.69134770       0.60000000      -0.00251585      -0.00095537      -0.00154261      -0.00007656
Ni      35.21578420       8.83689121      33.45334724       0.60000000      -0.00274747       0.00098591      -0.00033736       0.00062689
Ni      36.99126298       7.06142611      33.46542937       0.60000000      -0.00612266       0.00018391       0.00021906      -0.00093719
Ni      36.98571905       8.82956777      31.69870517       0.60000000      -0.00372254      -0.00002212      -0.00098944       0.00032138
Ni      35.22350622       7.06559940      35.22350622       0.60000000      -0.00391248       0.00028828      -0.00067440       0.00028828
Ni      35.22847464       8.82137337      36.99202308       0.60000000      -0.00638664       0.00083770      -0.00064045      -0.00037502
Ni      36.99718673       7.05411001      36.99718673       0.60000000      -0.01064104       0.00024775      -0.00199112       0.00024775
Ni      36.99202308       8.82137337      35.22847464       0.60000000      -0.00638664      -0.00037502      -0.00064045       0.00083770
Ni      35.24000000       7.04800000      38.76400000       0.60000000      -0.10010121      -0.00059475       0.00136193       0.65357108
Ni      35.24000000       8.81000000      40.52600000       0.60000000       8.27266682     -26.64626854      26.64614577     -53.37791225
Ni      37.00200000       7.04800000      40.52600000       0.60000000       8.28624053     -24.09551699      24.06585258     -55.06171218
Ni      37.00200000       8.81000000      38.76400000       0.60000000      -0.10217808       0.01628916      -0.01000298       0.65748545
Ni      35.82733333       9.98466667       1.17466667       0.60000000       0.34892450       0.04136017      -0.03834586      -0.68539169
Ni      34.06533333       9.98466667       2.93666667       0.60000000       0.30459713       0.02603390       0.21964351       0.05874967
Ni      34.12388440      11.78537307       4.73477433       0.60000000       0.07597482      -0.00328163       0.00142262       0.00143320
Ni      35.86859138      10.02938197       4.73187351       0.60000000       0.01867981      -0.00528021      -0.00609027       0.00061798
Ni      35.82733333      11.74666667       2.93666667       0.60000000       0.31621555       0.02508873       0.28326250       0.12927541
Ni      34.13349276      10.04189950       6.51296205       0.60000000       0.00324576      -0.00103438       0.00583333      -0.00783966
Ni      35.19687521      12.43358827       8.87560336       0.60000000       0.15789050       0.00123673      -0.00186573      -0.00329242
Ni      35.90360697      10.08944064       8.32071764       0.60000000       0.27745898      -0.00804439      -0.00187178      -0.00104332
Ni      35.89188734      11.84218783       6.53939993       0.60000000       0.27543199       0.00574227       0.00429204       0.00431633
Ni      35.19712587      10.65805465      10.65805465       0.60000000       0.15815571       0.00459178       0.00192889       0.00192889
Ni      35.16363916      12.43330294      12.43330294       0.60000000       0.01010103      -0.00806946      -0.00125172      -0.00125172
Ni      36.94948474      10.62822652      12.40011955       0.60000000       0.16277113      -0.00570976       0.00156074       0.00138401
Ni      36.94948474      12.40011955      10.62822652       0.60000000       0.16277113      -0.00570976       0.00138401       0.00156074
Ni      35.16206216      10.65419180      14.20267522       0.60000000       0.01039508      -0.00419438      -0.00035063       0.00222409
Ni      35.12810046      12.42767508      15.96682403       0.60000000       0.01413904       0.00390246      -0.00273296       0.00199758
Ni      36.95931172      10.62788058      15.90840277       0.60000000       0.01003270      -0.00235412       0.00076808       0.00156258
Ni      36.95019484      12.39613287      14.15891352       0.60000000       0.01177224      -0.00098571      -0.00327554      -0.00287292
Ni      35.14575694      10.64774274      17.70533935       0.60000000       0.01509015      -0.00806088      -0.00374192       0.01116216
Ni      35.12024735      12.43187548      19.45200952       0.60000000       0.02310508      -0.00366288       0.01678219      -0.01161264
Ni      36.96275996      10.62180271      19.41116508       0.60000000       0.00819913       0.02988628      -0.00105536      -0.02255269
Ni      36.94446149      12.39441977      17.67122078       0.60000000       0.01372780       0.00065247       0.00072142      -0.00723950
Ni      35.15431294      10.63637988      21.14948418       0.60000000       0.03690419       0.00857258       0.00198994       0.01246456
Ni      35.14640339      12.42797022      22.91262059       0.60000000       0.04087467       0.00221785       0.00386626      -0.01608408
Ni      36.95858505      10.61099567      22.89812387       0.60000000       0.00559855       0.03909551       0.01307440      -0.00014776
Ni      36.94543697      12.39343315      21.16637223       0.60000000       0.01310515       0.03622084       0.01667741      -0.02522055
Ni      35.17361441      10.63650722      24.63133754       0.60000000       0.03487823      -0.00820324      -0.00427193       0.01154467
Ni      35.17102217      12.42054875      26.40565297       0.60000000       0.01383890      -0.01432386      -0.00746732      -0.01106752
Ni      36.97020851      10.60769017      26.40806821       0.60000000       0.00236196      -0.01042947       0.00377210      -0.00429406
Ni      36.95833145      12.39151561      24.66129429       0.60000000       0.00870237      -0.01854106      -0.01549651      -0.01632703
Ni      35.18903112      10.62988205      28.15479083       0.60000000       0.00332225       0.00706625       0.00601330       0.00665821
Ni      35.19561040      12.39398154      29.91836067       0.60000000       0.00281149       0.00097264       0.00351883       0.00469335
Ni      36.97872305      10.60007220      29.93110910       0.60000000      -0.00190914       0.00211105       0.00004315       0.00442282
Ni      36.96944548      12.37644229      28.16972736       0.60000000       0.00330177      -0.00394093      -0.00404662      -0.00848188
Ni      35.20881584      10.61192584      31.68506627       0.60000000      -0.00105613      -0.00085531      -0.00092591      -0.00012953
Ni      35.21126182      12.37021825      33.44791593       0.60000000      -0.00087716       0.00016016      -0.00075792       0.00066493
Ni      36.98668145      10.58987994      33.46140604       0.60000000      -0.00355650      -0.00004641      -0.00077426      -0.00044172
Ni      36.98068627      12.36227236      31.69450960       0.60000000      -0.00229511      -0.00012546       0.00028902       0.00013506
Ni      35.21866437      10.59468295      35.21866437       0.60000000      -0.00260860       0.00045414      -0.00016206       0.00045414
Ni      35.22446329      12.35010584      36.98703403       0.60000000      -0.00352328      -0.00043926      -0.00005870      -0.00001411
Ni      36.99446119      10.57962887      36.99446119       0.60000000      -0.00861922      -0.00083378      -0.00011614      -0.00083378
Ni      36.98703403      12.35010584      35.22446329       0.60000000      -0.00352328      -0.00001411      -0.00005870      -0.00043926
Ni      35.24000000      10.57200000      38.76400000       0.60000000       0.00457975       0.07681420      -0.07575261       0.03872160
Ni      35.24000000      12.33400000      40.52600000       0.60000000       0.26753860       0.23516741      -0.23538193       0.14720505
Ni      37.00200000      10.57200000      40.52600000       0.60000000       8.27658488     -26.67743546      26.64779675     -53.39595344
Ni      37.00200000      12.33400000      38.76400000       0.60000000       0.00309656       0.08878852      -0.08472362       0.03854216
Ni      35.24000000      14.09600000       0.00000000       0.60000000       0.65416909       0.00028789      -0.01079442       0.45090045
Ni      37.00200000      15.85800000       0.00000000       0.60000000       0.49042322       0.01753150      -0.02174354       0.42148505
Ni      34.06533333      13.50866667       2.93666667       0.60000000       0.81885134       0.15729994      -0.03561484      -0.19275646
Ni      35.27710729      15.94800736       5.25561094       0.60000000       0.48289936      -0.00142314      -0.00045790      -0.00334607
Ni      35.89714757      13.58353972       4.75231187       0.60000000       0.23026224      -0.00229773      -0.00403393       0.00113372
Ni      35.82733333      15.27066667       2.93666667       0.60000000       0.81547727       0.32100971      -0.03360363      -0.21343737
Ni      35.21675127      14.19617758       7.07838814       0.60000000       0.15375504       0.00368608      -0.00158466       0.00096856
Ni      35.17801827      15.95179647       8.87664576       0.60000000       0.01434410      -0.00097343       0.00030589      -0.00060694
Ni      36.95969775      14.15857422       8.84818389       0.60000000       0.16304108      -0.00315452       0.00294255       0.00187625
Ni      36.99191449      15.89015450       7.05681593       0.60000000       0.17651870      -0.00413500       0.00140846       0.00125320
Ni      35.16206216      14.20267522      10.65419180       0.60000000       0.01039508      -0.00419438       0.00222409      -0.00035063
Ni      35.12810046      15.96682403      12.42767508       0.60000000       0.01413904       0.00390246       0.00199758      -0.00273296
Ni      36.95019484      14.15891352      12.39613287       0.60000000       0.01177224      -0.00098571      -0.00287292      -0.00327554
Ni      36.95931172      15.90840277      10.62788058       0.60000000       0.01003270      -0.00235412       0.00156258       0.00076808
Ni      35.12757922      14.20436617      14.20436617       0.60000000       0.01547821       0.00271793      -0.00253996      -0.00253996
Ni      35.07762129      15.97498583      15.97498583       0.60000000       0.02875358       0.00776990       0.00329464       0.00329464
Ni      36.93291780      14.16325219      15.92368185       0.60000000       0.01885874       0.00027843      -0.00157499       0.00103113
Ni      36.93291780      15.92368185      14.16325219       0.60000000       0.01885874       0.00027843       0.00103113      -0.00157499
Ni      35.08613985      14.20664381      17.72774027       0.60000000       0.02665212       0.00860617       0.01608657      -0.01844414
Ni      35.03226926      15.99083928      19.48167828       0.60000000       0.04447549       0.00297343      -0.00650292       0.00626379
Ni      36.92802516      14.16973011      19.42838795       0.60000000       0.02332715       0.00457264      -0.00079248       0.00247614
Ni      36.91179376      15.93331968      17.68548133       0.60000000       0.03131870      -0.00194713      -0.00783661       0.00640311
Ni      35.08810456      14.22204440      21.19966306       0.60000000       0.03446671      -0.00556632       0.00179976       0.00684795
Ni      35.04882852      16.01654847      22.96523918       0.60000000       0.04754314       0.00454412       0.00228547       0.00525066
Ni      36.93421577      14.17578051      22.92234113       0.60000000       0.02107318      -0.00653344       0.00366655       0.01013281
Ni      36.90758409      15.94675022      21.18627150       0.60000000       0.03537632      -0.00106835      -0.00710554       0.00355923
Ni      35.12360386      14.23074956      24.68269980       0.60000000       0.03020717      -0.01508772      -0.02323180      -0.00880839
Ni      35.10663638      16.02502349      26.47469927       0.60000000       0.05118170      -0.00447128      -0.00126257       0.00412369
Ni      36.95052667      14.16886728      26.42565475       0.60000000       0.01368042      -0.00977051      -0.00962584      -0.01056613
Ni      36.91954931      15.95771774      24.69168119       0.60000000       0.03130566      -0.01112754      -0.01012275      -0.00234037
Ni      35.16874842      14.20156932      28.17776049       0.60000000       0.02115023      -0.00037065      -0.00127265      -0.00524669
Ni      35.17019477      15.97316161      29.94412641       0.60000000       0.05259190       0.00110809       0.00254862       0.00397928
Ni      36.97015748      14.14066463      29.93129732       0.60000000       0.00480683       0.00067898       0.00088627       0.00083201
Ni      36.94793035      15.94490077      28.19561395       0.60000000       0.02272887       0.00099025       0.00498502       0.00498738
Ni      35.19860942      14.15666084      31.68205313       0.60000000       0.00438878       0.00044144       0.00022376       0.00143326
Ni      35.18542661      15.92083212      33.44047985       0.60000000       0.03784021       0.00050413      -0.00030803      -0.00022469
Ni      36.97897036      14.12527256      33.45770384       0.60000000      -0.00252050       0.00065911       0.00040350      -0.00029837
Ni      36.97188777      15.90020933      31.69329024       0.60000000       0.01071936       0.00138626       0.00164379       0.00172622
Ni      35.21062333      14.12958843      35.21062333       0.60000000       0.00213501       0.00015281      -0.00034002       0.00015281
Ni      35.21702798      15.88715541      36.97358171       0.60000000       0.00276454      -0.00015042      -0.00040053       0.00020454
Ni      36.98812383      14.10934019      36.98812383       0.60000000      -0.00500797       0.00040071       0.00086109       0.00040071
Ni      36.97358171      15.88715541      35.21702798       0.60000000       0.00276454       0.00020454      -0.00040053      -0.00015042
Ni      35.24000000      14.09600000      38.76400000       0.60000000       0.00079742      -0.06058623       0.07976394      -0.13162070
Ni      35.24000000      15.85800000      40.52600000       0.60000000       0.04195605      -0.00895735      -0.00467393      -0.09563721
Ni      37.00200000      14.09600000      40.52600000       0.60000000       0.26374168       0.23227933      -0.23786823       0.14567863
Ni      37.00200000      15.85800000      38.76400000       0.60000000      -0.00044967      -0.07263320       0.05227884      -0.12247534
Ni      35.24000000      17.62000000       0.00000000       0.60000000       0.28781306       0.10863068      -0.08263217       0.07174472
Ni      35.24000000      19.38200000       1.76200000       0.60000000       0.28877521       0.02208285      -0.03750608       0.17700337
Ni      37.00200000      19.38200000       0.00000000       0.60000000       0.13021908       0.01152538      -0.08348936       0.08565517
Ni      35.20809350      19.33373004       5.30820685       0.60000000       0.46534774       0.00056847       0.00525313      -0.00234960
Ni      37.05066665      17.62044371       5.28442068       0.60000000       0.34445588      -0.00321660      -0.00007294      -0.00319133
Ni      36.98780563      19.38724280       3.52943686       0.60000000       0.30797518       0.00105397       0.00328139       0.00081083
Ni      35.25906556      17.65760359       7.10043558       0.60000000       0.20733585      -0.00364719      -0.00524773      -0.01084384
Ni      35.19807712      19.40884017       8.85608411       0.60000000       0.14836024      -0.00370288      -0.00381446      -0.00170075
Ni      36.98931719      17.64658230       8.85830156       0.60000000       0.01092074      -0.00730853      -0.00817298      -0.01252290
Ni      37.00331318      19.39466305       7.06863336       0.60000000       0.03372774      -0.00900972      -0.00633430      -0.01286119
Ni      35.14575694      17.70533935      10.64774274       0.60000000       0.01509015      -0.00806088       0.01116216      -0.00374192
Ni      35.12024735      19.45200952      12.43187548       0.60000000       0.02310508      -0.00366288      -0.01161264       0.01678219
Ni      36.94446149      17.67122078      12.39441977       0.60000000       0.01372780       0.00065247      -0.00723950       0.00072142
Ni      36.96275996      19.41116508      10.62180271       0.60000000       0.00819913       0.02988628      -0.02255269      -0.00105536
Ni      35.08613985      17.72774027      14.20664381       0.60000000       0.02665212       0.00860617      -0.01844414       0.01608657
Ni      35.03226926      19.48167828      15.99083928       0.60000000       0.04447549       0.00297343       0.00626379      -0.00650292
Ni      36.91179376      17.68548133      15.93331968       0.60000000       0.03131870      -0.00194713       0.00640311      -0.00783661
Ni      36.92802516      19.42838795      14.16973011       0.60000000       0.02332715       0.00457264       0.00247614      -0.00079248
Ni      35.01510994      17.74522610      17.74522610       0.60000000       0.04901152       0.00174808      -0.00192430      -0.00192430
Ni      34.96574806      19.50850178      19.50850178       0.60000000       0.06935309      -0.00106529      -0.00084069      -0.00084069
Ni      36.89041473      17.69936164      19.44511260       0.60000000       0.04445330      -0.00202000       0.00004624       0.00101576
Ni      36.89041473      19.44511260      17.69936164       0.60000000       0.04445330      -0.00202000       0.00101576       0.00004624
Ni      34.98829284      17.76801613      21.23932112       0.60000000       0.06279555      -0.00224527       0.00134645      -0.00146457
Ni      34.95135192      19.53932448      23.00791685       0.60000000       0.07694072      -0.00151942       0.00315111       0.00065584
Ni      36.88800192      17.71896643      22.95081578       0.60000000       0.04778259       0.00211011       0.00145120      -0.00169078
Ni      36.87070167      19.46318866      21.20580315       0.60000000       0.05678988      -0.00134400       0.00108793       0.00045659
Ni      35.01633330      17.80266649      24.74822192       0.60000000       0.06264637       0.00468449       0.00332982      -0.00024768
Ni      34.97081528      19.57453080      26.54664418       0.60000000       0.07287180      -0.00084517      -0.00105400      -0.00177510
Ni      36.90176979      17.73726519      26.46971681       0.60000000       0.04495529      -0.00075216       0.00326056       0.00255051
Ni      36.86978032      19.48877026      24.72026987       0.60000000       0.06201336       0.00006252       0.00176375       0.00021958
Ni      35.06353875      17.80764788      28.28039757       0.60000000       0.06995159      -0.00114591       0.00629837       0.00829309
Ni      35.00889631      19.58558293      30.08275395       0.60000000       0.23255352       0.00004323       0.00230460       0.00357387
Ni      36.94364282      17.73114385      29.97539399       0.60000000       0.04342276       0.00077749       0.00341103       0.00273945
Ni      36.87686527      19.51358047      28.24850427       0.60000000       0.06525175      -0.00023019       0.00342357       0.00226767
Ni      35.17799722      17.72885610      31.71234816       0.60000000       0.29395490       0.00021291       0.00282935       0.00342325
Ni      36.97795201      17.65402604      33.45739023       0.60000000       0.13621026       0.00049673       0.00069584      -0.00010512
Ni      36.88957202      19.54085811      31.81430019       0.60000000       0.19621989       0.00286250      -0.00186344      -0.00288762
Ni      35.17310560      17.70587754      35.17310560       0.60000000       0.17983688      -0.00025468      -0.00031012      -0.00025468
Ni      35.21567034      19.41277312      36.96432651       0.60000000       0.19010165       0.00071546      -0.00024416       0.00013219
Ni      36.98046500      17.63516028      36.98046500       0.60000000       0.00367164      -0.00032242      -0.00063524      -0.00032242
Ni      36.96432651      19.41277312      35.21567034       0.60000000       0.19010165       0.00013219      -0.00024416       0.00071546
Ni      35.24000000      17.62000000      38.76400000       0.60000000       0.00176912      -0.05297511       0.08196537      -0.12469858
Ni      35.24000000      19.38200000      40.52600000       0.60000000       0.00616458      -0.00964054      -0.00625843       0.00725821
Ni      37.00200000      17.62000000      40.52600000       0.60000000       0.02947313      -0.00176968       0.00188937      -0.09996515
Ni      37.00200000      19.38200000      38.76400000       0.60000000       0.02654467      -0.07785617      -0.05277536      -0.14429966
Ni      35.24000000      21.14400000       0.00000000       0.60000000       0.00413950      -0.01152989       0.00512516      -0.00079224
Ni      35.24000000      22.90600000       1.76200000       0.60000000      -0.00101272      -0.05371931      -0.00734477       0.08636430
Ni      37.00200000      21.14400000       1.76200000       0.60000000       0.02620752      -0.05902245       0.13292666       0.06973992
Ni      37.00200000      22.90600000       0.00000000       0.60000000       0.03083007      -0.00494822       0.00321907       0.09652345
Ni      35.21853398      21.14859568       3.54763701       0.60000000       0.17402576       0.00206274       0.00307917       0.00018373
Ni      35.19038443      22.89118661       5.32736526       0.60000000       0.14873044      -0.00574839       0.00145290       0.00123423
Ni      36.98785217      21.14027519       5.30294056       0.60000000       0.03271334      -0.00235769      -0.00664107      -0.00405798
Ni      36.98832830      22.90455388       3.53839858       0.60000000      -0.00140894       0.00121513       0.00001975       0.00005098
Ni      35.17664186      21.10772679       7.06657885       0.60000000       0.29077151      -0.01649157       0.00423215      -0.01077518
Ni      35.15606021      22.85864045       8.85733213       0.60000000       0.02798370       0.02390079       0.00440341       0.01780727
Ni      36.97392671      21.15012686       8.83953900       0.60000000       0.00774464       0.00648798      -0.02838479      -0.01954350
Ni      36.96973683      22.89120029       7.07455073       0.60000000       0.00464805       0.01333093       0.00368179      -0.01500029
Ni      35.15431294      21.14948418      10.63637988       0.60000000       0.03690419       0.00857258       0.01246456       0.00198994
Ni      35.14640339      22.91262059      12.42797022       0.60000000       0.04087467       0.00221785      -0.01608408       0.00386626
Ni      36.94543697      21.16637223      12.39343315       0.60000000       0.01310515       0.03622084      -0.02522055       0.01667741
Ni      36.95858505      22.89812387      10.61099567       0.60000000       0.00559855       0.03909551      -0.00014776       0.01307440
Ni      35.08810456      21.19966306      14.22204440       0.60000000       0.03446671      -0.00556632       0.00684795       0.00179976
Ni      35.04882852      22.96523918      16.01654847       0.60000000       0.04754314       0.00454412       0.00525066       0.00228547
Ni      36.90758409      21.18627150      15.94675022       0.60000000       0.03537632      -0.00106835       0.00355923      -0.00710554
Ni      36.93421577      22.92234113      14.17578051       0.60000000       0.02107318      -0.00653344       0.01013281       0.00366655
Ni      34.98829284      21.23932112      17.76801613       0.60000000       0.06279555      -0.00224527      -0.00146457       0.00134645
Ni      34.95135192      23.00791685      19.53932448       0.60000000       0.07694072      -0.00151942       0.00065584       0.00315111
Ni      36.87070167      21.20580315      19.46318866       0.60000000       0.05678988      -0.00134400       0.00045659       0.00108793
Ni      36.88800192      22.95081578      17.71896643       0.60000000       0.04778259       0.00211011      -0.00169078       0.00145120
Ni      34.92802163      21.27183196      21.27183196       0.60000000       0.08356149      -0.00052805       0.00635689       0.00635689
Ni      34.90006489      23.04157236      23.04157236       0.60000000       0.09022172      -0.00352939       0.00526511       0.00526511
Ni      36.85247407      21.22564781      22.96826325       0.60000000       0.06996055      -0.00143096       0.00149411       0.00156921
Ni      36.85247407      22.96826325      21.22564781       0.60000000       0.06996055      -0.00143096       0.00156921       0.00149411
Ni      34.91722523      21.30519026      24.78985896       0.60000000       0.08583803      -0.00233555       0.00237733       0.00312685
Ni      34.90029004      23.07933897      26.58439958       0.60000000       0.10687749      -0.00142852       0.00372126       0.00361645
Ni      36.84883968      21.25260518      26.49129034       0.60000000       0.07764063      -0.00074867      -0.00002340       0.00002814
Ni      36.83780774      22.98530428      24.73133010       0.60000000       0.08066636      -0.00120586       0.00234587       0.00346877
Ni      34.92304648      21.35685326      28.35947734       0.60000000       0.10828497      -0.00119098       0.00107384       0.00057347
Ni      36.84851130      21.27411131      30.03664197       0.60000000       0.11245800      -0.00030541       0.00152452       0.00104761
Ni      36.83958010      23.00395155      28.26387544       0.60000000       0.10043730      -0.00146545       0.00025403       0.00165726
Ni      34.90066277      21.32069577      32.02868519       0.60000000       0.37319869       0.00221765       0.00018995      -0.00001852
Ni      36.76110848      21.33478362      33.70526635       0.60000000       0.40646064       0.00625101      -0.00677356      -0.00637269
Ni      36.84690900      22.98500943      31.83746002       0.60000000       0.40204394       0.00218686       0.00054573      -0.00024581
Ni      34.52873066      20.19417743      34.52873066       0.60000000       0.49478332       0.00165052       0.00355420       0.00165052
Ni      37.00383512      21.18959630      37.00383512       0.60000000       0.40452150       0.00019555       0.00084042       0.00019555
Ni      35.24000000      21.14400000      38.76400000       0.60000000       0.28496639       0.05616864       0.12732775      -0.17038633
Ni      35.24000000      22.90600000      40.52600000       0.60000000       0.27835527       0.13141873       0.11104836      -0.11160757
Ni      37.00200000      21.14400000      40.52600000       0.60000000       0.12022530       0.02724393       0.11352004      -0.12044741
Ni      35.24000000      24.66800000       0.00000000       0.60000000       0.04133913       0.00182297       0.00553337       0.08662675
Ni      35.24000000      26.43000000       1.76200000       0.60000000       0.00050049      -0.06051431      -0.03396472       0.10145900
Ni      37.00200000      24.66800000       1.76200000       0.60000000      -0.00098499      -0.05608343      -0.01712196       0.08512281
Ni      37.00200000      26.43000000       0.00000000       0.60000000       0.29777320       0.08866910       0.06573598      -0.09920277
Ni      35.22078371      24.66034386       3.54278359       0.60000000       0.00065777       0.00088492       0.00027632       0.00128419
Ni      35.21074507      26.40981093       5.32014865       0.60000000       0.00021373       0.00456029       0.00572493      -0.00395739
Ni      36.97920620      24.65597711       5.30992315       0.60000000      -0.00213852       0.00074032      -0.00336708       0.00050199
Ni      36.99046544      26.42367907       3.53644903       0.60000000      -0.00539436      -0.00039267      -0.00559065       0.00416488
Ni      35.18379001      24.63593409       7.10298775       0.60000000       0.00961935      -0.00596486       0.00475367      -0.00544359
Ni      35.18468949      26.39193762       8.86598946       0.60000000       0.00673700      -0.01019468      -0.00037339       0.00031513
Ni      36.96559331      24.64366153       8.84192502       0.60000000       0.00181081       0.02667924       0.01414179      -0.01310627
Ni      36.97758943      26.41128600       7.07468803       0.60000000      -0.00195698      -0.00150509      -0.00413809       0.00980588
Ni      35.17361441      24.63133754      10.63650722       0.60000000       0.03487823      -0.00820324       0.01154467      -0.00427193
Ni      35.17102217      26.40565297      12.42054875       0.60000000       0.01383890      -0.01432386      -0.01106752      -0.00746732
Ni      36.95833145      24.66129429      12.39151561       0.60000000       0.00870237      -0.01854106      -0.01632703      -0.01549651
Ni      36.97020851      26.40806821      10.60769017       0.60000000       0.00236196      -0.01042947      -0.00429406       0.00377210
Ni      35.12360386      24.68269980      14.23074956       0.60000000       0.03020717      -0.01508772      -0.00880839      -0.02323180
Ni      35.10663638      26.47469927      16.02502349       0.60000000       0.05118170      -0.00447128       0.00412369      -0.00126257
Ni      36.91954931      24.69168119      15.95771774       0.60000000       0.03130566      -0.01112754      -0.00234037      -0.01012275
Ni      36.95052667      26.42565475      14.16886728       0.60000000       0.01368042      -0.00977051      -0.01056613      -0.00962584
Ni      35.01633330      24.74822192      17.80266649       0.60000000       0.06264637       0.00468449      -0.00024768       0.00332982
Ni      34.97081528      26.54664418      19.57453080       0.60000000       0.07287180      -0.00084517      -0.00177510      -0.00105400
Ni      36.86978032      24.72026987      19.48877026       0.60000000       0.06201336       0.00006252       0.00021958       0.00176375
Ni      36.90176979      26.46971681      17.73726519       0.60000000       0.04495529      -0.00075216       0.00255051       0.00326056
Ni      34.91722523      24.78985896      21.30519026       0.60000000       0.08583803      -0.00233555       0.00312685       0.00237733
Ni      34.90029004      26.58439958      23.07933897       0.60000000       0.10687749      -0.00142852       0.00361645       0.00372126
Ni      36.83780774      24.73133010      22.98530428       0.60000000       0.08066636      -0.00120586       0.00346877       0.00234587
Ni      36.84883968      26.49129034      21.25260518       0.60000000       0.07764063      -0.00074867       0.00002814      -0.00002340
Ni      34.89495899      24.82254121      24.82254121       0.60000000       0.10702386      -0.00117928       0.00454011       0.00454011
Ni      36.83666296      24.73980204      26.49434106       0.60000000       0.09285512      -0.00050000       0.00251573       0.00206453
Ni      36.83666296      26.49434106      24.73980204       0.60000000       0.09285512      -0.00050000       0.00206453       0.00251573
Ni      34.90512632      24.83675835      28.39756554       0.60000000       0.35249136      -0.00340879       0.00472253       0.00377714
Ni      36.86928630      24.72328293      30.03979497       0.60000000       0.41988701      -0.00058620       0.00246311       0.00081456
Ni      36.88353583      26.47605846      28.24952576       0.60000000       0.43096572      -0.00055426       0.00094938       0.00062328
Ni      34.87827804      23.10172565      30.21912551       0.60000000       0.31441173       0.00004067       0.00296797       0.00115849
Ni      34.09429910      24.64787267      32.27556186       0.60000000       0.36912766       0.00098957       0.00340688       0.00233424
Ni      34.14392886      22.72019296      34.14392886       0.60000000       0.42567349       0.00080534       0.00321592       0.00080534
Ni      34.05537821      24.79173746      35.84509622       0.60000000       0.45376850       0.00211465       0.00451969       0.00181464
Ni      35.90238287      23.06812676      35.90238287       0.60000000       0.65329940       0.00183538       0.00558271       0.00183538
Ni      35.84509622      24.79173746      34.05537821       0.60000000       0.45376850       0.00181464       0.00451969       0.00211465
Ni      35.24000000      26.43000000      40.52600000       0.60000000       0.67032334      -0.01104687      -0.02706601      -0.41179454
Ni      37.00200000      24.66800000      40.52600000       0.60000000       0.59645463       0.10056881      -0.06239013      -0.55288787
Ni      35.88733588      24.94317741      37.64685808       0.60000000       0.72606959       0.00331515       0.00356091       0.00327292
Ni      35.24000000      28.19200000       0.00000000       0.60000000       0.30360878       0.06486783       0.06588611      -0.09273585
Ni      35.24000000      29.95400000       1.76200000       0.60000000       0.03400607      -0.03986479      -0.02914843       0.19298555
Ni      37.00200000      28.19200000       1.76200000       0.60000000       0.03183419      -0.02097430      -0.01364418       0.17772955
Ni      37.00200000      29.95400000       0.00000000       0.60000000       0.48717337       0.01725651       0.00607781      -0.46918201
Ni      35.22385316      28.18026646       3.53988372       0.60000000      -0.00392476       0.00024711      -0.00312826       0.00368215
Ni      35.21645130      29.93233572       5.31130745       0.60000000      -0.00229038      -0.00040113       0.00151458      -0.00310760
Ni      36.98659528      28.17998437       5.30362446       0.60000000      -0.00364566       0.00078041      -0.00635954       0.00665920
Ni      36.99410173      29.94741197       3.53356934       0.60000000      -0.00718980      -0.00161855      -0.00290834       0.00086548
Ni      35.20500957      28.16289979       7.08724461       0.60000000      -0.00026351       0.00476626       0.00151642      -0.00089293
Ni      35.20619962      29.92339608       8.85049370       0.60000000      -0.00083290      -0.00036848       0.00058318      -0.00136200
Ni      36.97703515      28.17040108       8.83737634       0.60000000      -0.00139015       0.00133375      -0.00023581       0.00159237
Ni      36.98497145      29.93731720       7.06810231       0.60000000      -0.00363206       0.00184551       0.00294545      -0.00264899
Ni      35.18903112      28.15479083      10.62988205       0.60000000       0.00332225       0.00706625       0.00665821       0.00601330
Ni      35.19561040      29.91836067      12.39398154       0.60000000       0.00281149       0.00097264       0.00469335       0.00351883
Ni      36.96944548      28.16972736      12.37644229       0.60000000       0.00330177      -0.00394093      -0.00848188      -0.00404662
Ni      36.97872305      29.93110910      10.60007220       0.60000000      -0.00190914       0.00211105       0.00442282       0.00004315
Ni      35.16874842      28.17776049      14.20156932       0.60000000       0.02115023      -0.00037065      -0.00524669      -0.00127265
Ni      35.17019477      29.94412641      15.97316161       0.60000000       0.05259190       0.00110809       0.00397928       0.00254862
Ni      36.94793035      28.19561395      15.94490077       0.60000000       0.02272887       0.00099025       0.00498738       0.00498502
Ni      36.97015748      29.93129732      14.14066463       0.60000000       0.00480683       0.00067898       0.00083201       0.00088627
Ni      35.06353875      28.28039757      17.80764788       0.60000000       0.06995159      -0.00114591       0.00829309       0.00629837
Ni      35.00889631      30.08275395      19.58558293       0.60000000       0.23255352       0.00004323       0.00357387       0.00230460
Ni      36.87686527      28.24850427      19.51358047       0.60000000       0.06525175      -0.00023019       0.00226767       0.00342357
Ni      36.94364282      29.97539399      17.73114385       0.60000000       0.04342276       0.00077749       0.00273945       0.00341103
Ni      34.92304648      28.35947734      21.35685326       0.60000000       0.10828497      -0.00119098       0.00057347       0.00107384
Ni      36.83958010      28.26387544      23.00395155       0.60000000       0.10043730      -0.00146545       0.00165726       0.00025403
Ni      36.84851130      30.03664197      21.27411131       0.60000000       0.11245800      -0.00030541       0.00104761       0.00152452
Ni      34.90512632      28.39756554      24.83675835       0.60000000       0.35249136      -0.00340879       0.00377714       0.00472253
Ni      36.88353583      28.24952576      26.47605846       0.60000000       0.43096572      -0.00055426       0.00062328       0.00094938
Ni      36.86928630      30.03979497      24.72328293       0.60000000       0.41988701      -0.00058620       0.00081456       0.00246311
Ni      34.91937490      26.60216274      26.60216274       0.60000000       0.36977795      -0.00253107       0.00371955       0.00371955
Ni      33.92300551      28.45709779      28.45709779       0.60000000       0.41352849       0.00587457       0.00420748       0.00420748
Ni      33.97065823      26.56020242      30.35110204       0.60000000       0.39893877       0.00679896       0.00356878       0.00522131
Ni      33.93356809      28.44439852      32.14603553       0.60000000       0.08406058       0.00322964       0.00345807       0.00280045
Ni      35.73977310      26.63406881      32.18817428       0.60000000       0.46066046       0.00414073       0.00329010       0.00285304
Ni      35.67560724      28.48418361      30.33253468       0.60000000       0.47162799       0.00549188       0.00382523       0.00399657
Ni      34.00036521      26.59684422      34.00036521       0.60000000       0.09844302       0.00154468       0.00361220       0.00154468
Ni      33.95854160      28.51250227      35.72414737       0.60000000       0.09922288       0.00215720       0.00202779       0.00242168
Ni      35.78547403      26.70137436      35.78547403       0.60000000       0.14118907       0.00226473       0.00386239       0.00226473
Ni      35.72414737      28.51250227      33.95854160       0.60000000       0.09922288       0.00242168       0.00202779       0.00215720
Ni      34.01346354      26.73069021      37.53013386       0.60000000       0.71416718       0.00244624       0.00321000       0.00441338
Ni      35.76183037      28.62439756      37.54172421       0.60000000       0.36384191       0.00193418       0.00156490       0.00265802
Ni      35.24000000      31.71600000       0.00000000       0.60000000       0.48933038       0.00411989       0.00403617      -0.47056811
Ni      35.24000000      33.47800000       1.76200000       0.60000000       0.03813974      -0.03266590      -0.03146261       0.16467217
Ni      37.00200000      31.71600000       1.76200000       0.60000000       0.03556210      -0.01418872      -0.01896399       0.15154512
Ni      37.00200000      33.47800000       0.00000000       0.60000000       0.48694423       0.00656882      -0.00453608      -0.47434411
Ni      35.22733452      31.70407678       3.53691230       0.60000000      -0.00496193       0.00053684       0.00175743      -0.00144060
Ni      35.22290620      33.46067978       5.30439344       0.60000000      -0.00347816       0.00054278       0.00085559      -0.00006316
Ni      36.99153328      31.70448898       5.29951495       0.60000000      -0.00619304      -0.00020991       0.00005089      -0.00111763
Ni      36.99638321      33.47188685       3.53149540       0.60000000      -0.00847315       0.00052939      -0.00043584      -0.00033223
Ni      35.21520094      31.69134770       7.07572897       0.60000000      -0.00251585      -0.00095537      -0.00007656      -0.00154261
Ni      35.21578420      33.45334724       8.83689121       0.60000000      -0.00274747       0.00098591       0.00062689      -0.00033736
Ni      36.98571905      31.69870517       8.82956777       0.60000000      -0.00372254      -0.00002212       0.00032138      -0.00098944
Ni      36.99126298      33.46542937       7.06142611       0.60000000      -0.00612266       0.00018391      -0.00093719       0.00021906
Ni      35.20881584      31.68506627      10.61192584       0.60000000      -0.00105613      -0.00085531      -0.00012953      -0.00092591
Ni      35.21126182      33.44791593      12.37021825       0.60000000      -0.00087716       0.00016016       0.00066493      -0.00075792
Ni      36.98068627      31.69450960      12.36227236       0.60000000      -0.00229511      -0.00012546       0.00013506       0.00028902
Ni      36.98668145      33.46140604      10.58987994       0.60000000      -0.00355650      -0.00004641      -0.00044172      -0.00077426
Ni      35.19860942      31.68205313      14.15666084       0.60000000       0.00438878       0.00044144       0.00143326       0.00022376
Ni      35.18542661      33.44047985      15.92083212       0.60000000       0.03784021       0.00050413      -0.00022469      -0.00030803
Ni      36.97188777      31.69329024      15.90020933       0.60000000       0.01071936       0.00138626       0.00172622       0.00164379
Ni      36.97897036      33.45770384      14.12527256       0.60000000      -0.00252050       0.00065911      -0.00029837       0.00040350
Ni      35.17799722      31.71234816      17.72885610       0.60000000       0.29395490       0.00021291       0.00342325       0.00282935
Ni      36.88957202      31.81430019      19.54085811       0.60000000       0.19621989       0.00286250      -0.00288762      -0.00186344
Ni      36.97795201      33.45739023      17.65402604       0.60000000       0.13621026       0.00049673      -0.00010512       0.00069584
Ni      34.90066277      32.02868519      21.32069577       0.60000000       0.37319869       0.00221765      -0.00001852       0.00018995
Ni      36.84690900      31.83746002      22.98500943       0.60000000       0.40204394       0.00218686      -0.00024581       0.00054573
Ni      36.76110848      33.70526635      21.33478362       0.60000000       0.40646064       0.00625101      -0.00637269      -0.00677356
Ni      34.87827804      30.21912551      23.10172565       0.60000000       0.31441173       0.00004067       0.00115849       0.00296797
Ni      34.09429910      32.27556186      24.64787267       0.60000000       0.36912766       0.00098957       0.00233424       0.00340688
Ni      33.97065823      30.35110204      26.56020242       0.60000000       0.39893877       0.00679896       0.00522131       0.00356878
Ni      33.93356809      32.14603553      28.44439852       0.60000000       0.08406058       0.00322964       0.00280045       0.00345807
Ni      35.67560724      30.33253468      28.48418361       0.60000000       0.47162799       0.00549188       0.00399657       0.00382523
Ni      35.73977310      32.18817428      26.63406881       0.60000000       0.46066046       0.00414073       0.00285304       0.00329010
Ni      33.90682335      30.29636480      30.29636480       0.60000000       0.08139982       0.00438563       0.00331654       0.00331654
Ni      33.90441688      32.11459400      32.11459400       0.60000000       0.05120069       0.00355469       0.00270557       0.00270557
Ni      35.68869034      30.32492473      32.13936565       0.60000000       0.09709783       0.00330801       0.00162659       0.00230004
Ni      35.68869034      32.13936565      30.32492473       0.60000000       0.09709783       0.00330801       0.00230004       0.00162659
Ni      33.91947084      30.31196161      33.91947084       0.60000000       0.05377036       0.00287642       0.00238411       0.00287642
Ni      33.93072589      32.14840953      35.71592362       0.60000000       0.04524468       0.00165064       0.00087931       0.00138346
Ni      35.72783680      30.37856688      35.72783680       0.60000000       0.05408579       0.00213885       0.00134284       0.00213885
Ni      35.71592362      32.14840953      33.93072589       0.60000000       0.04524468       0.00138346       0.00087931       0.00165064
Ni      33.96190405      30.39456870      37.52728692       0.60000000       0.36684996       0.00186122       0.00111990       0.00180995
Ni      34.06533333      32.30333333      39.35133333       0.60000000       0.70344702      -0.15074990      -0.16179012       0.05720628
Ni      35.82733333      30.54133333      39.35133333       0.60000000       0.69843107      -0.12517468      -0.15970443       0.07111957
Ni      35.75136973      32.22421659      37.51999822       0.60000000       0.07885065       0.00102448       0.00110855       0.00090918
Ni      35.24000000      35.24000000       0.00000000       0.60000000       0.48889806      -0.00651761      -0.00651761      -0.47551542
Ni      35.24000000      37.00200000       1.76200000       0.60000000       0.03511474      -0.01523500      -0.00408998       0.13922968
Ni      37.00200000      35.24000000       1.76200000       0.60000000       0.03511474      -0.00408998      -0.01523500       0.13922968
Ni      37.00200000      37.00200000       0.00000000       0.60000000       0.48474854       0.00898119       0.00898119      -0.47268702
Ni      35.23159736      35.23159736       3.53345155       0.60000000      -0.00577958       0.00097065       0.00097065      -0.00147161
Ni      35.23209378      36.99528985       5.29498092       0.60000000      -0.00775899       0.00019747       0.00144075      -0.00110017
Ni      36.99528985      35.23209378       5.29498092       0.60000000      -0.00775899       0.00144075       0.00019747      -0.00110017
Ni      36.99962920      36.99962920       3.52800931       0.60000000      -0.01135266       0.00114509       0.00114509       0.00005661
Ni      35.22350622      35.22350622       7.06559940       0.60000000      -0.00391248       0.00028828       0.00028828      -0.00067440
Ni      35.22847464      36.99202308       8.82137337       0.60000000      -0.00638664       0.00083770      -0.00037502      -0.00064045
Ni      36.99202308      35.22847464       8.82137337       0.60000000      -0.00638664      -0.00037502       0.00083770      -0.00064045
Ni      36.99718673      36.99718673       7.05411001       0.60000000      -0.01064104       0.00024775       0.00024775      -0.00199112
Ni      35.21866437      35.21866437      10.59468295       0.60000000      -0.00260860       0.00045414       0.00045414      -0.00016206
Ni      35.22446329      36.98703403      12.35010584       0.60000000      -0.00352328      -0.00043926      -0.00001411      -0.00005870
Ni      36.98703403      35.22446329      12.35010584       0.60000000      -0.00352328      -0.00001411      -0.00043926      -0.00005870
Ni      36.99446119      36.99446119      10.57962887       0.60000000      -0.00861922      -0.00083378      -0.00083378      -0.00011614
Ni      35.21062333      35.21062333      14.12958843       0.60000000       0.00213501       0.00015281       0.00015281      -0.00034002
Ni      35.21702798      36.97358171      15.88715541       0.60000000       0.00276454      -0.00015042       0.00020454      -0.00040053
Ni      36.97358171      35.21702798      15.88715541       0.60000000       0.00276454       0.00020454      -0.00015042      -0.00040053
Ni      36.98812383      36.98812383      14.10934019       0.60000000      -0.00500797       0.00040071       0.00040071       0.00086109
Ni      35.17310560      35.17310560      17.70587754       0.60000000       0.17983688      -0.00025468      -0.00025468      -0.00031012
Ni      35.21567034      36.96432651      19.41277312       0.60000000       0.19010165       0.00071546       0.00013219      -0.00024416
Ni      36.96432651      35.21567034      19.41277312       0.60000000       0.19010165       0.00013219       0.00071546      -0.00024416
Ni      36.98046500      36.98046500      17.63516028       0.60000000       0.00367164      -0.00032242      -0.00032242      -0.00063524
Ni      34.52873066      34.52873066      20.19417743       0.60000000       0.49478332       0.00165052       0.00165052       0.00355420
Ni      37.00383512      37.00383512      21.18959630       0.60000000       0.40452150       0.00019555       0.00019555       0.00084042
Ni      34.14392886      34.14392886      22.72019296       0.60000000       0.42567349       0.00080534       0.00080534       0.00321592
Ni      34.05537821      35.84509622      24.79173746       0.60000000       0.45376850       0.00211465       0.00181464       0.00451969
Ni      35.84509622      34.05537821      24.79173746       0.60000000       0.45376850       0.00181464       0.00211465       0.00451969
Ni      35.90238287      35.90238287      23.06812676       0.60000000       0.65329940       0.00183538       0.00183538       0.00558271
Ni      34.00036521      34.00036521      26.59684422       0.60000000       0.09844302       0.00154468       0.00154468       0.00361220
Ni      33.95854160      35.72414737      28.51250227       0.60000000       0.09922288       0.00215720       0.00242168       0.00202779
Ni      35.72414737      33.95854160      28.51250227       0.60000000       0.09922288       0.00242168       0.00215720       0.00202779
Ni      35.78547403      35.78547403      26.70137436       0.60000000       0.14118907       0.00226473       0.00226473       0.00386239
Ni      33.91947084      33.91947084      30.31196161       0.60000000       0.05377036       0.00287642       0.00287642       0.00238411
Ni      33.93072589      35.71592362      32.14840953       0.60000000       0.04524468       0.00165064       0.00138346       0.00087931
Ni      35.71592362      33.93072589      32.14840953       0.60000000       0.04524468       0.00138346       0.00165064       0.00087931
Ni      35.72783680      35.72783680      30.37856688       0.60000000       0.05408579       0.00213885       0.00213885       0.00134284
Ni      33.92182056      33.92182056      33.92182056       0.60000000       0.03483485       0.00190645       0.00190645       0.00190645
Ni      33.96303166      35.72870298      35.72870298       0.60000000       0.03066802       0.00093950       0.00099106       0.00099106
Ni      35.72870298      33.96303166      35.72870298       0.60000000       0.03066802       0.00099106       0.00093950       0.00099106
Ni      35.72870298      35.72870298      33.96303166       0.60000000       0.03066802       0.00099106       0.00099106       0.00093950
Ni      33.98171020      33.98171020      37.51680497       0.60000000       0.07873963       0.00108528       0.00108528       0.00045469
Ni      34.06533333      35.82733333      39.35133333       0.60000000       0.51330694      -0.16960432      -0.17242050       0.14096266
Ni      35.82733333      34.06533333      39.35133333       0.60000000       0.51330694      -0.17242050      -0.16960432       0.14096266
Ni      35.77075566      35.77075566      37.53237218       0.60000000       0.05679278       0.00094577       0.00094577       0.00081998
Ni      35.24000000      38.76400000       0.00000000       0.60000000       0.39848903      -0.02927502       0.58291295      -0.31628798
Ni      35.24000000      40.52600000       1.76200000       0.60000000       8.31073604     -24.12926449     -55.00651505      24.24408600
Ni      37.00200000      38.76400000       1.76200000       0.60000000      -0.06761914       0.00944915       0.73185923       0.14280554
Ni      37.00200000      40.52600000       0.00000000       0.60000000       8.76303948     -23.04521312     -53.18224356      23.58961818
Ni      35.24000000      38.76400000       3.52400000       0.60000000      -0.10894986      -0.02288511       0.73580314       0.02687913
Ni      35.24000000      40.52600000       5.28600000       0.60000000       8.28223973     -24.06438276     -55.04373499      24.06421012
Ni      37.00200000      38.76400000       5.28600000       0.60000000      -0.11059748      -0.01205876       0.73717451       0.02217747
Ni      37.00200000      40.52600000       3.52400000       0.60000000       8.28029594     -24.14757348     -55.03965335      24.11815032
Ni      35.24000000      38.76400000       7.04800000       0.60000000      -0.10010121      -0.00059475       0.65357108       0.00136193
Ni      35.24000000      40.52600000       8.81000000       0.60000000       8.27266682     -26.64626854     -53.37791225      26.64614577
Ni      37.00200000      38.76400000       8.81000000       0.60000000      -0.10217808       0.01628916       0.65748545      -0.01000298
Ni      37.00200000      40.52600000       7.04800000       0.60000000       8.28624053     -24.09551699     -55.06171218      24.06585258
Ni      35.24000000      38.76400000      10.57200000       0.60000000       0.00457975       0.07681420       0.03872160      -0.07575261
Ni      35.24000000      40.52600000      12.33400000       0.60000000       0.26753860       0.23516741       0.14720505      -0.23538193
Ni      37.00200000      38.76400000      12.33400000       0.60000000       0.00309656       0.08878852       0.03854216      -0.08472362
Ni      37.00200000      40.52600000      10.57200000       0.60000000       8.27658488     -26.67743546     -53.39595344      26.64779675
Ni      35.24000000      38.76400000      14.09600000       0.60000000       0.00079742      -0.06058623      -0.13162070       0.07976394
Ni      35.24000000      40.52600000      15.85800000       0.60000000       0.04195605      -0.00895735      -0.09563721      -0.00467393
Ni      37.00200000      38.76400000      15.85800000       0.60000000      -0.00044967      -0.07263320      -0.12247534       0.05227884
Ni      37.00200000      40.52600000      14.09600000       0.60000000       0.26374168       0.23227933       0.14567863      -0.23786823
Ni      35.24000000      38.76400000      17.62000000       0.60000000       0.00176912      -0.05297511      -0.12469858       0.08196537
Ni      35.24000000      40.52600000      19.38200000       0.60000000       0.00616458      -0.00964054       0.00725821      -0.00625843
Ni      37.00200000      38.76400000      19.38200000       0.60000000       0.02654467      -0.07785617      -0.14429966      -0.05277536
Ni      37.00200000      40.52600000      17.62000000       0.60000000       0.02947313      -0.00176968      -0.09996515       0.00188937
Ni      35.24000000      38.76400000      21.14400000       0.60000000       0.28496639       0.05616864      -0.17038633       0.12732775
Ni      35.24000000      40.52600000      22.90600000       0.60000000       0.27835527       0.13141873      -0.11160757       0.11104836
Ni      37.00200000      40.52600000      21.14400000       0.60000000       0.12022530       0.02724393      -0.12044741       0.11352004
Ni      35.24000000      40.52600000      26.43000000       0.60000000       0.67032334      -0.01104687      -0.41179454      -0.02706601
Ni      35.88733588      37.64685808      24.94317741       0.60000000       0.72606959       0.00331515       0.00327292       0.00356091
Ni      37.00200000      40.52600000      24.66800000       0.60000000       0.59645463       0.10056881      -0.55288787      -0.06239013
Ni      34.01346354      37.53013386      26.73069021       0.60000000       0.71416718       0.00244624       0.00441338       0.00321000
Ni      35.76183037      37.54172421      28.62439756       0.60000000       0.36384191       0.00193418       0.00265802       0.00156490
Ni      33.96190405      37.52728692      30.39456870       0.60000000       0.36684996       0.00186122       0.00180995       0.00111990
Ni      34.06533333      39.35133333      32.30333333       0.60000000       0.70344702      -0.15074990       0.05720628      -0.16179012
Ni      35.75136973      37.51999822      32.22421659       0.60000000       0.07885065       0.00102448       0.00090918       0.00110855
Ni      35.82733333      39.35133333      30.54133333       0.60000000       0.69843107      -0.12517468       0.07111957      -0.15970443
Ni      33.98171020      37.51680497      33.98171020       0.60000000       0.07873963       0.00108528       0.00045469       0.00108528
Ni      34.06533333      39.35133333      35.82733333       0.60000000       0.51330694      -0.16960432       0.14096266      -0.17242050
Ni      35.77075566      37.53237218      35.77075566       0.60000000       0.05679278       0.00094577       0.00081998       0.00094577
Ni      35.82733333      39.35133333      34.06533333       0.60000000       0.51330694      -0.17242050       0.14096266      -0.16960432
Ni      34.02280441      37.54124728      37.54124728       0.60000000       0.09077938       0.00048645       0.00052956       0.00052956
Ni      34.06533333      39.35133333      39.35133333       0.60000000       0.84180457       0.00394115       0.28840378       0.28840378
Ni      35.82733333      37.58933333      39.35133333       0.60000000       0.53572067      -0.10087576      -0.11071874       0.21723428
Ni      35.82733333      39.35133333      37.58933333       0.60000000       0.53572067      -0.10087576       0.21723428      -0.11071874
Ni      37.58933333      -0.58733333      -0.58733333       0.60000000      15.53795918      51.76377591      26.13501306      26.13501306
Ni      37.58933333       1.17466667       1.17466667       0.60000000      -0.15874267      -0.15437535      -0.68561990      -0.68561990
Ni      39.35133333      -0.58733333       1.17466667       0.60000000       8.80284328      23.72849045      56.05112951     -24.11714008
Ni      39.35133333       1.17466667      -0.58733333       0.60000000       8.80284328      23.72849045     -24.11714008      56.05112951
Ni      37.58933333      -0.58733333       2.93666667       0.60000000       8.31319894      23.93169353      55.04603874     -24.12351660
Ni      37.58933333       1.17466667       4.69866667       0.60000000      -0.06548423      -0.12324708      -0.74052340      -0.00595788
Ni      39.35133333      -0.58733333       4.69866667       0.60000000       8.79610002      23.70607142      55.78391587     -24.04325731
Ni      39.35133333       1.17466667       2.93666667       0.60000000       0.38207649       0.37560193      -0.61069838      -0.02700059
Ni      37.58933333      -0.58733333       6.46066667       0.60000000       8.31450721      23.93963251      55.04209256     -24.12640341
Ni      37.58933333       1.17466667       8.22266667       0.60000000      -0.05584647      -0.10348040      -0.71672742      -0.02471308
Ni      39.35133333      -0.58733333       8.22266667       0.60000000       8.79684039      23.71424644      55.78505643     -24.05136357
Ni      39.35133333       1.17466667       6.46066667       0.60000000       0.38445741       0.37657787      -0.60923132      -0.00950603
Ni      37.58933333      -0.58733333       9.98466667       0.60000000       8.55883200      24.53319239      55.75068612     -24.71907736
Ni      37.58933333       1.17466667      11.74666667       0.60000000       0.39633784      -0.03789169      -0.64172358       0.01782633
Ni      39.35133333      -0.58733333      11.74666667       0.60000000       9.03216289      24.31961602      56.55324125     -24.55414532
Ni      39.35133333       1.17466667       9.98466667       0.60000000       0.39424693       0.39527695      -0.56950783      -0.01335813
Ni      38.76400000       1.76200000      15.85800000       0.60000000       1.00192668       2.70816968      -2.66964439      -3.40861073
Ni      40.52600000       0.00000000      15.85800000       0.60000000       0.22086419      -0.17007489       0.16719302      -0.28417611
Ni      39.35133333       1.17466667      13.50866667       0.60000000       0.77646460       0.49478321      -0.58519574       0.18713713
Ni      38.76400000       0.00000000      17.62000000       0.60000000       0.14415963      -0.13679715       0.11641926       0.08302173
Ni      38.76400000       1.76200000      19.38200000       0.60000000       0.17929159      -0.19736475       0.20669301      -0.35991594
Ni      40.52600000       0.00000000      19.38200000       0.60000000      -0.00071502       0.01309066      -0.01310428       0.00854501
Ni      40.52600000       1.76200000      17.62000000       0.60000000       0.14288913      -0.12017389       0.14017574       0.08296669
Ni      38.76400000       0.00000000      21.14400000       0.60000000       0.00100269       0.01088686       0.00331443       0.00533542
Ni      38.76400000       1.76200000      22.90600000       0.60000000      -0.00569065      -0.03875441       0.03837193      -0.00038658
Ni      40.52600000       0.00000000      22.90600000       0.60000000       0.00195873       0.00756092       0.00256541      -0.00191096
Ni      40.52600000       1.76200000      21.14400000       0.60000000       0.00102079      -0.00342423      -0.01082412       0.00514650
Ni      38.76400000       0.00000000      24.66800000       0.60000000       0.15306335       0.10683922      -0.00720231       0.18381297
Ni      38.76400000       1.76200000      26.43000000       0.60000000       0.03389372       0.08764642       0.02642849       0.11973408
Ni      40.52600000       0.00000000      26.43000000       0.60000000       8.44746821     -51.45214368      26.00007438     -25.37678352
Ni      40.52600000       1.76200000      24.66800000       0.60000000       0.11022859       0.13669257      -0.14842476       0.25165846
Ni      38.76400000       0.00000000      28.19200000       0.60000000       0.40197416       0.54942762      -0.36699491      -0.01185055
Ni      38.76400000       1.76200000      29.95400000       0.60000000      -0.05759258       0.65591379       0.12082976       0.03422435
Ni      40.52600000       0.00000000      29.95400000       0.60000000       8.76398964     -53.19246700      23.53428854     -22.95736453
Ni      40.52600000       1.76200000      28.19200000       0.60000000       8.30203875     -53.35763315      26.75868129     -26.68512518
Ni      38.76400000       0.00000000      31.71600000       0.60000000       0.39859519       0.58286231      -0.31657915      -0.02934647
Ni      38.76400000       1.76200000      33.47800000       0.60000000      -0.06580341       0.72645547       0.15246236      -0.00341832
Ni      40.52600000       0.00000000      33.47800000       0.60000000       8.75834145     -53.16856323      23.58672723     -23.00862442
Ni      40.52600000       1.76200000      31.71600000       0.60000000       8.31646213     -55.02926761      24.19197322     -24.07704443
Ni      38.76400000       0.00000000      35.24000000       0.60000000       0.39848903       0.58291295      -0.31628798      -0.02927502
Ni      38.76400000       1.76200000      37.00200000       0.60000000      -0.06761914       0.73185923       0.14280554       0.00944915
Ni      40.52600000       0.00000000      37.00200000       0.60000000       8.76303948     -53.18224356      23.58961818     -23.04521312
Ni      40.52600000       1.76200000      35.24000000       0.60000000       8.31073604     -55.00651505      24.24408600     -24.12926449
Ni      38.76400000       0.00000000      38.76400000       0.60000000       0.34004841       0.29039025      -0.14687710       0.29039025
Ni      38.76400000       1.76200000      40.52600000       0.60000000       8.43404425     -24.77066222      24.34257467     -55.85140582
Ni      40.52600000       0.00000000      40.52600000       0.60000000       1.28121316      -0.19701676      -5.53123658      -0.19701676
Ni      40.52600000       1.76200000      38.76400000       0.60000000       8.43404425     -55.85140582      24.34257467     -24.77066222
Ni      37.58933333       2.93666667      -0.58733333       0.60000000       8.31319894      23.93169353     -24.12351660      55.04603874
Ni      37.58933333       4.69866667       1.17466667       0.60000000      -0.06548423      -0.12324708      -0.00595788      -0.74052340
Ni      39.35133333       2.93666667       1.17466667       0.60000000       0.38207649       0.37560193      -0.02700059      -0.61069838
Ni      39.35133333       4.69866667      -0.58733333       0.60000000       8.79610002      23.70607142     -24.04325731      55.78391587
Ni      37.58933333       2.93666667       2.93666667       0.60000000       0.03223598      -0.09729955      -0.00164170      -0.00164170
Ni      37.58120825       4.70426552       4.70426552       0.60000000       0.03706029      -0.01491696      -0.00099668      -0.00099668
Ni      39.35133333       2.93666667       4.69866667       0.60000000       0.48570439       0.45170676      -0.00122503      -0.00545384
Ni      39.35133333       4.69866667       2.93666667       0.60000000       0.48570439       0.45170676      -0.00545384      -0.00122503
Ni      37.58933333       2.93666667       6.46066667       0.60000000       0.03569254      -0.09438385       0.02439798       0.04690649
Ni      37.58360001       4.71371930       8.24041421       0.60000000       0.05142540      -0.00116642      -0.00297934      -0.00146927
Ni      39.35133333       2.93666667       8.22266667       0.60000000       0.48691107       0.44157564       0.02165919       0.00601975
Ni      39.35133333       4.69866667       6.46066667       0.60000000       0.48871154       0.39439201       0.04163943       0.03425863
Ni      37.58933333       2.93666667       9.98466667       0.60000000       0.06141496      -0.05348033       0.09515938       0.12006083
Ni      37.63616939       4.73837182      11.80946619       0.60000000       0.43250814      -0.00172082      -0.00744491      -0.00279909
Ni      39.35133333       2.93666667      11.74666667       0.60000000       0.66739223       0.45416037      -0.05710141       0.02551154
Ni      39.35133333       4.69866667       9.98466667       0.60000000       0.66212225       0.41895070      -0.01753524       0.02081379
Ni      37.58933333       2.93666667      13.50866667       0.60000000       0.53421285       0.13080731      -0.15612864       0.54976719
Ni      37.87590525       4.74573247      15.26433090       0.60000000       0.47824839      -0.00697437       0.00743675       0.00448777
Ni      40.52600000       3.52400000      15.85800000       0.60000000       0.45121294      -0.52569756       0.04092290      -0.02006201
Ni      40.52600000       5.28600000      14.09600000       0.60000000       0.51094500      -0.43531536      -0.10921071       0.08263952
Ni      37.58933333       2.93666667      17.03266667       0.60000000       1.12491792      -2.58177471       2.62298790       3.20094569
Ni      38.76400000       5.28600000      19.38200000       0.60000000       0.14235664       0.01053346      -0.11315912       0.06506414
Ni      40.52600000       3.52400000      19.38200000       0.60000000       0.12588456      -0.09692585      -0.00791566      -0.09273841
Ni      40.52600000       5.28600000      17.62000000       0.60000000       0.23955392      -0.24249510      -0.11677852      -0.13520813
Ni      38.76400000       3.52400000      21.14400000       0.60000000       0.02201823      -0.06799825       0.04466120       0.10927008
Ni      38.76400000       5.28600000      22.90600000       0.60000000      -0.00393199      -0.10528557       0.07632900      -0.00968699
Ni      40.52600000       3.52400000      22.90600000       0.60000000       0.02868796      -0.10247893       0.00211243      -0.00209165
Ni      40.52600000       5.28600000      21.14400000       0.60000000       0.00257225       0.00106177       0.01190188       0.00709076
Ni      38.76400000       3.52400000      24.66800000       0.60000000      -0.00110024      -0.09579831       0.06673096      -0.01712376
Ni      38.76400000       5.28600000      26.43000000       0.60000000       0.00059475      -0.11810610       0.07090365      -0.04559590
Ni      40.52600000       3.52400000      26.43000000       0.60000000       0.25955831       0.15098895      -0.25321053       0.24057334
Ni      40.52600000       5.28600000      24.66800000       0.60000000       0.04159483      -0.09687873       0.00874223       0.00490023
Ni      38.76400000       3.52400000      28.19200000       0.60000000       0.00407550       0.04908860      -0.07646901       0.09667744
Ni      38.76400000       5.28600000      29.95400000       0.60000000       0.00476332       0.03942340      -0.06786292       0.08086673
Ni      40.52600000       3.52400000      29.95400000       0.60000000       8.27245320     -53.37852739      26.64621183     -26.64609266
Ni      40.52600000       5.28600000      28.19200000       0.60000000       0.26753302       0.14722422      -0.23530317       0.23543704
Ni      38.76400000       3.52400000      31.71600000       0.60000000      -0.10041565       0.65789375       0.00026621       0.01015860
Ni      38.76400000       5.28600000      33.47800000       0.60000000      -0.10001515       0.65298371       0.00436351      -0.00069643
Ni      40.52600000       3.52400000      33.47800000       0.60000000       8.28213634     -55.04401367      24.06443161     -24.06419325
Ni      40.52600000       5.28600000      31.71600000       0.60000000       8.27271465     -53.37772259      26.64609034     -26.64615193
Ni      38.76400000       3.52400000      35.24000000       0.60000000      -0.10894986       0.73580314       0.02687913      -0.02288511
Ni      38.76400000       5.28600000      37.00200000       0.60000000      -0.11059748       0.73717451       0.02217747      -0.01205876
Ni      40.52600000       3.52400000      37.00200000       0.60000000       8.28029594     -55.03965335      24.11815032     -24.14757348
Ni      40.52600000       5.28600000      35.24000000       0.60000000       8.28223973     -55.04373499      24.06421012     -24.06438276
Ni      38.76400000       3.52400000      38.76400000       0.60000000      -0.18071579       0.45348596       0.02179548       0.45348596
Ni      38.76400000       5.28600000      40.52600000       0.60000000       8.40027668     -24.76520029      24.21821904     -55.86988004
Ni      40.52600000       3.52400000      40.52600000       0.60000000       1.06894911      -0.14370563      -6.34824886      -0.14370563
Ni      40.52600000       5.28600000      38.76400000       0.60000000       8.40027668     -55.86988004      24.21821904     -24.76520029
Ni      37.58933333       6.46066667      -0.58733333       0.60000000       8.31450721      23.93963251     -24.12640341      55.04209256
Ni      37.58933333       8.22266667       1.17466667       0.60000000      -0.05584647      -0.10348040      -0.02471308      -0.71672742
Ni      39.35133333       6.46066667       1.17466667       0.60000000       0.38445741       0.37657787      -0.00950603      -0.60923132
Ni      39.35133333       8.22266667      -0.58733333       0.60000000       8.79684039      23.71424644     -24.05136357      55.78505643
Ni      37.58933333       6.46066667       2.93666667       0.60000000       0.03569254      -0.09438385       0.04690649       0.02439798
Ni      37.58360001       8.24041421       4.71371930       0.60000000       0.05142540      -0.00116642      -0.00146927      -0.00297934
Ni      39.35133333       6.46066667       4.69866667       0.60000000       0.48871154       0.39439201       0.03425863       0.04163943
Ni      39.35133333       8.22266667       2.93666667       0.60000000       0.48691107       0.44157564       0.00601975       0.02165919
Ni      37.58417453       6.48065251       6.48065251       0.60000000       0.05179470      -0.00402936      -0.00023808      -0.00023808
Ni      37.64930947       8.28750251       8.28750251       0.60000000       0.45169854       0.00987869       0.01035404       0.01035404
Ni      39.35133333       6.46066667       8.22266667       0.60000000       0.66161630       0.43414064       0.00337349       0.01797989
Ni      39.35133333       8.22266667       6.46066667       0.60000000       0.66161630       0.43414064       0.01797989       0.00337349
Ni      37.64840098       6.51814017      10.05314896       0.60000000       0.45348301      -0.00790462      -0.00831624      -0.00131424
Ni      38.68470959       8.78402504      12.33001527       0.60000000       0.41629501       0.00273079      -0.00273104       0.00319156
Ni      40.52600000       7.04800000      12.33400000       0.60000000       0.45656822      -0.29425185      -0.01900949       0.01847610
Ni      40.52600000       8.81000000      10.57200000       0.60000000       0.45476125      -0.30493166       0.00411686       0.00669421
Ni      38.67721789       6.97135531      14.09082658       0.60000000       0.43199520       0.00694014       0.00712293       0.01072698
Ni      38.76400000       8.81000000      15.85800000       0.60000000       0.02996164      -0.12927740       0.09110086      -0.03144667
Ni      40.52600000       7.04800000      15.85800000       0.60000000       0.12452905      -0.25180026      -0.12233026      -0.14477213
Ni      40.52600000       8.81000000      14.09600000       0.60000000       0.01702448      -0.27445151      -0.17210016      -0.11117166
Ni      38.76400000       7.04800000      17.62000000       0.60000000       0.13146725      -0.02268404       0.10089714      -0.10494059
Ni      38.76400000       8.81000000      19.38200000       0.60000000      -0.00144931      -0.09278630       0.13866545       0.06627114
Ni      40.52600000       7.04800000      19.38200000       0.60000000       0.00065603       0.01089333       0.01371670       0.01310308
Ni      40.52600000       8.81000000      17.62000000       0.60000000      -0.00120812       0.01049165       0.00921784       0.00672745
Ni      38.76400000       7.04800000      21.14400000       0.60000000      -0.00139985      -0.05916533       0.07650020       0.04759366
Ni      38.76400000       8.81000000      22.90600000       0.60000000      -0.00101979      -0.14125162       0.08954954      -0.01230089
Ni      40.52600000       7.04800000      22.90600000       0.60000000       0.00068868       0.00272953       0.00377531      -0.00412110
Ni      40.52600000       8.81000000      21.14400000       0.60000000      -0.00493944       0.00886647      -0.00057187      -0.00027271
Ni      38.76400000       7.04800000      24.66800000       0.60000000      -0.00290365      -0.14466248       0.08656265      -0.05378599
Ni      38.76400000       8.81000000      26.43000000       0.60000000      -0.00239580      -0.15509099       0.08678940      -0.07232080
Ni      40.52600000       7.04800000      26.43000000       0.60000000       0.04259266      -0.08259709      -0.00478327       0.00493366
Ni      40.52600000       8.81000000      24.66800000       0.60000000       0.00131968       0.00479993       0.00374963      -0.00373097
Ni      38.76400000       7.04800000      28.19200000       0.60000000       0.00114075      -0.12233263       0.07392663      -0.05974543
Ni      38.76400000       8.81000000      29.95400000       0.60000000       0.00115760      -0.12234451       0.07390714      -0.06561105
Ni      40.52600000       7.04800000      29.95400000       0.60000000       0.26766514       0.14774628      -0.23525248       0.23525397
Ni      40.52600000       8.81000000      28.19200000       0.60000000       0.04261735      -0.08245841      -0.00477618       0.00485223
Ni      38.76400000       7.04800000      31.71600000       0.60000000       0.00486696       0.03626658      -0.06762890       0.07183340
Ni      38.76400000       8.81000000      33.47800000       0.60000000       0.00483349       0.03882056      -0.07144109       0.07251932
Ni      40.52600000       7.04800000      33.47800000       0.60000000       8.27274142     -53.37764361      26.64616308     -26.64613645
Ni      40.52600000       8.81000000      31.71600000       0.60000000       0.26762423       0.14759518      -0.23520146       0.23527137
Ni      38.76400000       7.04800000      35.24000000       0.60000000      -0.10010121       0.65357108       0.00136193      -0.00059475
Ni      38.76400000       8.81000000      37.00200000       0.60000000      -0.10217808       0.65748545      -0.01000298       0.01628916
Ni      40.52600000       7.04800000      37.00200000       0.60000000       8.28624053     -55.06171218      24.06585258     -24.09551699
Ni      40.52600000       8.81000000      35.24000000       0.60000000       8.27266682     -53.37791225      26.64614577     -26.64626854
Ni      38.76400000       7.04800000      38.76400000       0.60000000      -0.18060128       0.44699166       0.02210960       0.44699166
Ni      38.76400000       8.81000000      40.52600000       0.60000000       8.40600602     -24.71316136      24.16605473     -55.89250782
Ni      40.52600000       7.04800000      40.52600000       0.60000000       1.06895558      -0.14383040      -6.34862155      -0.14383040
Ni      40.52600000       8.81000000      38.76400000       0.60000000       8.40600602     -55.89250782      24.16605473     -24.71316136
Ni      37.58933333       9.98466667      -0.58733333       0.60000000       8.55883200      24.53319239     -24.71907736      55.75068612
Ni      37.58933333      11.74666667       1.17466667       0.60000000       0.39633784      -0.03789169       0.01782633      -0.64172358
Ni      39.35133333       9.98466667       1.17466667       0.60000000       0.39424693       0.39527695      -0.01335813      -0.56950783
Ni      39.35133333      11.74666667      -0.58733333       0.60000000       9.03216289      24.31961602     -24.55414532      56.55324125
Ni      37.58933333       9.98466667       2.93666667       0.60000000       0.06141496      -0.05348033       0.12006083       0.09515938
Ni      37.63616939      11.80946619       4.73837182       0.60000000       0.43250814      -0.00172082      -0.00279909      -0.00744491
Ni      39.35133333       9.98466667       4.69866667       0.60000000       0.66212225       0.41895070       0.02081379      -0.01753524
Ni      39.35133333      11.74666667       2.93666667       0.60000000       0.66739223       0.45416037       0.02551154      -0.05710141
Ni      37.64840098      10.05314896       6.51814017       0.60000000       0.45348301      -0.00790462      -0.00131424      -0.00831624
Ni      38.68470959      12.33001527       8.78402504       0.60000000       0.41629501       0.00273079       0.00319156      -0.00273104
Ni      40.52600000      10.57200000       8.81000000       0.60000000       0.45476125      -0.30493165       0.00669421       0.00411686
Ni      40.52600000      12.33400000       7.04800000       0.60000000       0.45656822      -0.29425185       0.01847610      -0.01900949
Ni      38.67520264      10.55418829      10.55418829       0.60000000       0.41572300       0.01848030       0.01507346       0.01507346
Ni      38.76400000      12.33400000      12.33400000       0.60000000       0.01533307      -0.24066391       0.08344577       0.08344577
Ni      40.52600000      10.57200000      12.33400000       0.60000000       0.01374407      -0.24887069      -0.12820944      -0.13079898
Ni      40.52600000      12.33400000      10.57200000       0.60000000       0.01374407      -0.24887069      -0.13079898      -0.12820944
Ni      38.76400000      10.57200000      14.09600000       0.60000000       0.01656211      -0.21411888       0.09086427       0.08534205
Ni      38.76400000      12.33400000      15.85800000       0.60000000       0.00653731      -0.22596150       0.16388781       0.13817920
Ni      40.52600000      10.57200000      15.85800000       0.60000000      -0.00217241       0.01484322       0.00265137       0.00343758
Ni      40.52600000      12.33400000      14.09600000       0.60000000      -0.00139359       0.01768391       0.00241630       0.00281059
Ni      38.76400000      10.57200000      17.62000000       0.60000000       0.00376817      -0.13705688       0.18764624       0.09435680
Ni      38.76400000      12.33400000      19.38200000       0.60000000       0.00599812      -0.23394025       0.16983161       0.08498192
Ni      40.52600000      10.57200000      19.38200000       0.60000000      -0.00387217       0.01225167      -0.00046940       0.00004672
Ni      40.52600000      12.33400000      17.62000000       0.60000000      -0.00223727       0.01758779      -0.00018230       0.00044823
Ni      38.76400000      10.57200000      21.14400000       0.60000000       0.00075655      -0.17994071       0.13099167       0.03206673
Ni      38.76400000      12.33400000      22.90600000       0.60000000       0.00368976      -0.24958713       0.14793544       0.00314051
Ni      40.52600000      10.57200000      22.90600000       0.60000000      -0.00349664       0.01355761      -0.00027634       0.00001978
Ni      40.52600000      12.33400000      21.14400000       0.60000000      -0.00225314       0.01733685      -0.00017344       0.00020101
Ni      38.76400000      10.57200000      24.66800000       0.60000000      -0.00045518      -0.19694102       0.11011307      -0.05232563
Ni      38.76400000      12.33400000      26.43000000       0.60000000       0.00150273      -0.20442567       0.14330649      -0.04977523
Ni      40.52600000      10.57200000      26.43000000       0.60000000       0.00124745       0.00422740       0.00380891      -0.00356668
Ni      40.52600000      12.33400000      24.66800000       0.60000000      -0.00301063       0.01478151      -0.00004161       0.00037174
Ni      38.76400000      10.57200000      28.19200000       0.60000000      -0.00223149      -0.15099033       0.09484835      -0.06755905
Ni      38.76400000      12.33400000      29.95400000       0.60000000      -0.00239822      -0.15094006       0.09987174      -0.06974799
Ni      40.52600000      10.57200000      29.95400000       0.60000000       0.04253974      -0.08272878      -0.00476798       0.00489856
Ni      40.52600000      12.33400000      28.19200000       0.60000000       0.00133274       0.00446821       0.00372979      -0.00348446
Ni      38.76400000      10.57200000      31.71600000       0.60000000       0.00103252      -0.11959074       0.07214634      -0.06548929
Ni      38.76400000      12.33400000      33.47800000       0.60000000       0.00087847      -0.12142565       0.07460872      -0.06049951
Ni      40.52600000      10.57200000      33.47800000       0.60000000       0.26755030       0.14732804      -0.23521172       0.23525925
Ni      40.52600000      12.33400000      31.71600000       0.60000000       0.04243774      -0.08310621      -0.00481344       0.00488668
Ni      38.76400000      10.57200000      35.24000000       0.60000000       0.00457975       0.03872160      -0.07575261       0.07681420
Ni      38.76400000      12.33400000      37.00200000       0.60000000       0.00309656       0.03854216      -0.08472362       0.08878852
Ni      40.52600000      10.57200000      37.00200000       0.60000000       8.27658488     -53.39595344      26.64779675     -26.67743546
Ni      40.52600000      12.33400000      35.24000000       0.60000000       0.26753860       0.14720505      -0.23538193       0.23516741
Ni      38.76400000      10.57200000      38.76400000       0.60000000      -0.16420959       0.41246332      -0.05327447       0.41246332
Ni      38.76400000      12.33400000      40.52600000       0.60000000       8.39656984     -27.29449958      26.80048553     -54.16577546
Ni      40.52600000      10.57200000      40.52600000       0.60000000       1.07993514      -0.11373619      -6.44908196      -0.11373619
Ni      40.52600000      12.33400000      38.76400000       0.60000000       8.39656984     -54.16577546      26.80048553     -27.29449958
Ni      38.76400000      15.85800000       1.76200000       0.60000000       1.00192668       2.70816968      -3.40861073      -2.66964439
Ni      39.35133333      13.50866667       1.17466667       0.60000000       0.77646460       0.49478321       0.18713713      -0.58519574
Ni      40.52600000      15.85800000       0.00000000       0.60000000       0.22086419      -0.17007489      -0.28417611       0.16719302
Ni      37.58933333      13.50866667       2.93666667       0.60000000       0.53421285       0.13080731       0.54976719      -0.15612864
Ni      37.87590525      15.26433090       4.74573247       0.60000000       0.47824838      -0.00697437       0.00448777       0.00743675
Ni      40.52600000      14.09600000       5.28600000       0.60000000       0.51094500      -0.43531536       0.08263952      -0.10921071
Ni      40.52600000      15.85800000       3.52400000       0.60000000       0.45121294      -0.52569756      -0.02006201       0.04092290
Ni      38.67721789      14.09082658       6.97135531       0.60000000       0.43199520       0.00694014       0.01072698       0.00712293
Ni      38.76400000      15.85800000       8.81000000       0.60000000       0.02996164      -0.12927740      -0.03144667       0.09110086
Ni      40.52600000      14.09600000       8.81000000       0.60000000       0.01702448      -0.27445151      -0.11117166      -0.17210016
Ni      40.52600000      15.85800000       7.04800000       0.60000000       0.12452905      -0.25180026      -0.14477213      -0.12233026
Ni      38.76400000      14.09600000      10.57200000       0.60000000       0.01656211      -0.21411888       0.08534205       0.09086427
Ni      38.76400000      15.85800000      12.33400000       0.60000000       0.00653731      -0.22596149       0.13817920       0.16388781
Ni      40.52600000      14.09600000      12.33400000       0.60000000      -0.00139359       0.01768391       0.00281059       0.00241630
Ni      40.52600000      15.85800000      10.57200000       0.60000000      -0.00217241       0.01484322       0.00343758       0.00265137
Ni      38.76400000      14.09600000      14.09600000       0.60000000       0.00797141      -0.25449462       0.15829657       0.15829657
Ni      38.76400000      15.85800000      15.85800000       0.60000000       0.01276638      -0.32006841       0.15601859       0.15601859
Ni      40.52600000      14.09600000      15.85800000       0.60000000      -0.00117554       0.02089265       0.00005546       0.00031028
Ni      40.52600000      15.85800000      14.09600000       0.60000000      -0.00117554       0.02089265       0.00031028       0.00005546
Ni      38.76400000      14.09600000      17.62000000       0.60000000       0.01088140      -0.29312694       0.17010598       0.12655613
Ni      38.76400000      15.85800000      19.38200000       0.60000000       0.01629080      -0.35553346       0.18194555       0.11107211
Ni      40.52600000      14.09600000      19.38200000       0.60000000      -0.00073032       0.02218091      -0.00004681       0.00035922
Ni      40.52600000      15.85800000      17.62000000       0.60000000       0.00043988       0.02596050       0.00010906       0.00032819
Ni      38.76400000      14.09600000      21.14400000       0.60000000       0.01056130      -0.30431665       0.18237654       0.06253511
Ni      38.76400000      15.85800000      22.90600000       0.60000000       0.01670408      -0.35936535       0.21357321       0.05459699
Ni      40.52600000      14.09600000      22.90600000       0.60000000      -0.00108724       0.02083388      -0.00007046       0.00033484
Ni      40.52600000      15.85800000      21.14400000       0.60000000       0.00084697       0.02705814       0.00001445       0.00037688
Ni      38.76400000      14.09600000      24.66800000       0.60000000       0.00875659      -0.27780354       0.20008006      -0.00457301
Ni      38.76400000      15.85800000      26.43000000       0.60000000       0.01354267      -0.30821030       0.23156539      -0.00080424
Ni      40.52600000      14.09600000      26.43000000       0.60000000      -0.00237210       0.01683817      -0.00007868       0.00045348
Ni      40.52600000      15.85800000      24.66800000       0.60000000       0.00017590       0.02481729       0.00002125       0.00042104
Ni      38.76400000      14.09600000      28.19200000       0.60000000       0.00296951      -0.21438622       0.16576476      -0.05824836
Ni      38.76400000      15.85800000      29.95400000       0.60000000       0.00532073      -0.22319947       0.19140277      -0.05472054
Ni      40.52600000      14.09600000      29.95400000       0.60000000       0.00131742       0.00425762       0.00374514      -0.00339298
Ni      40.52600000      15.85800000      28.19200000       0.60000000      -0.00190356       0.01809974      -0.00007466       0.00066111
Ni      38.76400000      14.09600000      31.71600000       0.60000000      -0.00259269      -0.14751611       0.09839370      -0.06497056
Ni      38.76400000      15.85800000      33.47800000       0.60000000      -0.00146746      -0.13113159       0.08009586      -0.05819494
Ni      40.52600000      14.09600000      33.47800000       0.60000000       0.04252027      -0.08283020      -0.00486742       0.00467356
Ni      40.52600000      15.85800000      31.71600000       0.60000000       0.00129166       0.00369870       0.00381864      -0.00321229
Ni      38.76400000      14.09600000      35.24000000       0.60000000       0.00079742      -0.13162070       0.07976394      -0.06058623
Ni      38.76400000      15.85800000      37.00200000       0.60000000      -0.00044967      -0.12247534       0.05227884      -0.07263320
Ni      40.52600000      14.09600000      37.00200000       0.60000000       0.26374168       0.14567863      -0.23786823       0.23227933
Ni      40.52600000      15.85800000      35.24000000       0.60000000       0.04195605      -0.09563721      -0.00467393      -0.00895735
Ni      38.76400000      14.09600000      38.76400000       0.60000000       0.03373735      -0.02444207      -0.21109327      -0.02444207
Ni      38.76400000      15.85800000      40.52600000       0.60000000       0.13745961       0.00353408      -0.10412564       0.09668748
Ni      40.52600000      14.09600000      40.52600000       0.60000000       0.32589788      -0.00193194      -0.83748793      -0.00193194
Ni      40.52600000      15.85800000      38.76400000       0.60000000       0.13745961       0.09668748      -0.10412564       0.00353408
Ni      38.76400000      17.62000000       0.00000000       0.60000000       0.14415963      -0.13679715       0.08302173       0.11641926
Ni      38.76400000      19.38200000       1.76200000       0.60000000       0.17929159      -0.19736475      -0.35991594       0.20669301
Ni      40.52600000      17.62000000       1.76200000       0.60000000       0.14288913      -0.12017389       0.08296669       0.14017574
Ni      40.52600000      19.38200000       0.00000000       0.60000000      -0.00071502       0.01309066       0.00854501      -0.01310428
Ni      37.58933333      17.03266667       2.93666667       0.60000000       1.12491792      -2.58177471       3.20094569       2.62298790
Ni      38.76400000      19.38200000       5.28600000       0.60000000       0.14235664       0.01053346       0.06506414      -0.11315912
Ni      40.52600000      17.62000000       5.28600000       0.60000000       0.23955392      -0.24249510      -0.13520813      -0.11677852
Ni      40.52600000      19.38200000       3.52400000       0.60000000       0.12588456      -0.09692585      -0.09273841      -0.00791566
Ni      38.76400000      17.62000000       7.04800000       0.60000000       0.13146725      -0.02268404      -0.10494059       0.10089714
Ni      38.76400000      19.38200000       8.81000000       0.60000000      -0.00144931      -0.09278630       0.06627114       0.13866545
Ni      40.52600000      17.62000000       8.81000000       0.60000000      -0.00120812       0.01049165       0.00672745       0.00921784
Ni      40.52600000      19.38200000       7.04800000       0.60000000       0.00065603       0.01089333       0.01310308       0.01371670
Ni      38.76400000      17.62000000      10.57200000       0.60000000       0.00376817      -0.13705688       0.09435680       0.18764624
Ni      38.76400000      19.38200000      12.33400000       0.60000000       0.00599812      -0.23394025       0.08498192       0.16983161
Ni      40.52600000      17.62000000      12.33400000       0.60000000      -0.00223727       0.01758779       0.00044823      -0.00018230
Ni      40.52600000      19.38200000      10.57200000       0.60000000      -0.00387217       0.01225167       0.00004672      -0.00046940
Ni      38.76400000      17.62000000      14.09600000       0.60000000       0.01088140      -0.29312694       0.12655613       0.17010598
Ni      38.76400000      19.38200000      15.85800000       0.60000000       0.01629080      -0.35553346       0.11107211       0.18194555
Ni      40.52600000      17.62000000      15.85800000       0.60000000       0.00043988       0.02596050       0.00032819       0.00010906
Ni      40.52600000      19.38200000      14.09600000       0.60000000      -0.00073032       0.02218091       0.00035922      -0.00004681
Ni      38.76400000      17.62000000      17.62000000       0.60000000       0.01820092      -0.38104366       0.15041916       0.15041916
Ni      38.76400000      19.38200000      19.38200000       0.60000000       0.02338281      -0.45196520       0.13960227       0.13960227
Ni      40.52600000      17.62000000      19.38200000       0.60000000       0.00204969       0.03087418       0.00018506       0.00033474
Ni      40.52600000      19.38200000      17.62000000       0.60000000       0.00204969       0.03087418       0.00033474       0.00018506
Ni      38.76400000      17.62000000      21.14400000       0.60000000       0.02184391      -0.42396154       0.18598234       0.09894499
Ni      38.76400000      19.38200000      22.90600000       0.60000000       0.02773413      -0.49164340       0.18248637       0.09331916
Ni      40.52600000      17.62000000      22.90600000       0.60000000       0.00238902       0.03172524       0.00015470       0.00044269
Ni      40.52600000      19.38200000      21.14400000       0.60000000       0.00357911       0.03533991       0.00029188       0.00036167
Ni      38.76400000      17.62000000      24.66800000       0.60000000       0.02324432      -0.41462032       0.23397471       0.06456996
Ni      38.76400000      19.38200000      26.43000000       0.60000000       0.03078222      -0.46852531       0.24161708       0.08195548
Ni      40.52600000      17.62000000      26.43000000       0.60000000       0.00153482       0.02907735       0.00001648       0.00061412
Ni      40.52600000      19.38200000      24.66800000       0.60000000       0.00384607       0.03595603       0.00031319       0.00048179
Ni      38.76400000      17.62000000      28.19200000       0.60000000       0.02092040      -0.33224711       0.26743851       0.01997199
Ni      38.76400000      19.38200000      29.95400000       0.60000000       0.03589743      -0.42228715       0.31632598       0.11571133
Ni      40.52600000      17.62000000      29.95400000       0.60000000      -0.00085175       0.02100251      -0.00055311       0.00034745
Ni      40.52600000      19.38200000      28.19200000       0.60000000       0.00326602       0.03427706      -0.00005823       0.00090701
Ni      38.76400000      17.62000000      31.71600000       0.60000000       0.01696700      -0.25574844       0.24382479      -0.04514341
Ni      38.76400000      19.38200000      33.47800000       0.60000000       0.05625966      -0.21990440       0.27485117      -0.00315877
Ni      40.52600000      17.62000000      33.47800000       0.60000000       0.00144745       0.00198328       0.00404428      -0.00292602
Ni      40.52600000      19.38200000      31.71600000       0.60000000       0.00290519       0.03375587      -0.00120282       0.00065365
Ni      38.76400000      17.62000000      35.24000000       0.60000000       0.00176912      -0.12469858       0.08196537      -0.05297511
Ni      38.76400000      19.38200000      37.00200000       0.60000000       0.02654467      -0.14429966      -0.05277536      -0.07785617
Ni      40.52600000      17.62000000      37.00200000       0.60000000       0.02947313      -0.09996515       0.00188937      -0.00176968
Ni      40.52600000      19.38200000      35.24000000       0.60000000       0.00616458       0.00725821      -0.00625843      -0.00964054
Ni      38.76400000      17.62000000      38.76400000       0.60000000      -0.00509488      -0.05743475      -0.00121806      -0.05743475
Ni      38.76400000      19.38200000      40.52600000       0.60000000       0.00044768       0.01056688      -0.00469270      -0.00232774
Ni      40.52600000      17.62000000      40.52600000       0.60000000       0.00261074       0.00147990       0.01790244       0.00147990
Ni      40.52600000      19.38200000      38.76400000       0.60000000       0.00044768      -0.00232774      -0.00469270       0.01056688
Ni      38.76400000      21.14400000       0.00000000       0.60000000       0.00100269       0.01088686       0.00533542       0.00331443
Ni      38.76400000      22.90600000       1.76200000       0.60000000      -0.00569065      -0.03875441      -0.00038658       0.03837193
Ni      40.52600000      21.14400000       1.76200000       0.60000000       0.00102079      -0.00342423       0.00514650      -0.01082412
Ni      40.52600000      22.90600000       0.00000000       0.60000000       0.00195873       0.00756092      -0.00191096       0.00256541
Ni      38.76400000      21.14400000       3.52400000       0.60000000       0.02201823      -0.06799826       0.10927008       0.04466120
Ni      38.76400000      22.90600000       5.28600000       0.60000000      -0.00393199      -0.10528557      -0.00968699       0.07632900
Ni      40.52600000      21.14400000       5.28600000       0.60000000       0.00257225       0.00106177       0.00709076       0.01190188
Ni      40.52600000      22.90600000       3.52400000       0.60000000       0.02868796      -0.10247893      -0.00209165       0.00211243
Ni      38.76400000      21.14400000       7.04800000       0.60000000      -0.00139985      -0.05916533       0.04759366       0.07650020
Ni      38.76400000      22.90600000       8.81000000       0.60000000      -0.00101979      -0.14125162      -0.01230089       0.08954954
Ni      40.52600000      21.14400000       8.81000000       0.60000000      -0.00493944       0.00886647      -0.00027271      -0.00057187
Ni      40.52600000      22.90600000       7.04800000       0.60000000       0.00068868       0.00272953      -0.00412110       0.00377531
Ni      38.76400000      21.14400000      10.57200000       0.60000000       0.00075655      -0.17994071       0.03206673       0.13099167
Ni      38.76400000      22.90600000      12.33400000       0.60000000       0.00368976      -0.24958713       0.00314051       0.14793544
Ni      40.52600000      21.14400000      12.33400000       0.60000000      -0.00225314       0.01733685       0.00020101      -0.00017344
Ni      40.52600000      22.90600000      10.57200000       0.60000000      -0.00349664       0.01355761       0.00001978      -0.00027634
Ni      38.76400000      21.14400000      14.09600000       0.60000000       0.01056130      -0.30431665       0.06253511       0.18237654
Ni      38.76400000      22.90600000      15.85800000       0.60000000       0.01670408      -0.35936536       0.05459699       0.21357321
Ni      40.52600000      21.14400000      15.85800000       0.60000000       0.00084697       0.02705814       0.00037688       0.00001445
Ni      40.52600000      22.90600000      14.09600000       0.60000000      -0.00108724       0.02083388       0.00033484      -0.00007046
Ni      38.76400000      21.14400000      17.62000000       0.60000000       0.02184391      -0.42396154       0.09894499       0.18598234
Ni      38.76400000      22.90600000      19.38200000       0.60000000       0.02773413      -0.49164340       0.09331916       0.18248637
Ni      40.52600000      21.14400000      19.38200000       0.60000000       0.00357911       0.03533991       0.00036167       0.00029188
Ni      40.52600000      22.90600000      17.62000000       0.60000000       0.00238902       0.03172524       0.00044269       0.00015470
Ni      38.76400000      21.14400000      21.14400000       0.60000000       0.02893011      -0.52138709       0.12956070       0.12956070
Ni      38.76400000      22.90600000      22.90600000       0.60000000       0.03420861      -0.58281827       0.11884197       0.11884197
Ni      40.52600000      21.14400000      22.90600000       0.60000000       0.00497144       0.03924638       0.00038725       0.00042291
Ni      40.52600000      22.90600000      21.14400000       0.60000000       0.00497144       0.03924638       0.00042291       0.00038725
Ni      38.76400000      21.14400000      24.66800000       0.60000000       0.03378614      -0.55203376       0.17441650       0.09334465
Ni      38.76400000      22.90600000      26.43000000       0.60000000       0.03671831      -0.59954983       0.14813537       0.09016436
Ni      40.52600000      21.14400000      26.43000000       0.60000000       0.00529022       0.04020301       0.00049563       0.00055687
Ni      40.52600000      22.90600000      24.66800000       0.60000000       0.00606714       0.04227199       0.00053860       0.00049844
Ni      38.76400000      21.14400000      28.19200000       0.60000000       0.03772980      -0.52992909       0.22335361       0.09833606
Ni      38.76400000      22.90600000      29.95400000       0.60000000       0.04515778      -0.55652502       0.14913310       0.12028688
Ni      40.52600000      21.14400000      29.95400000       0.60000000       0.00535959       0.03898597       0.00074084       0.00232081
Ni      40.52600000      22.90600000      28.19200000       0.60000000       0.00584668       0.04180057       0.00100671       0.00096781
Ni      38.76400000      21.14400000      31.71600000       0.60000000       0.06896736      -0.49130526       0.27649563       0.17188939
Ni      38.76400000      22.90600000      33.47800000       0.60000000       0.42427051      -0.38696755       0.02756394       0.08571358
Ni      40.52600000      21.14400000      33.47800000       0.60000000       0.01836858       0.05863744      -0.00811101      -0.01260686
Ni      40.52600000      22.90600000      31.71600000       0.60000000       0.01734692       0.04148226      -0.00586405      -0.00856074
Ni      38.76400000      21.14400000      35.24000000       0.60000000       0.28496639      -0.17038633       0.12732775       0.05616864
Ni      40.52600000      21.14400000      37.00200000       0.60000000       0.12022530      -0.12044741       0.11352004       0.02724393
Ni      40.52600000      22.90600000      35.24000000       0.60000000       0.27835527      -0.11160757       0.11104836       0.13141873
Ni      38.76400000      21.14400000      38.76400000       0.60000000       0.16795073      -0.08776825       0.09993858      -0.08776825
Ni      38.76400000      22.90600000      40.52600000       0.60000000       0.21025446      -0.16825673       0.02339315      -0.31434429
Ni      40.52600000      21.14400000      40.52600000       0.60000000      -0.00026722       0.01087641      -0.01029451       0.01087641
Ni      40.52600000      22.90600000      38.76400000       0.60000000       0.21025446      -0.31434429       0.02339315      -0.16825673
Ni      38.76400000      24.66800000       0.00000000       0.60000000       0.15306335       0.10683922       0.18381297      -0.00720231
Ni      38.76400000      26.43000000       1.76200000       0.60000000       0.03389372       0.08764642       0.11973408       0.02642849
Ni      40.52600000      24.66800000       1.76200000       0.60000000       0.11022859       0.13669257       0.25165846      -0.14842476
Ni      40.52600000      26.43000000       0.00000000       0.60000000       8.44746821     -51.45214368     -25.37678352      26.00007438
Ni      38.76400000      24.66800000       3.52400000       0.60000000      -0.00110024      -0.09579831      -0.01712376       0.06673096
Ni      38.76400000      26.43000000       5.28600000       0.60000000       0.00059475      -0.11810610      -0.04559590       0.07090365
Ni      40.52600000      24.66800000       5.28600000       0.60000000       0.04159483      -0.09687873       0.00490023       0.00874223
Ni      40.52600000      26.43000000       3.52400000       0.60000000       0.25955831       0.15098895       0.24057334      -0.25321053
Ni      38.76400000      24.66800000       7.04800000       0.60000000      -0.00290365      -0.14466248      -0.05378599       0.08656265
Ni      38.76400000      26.43000000       8.81000000       0.60000000      -0.00239580      -0.15509099      -0.07232080       0.08678940
Ni      40.52600000      24.66800000       8.81000000       0.60000000       0.00131968       0.00479993      -0.00373097       0.00374963
Ni      40.52600000      26.43000000       7.04800000       0.60000000       0.04259266      -0.08259709       0.00493366      -0.00478327
Ni      38.76400000      24.66800000      10.57200000       0.60000000      -0.00045518      -0.19694102      -0.05232563       0.11011307
Ni      38.76400000      26.43000000      12.33400000       0.60000000       0.00150273      -0.20442567      -0.04977523       0.14330649
Ni      40.52600000      24.66800000      12.33400000       0.60000000      -0.00301063       0.01478151       0.00037174      -0.00004161
Ni      40.52600000      26.43000000      10.57200000       0.60000000       0.00124745       0.00422740      -0.00356668       0.00380891
Ni      38.76400000      24.66800000      14.09600000       0.60000000       0.00875659      -0.27780354      -0.00457301       0.20008006
Ni      38.76400000      26.43000000      15.85800000       0.60000000       0.01354267      -0.30821030      -0.00080424       0.23156539
Ni      40.52600000      24.66800000      15.85800000       0.60000000       0.00017590       0.02481729       0.00042104       0.00002125
Ni      40.52600000      26.43000000      14.09600000       0.60000000      -0.00237210       0.01683817       0.00045348      -0.00007868
Ni      38.76400000      24.66800000      17.62000000       0.60000000       0.02324432      -0.41462032       0.06456996       0.23397471
Ni      38.76400000      26.43000000      19.38200000       0.60000000       0.03078222      -0.46852531       0.08195548       0.24161708
Ni      40.52600000      24.66800000      19.38200000       0.60000000       0.00384607       0.03595603       0.00048179       0.00031319
Ni      40.52600000      26.43000000      17.62000000       0.60000000       0.00153482       0.02907735       0.00061412       0.00001648
Ni      38.76400000      24.66800000      21.14400000       0.60000000       0.03378614      -0.55203376       0.09334465       0.17441650
Ni      38.76400000      26.43000000      22.90600000       0.60000000       0.03671831      -0.59954983       0.09016436       0.14813537
Ni      40.52600000      24.66800000      22.90600000       0.60000000       0.00606714       0.04227199       0.00049844       0.00053860
Ni      40.52600000      26.43000000      21.14400000       0.60000000       0.00529022       0.04020301       0.00055687       0.00049563
Ni      38.76400000      24.66800000      24.66800000       0.60000000       0.03625301      -0.62452377       0.10385413       0.10385413
Ni      38.76400000      26.43000000      26.43000000       0.60000000       0.03724747      -0.58188288       0.06970435       0.06970435
Ni      40.52600000      24.66800000      26.43000000       0.60000000       0.00600094       0.04214885       0.00099967       0.00097532
Ni      40.52600000      26.43000000      24.66800000       0.60000000       0.00600094       0.04214885       0.00097532       0.00099967
Ni      38.76400000      24.66800000      28.19200000       0.60000000       0.03916780      -0.57608171       0.08953947       0.08766973
Ni      38.76400000      26.43000000      29.95400000       0.60000000       0.44067445      -0.35085633       0.01395760       0.03983872
Ni      40.52600000      24.66800000      29.95400000       0.60000000       0.01610070       0.03623555      -0.00714398      -0.00820233
Ni      40.52600000      26.43000000      28.19200000       0.60000000       0.01548254       0.03369762      -0.00798314      -0.00835667
Ni      38.76400000      24.66800000      31.71600000       0.60000000       0.43401792      -0.36333243       0.02058577       0.06504670
Ni      40.52600000      24.66800000      33.47800000       0.60000000       0.29138061      -0.08840086       0.10082271       0.10527029
Ni      40.52600000      26.43000000      31.71600000       0.60000000       0.29595765      -0.07179437       0.09278751       0.09645774
Ni      37.64685808      24.94317741      35.88733588       0.60000000       0.72606959       0.00327292       0.00356091       0.00331515
Ni      40.52600000      24.66800000      37.00200000       0.60000000       0.59645463      -0.55288787      -0.06239013       0.10056881
Ni      40.52600000      26.43000000      35.24000000       0.60000000       0.67032334      -0.41179454      -0.02706601      -0.01104687
Ni      37.97810992      23.39136972      37.97810992       0.60000000       0.77431059       0.00051521       0.00173995       0.00051521
Ni      40.52600000      24.66800000      40.52600000       0.60000000       0.25584758      -0.06202660       0.70261328      -0.06202660
Ni      38.76400000      28.19200000       0.00000000       0.60000000       0.40197416       0.54942762      -0.01185055      -0.36699491
Ni      38.76400000      29.95400000       1.76200000       0.60000000      -0.05759258       0.65591379       0.03422435       0.12082976
Ni      40.52600000      28.19200000       1.76200000       0.60000000       8.30203875     -53.35763315     -26.68512518      26.75868129
Ni      40.52600000      29.95400000       0.00000000       0.60000000       8.76398964     -53.19246700     -22.95736453      23.53428854
Ni      38.76400000      28.19200000       3.52400000       0.60000000       0.00407550       0.04908860       0.09667744      -0.07646901
Ni      38.76400000      29.95400000       5.28600000       0.60000000       0.00476332       0.03942340       0.08086673      -0.06786292
Ni      40.52600000      28.19200000       5.28600000       0.60000000       0.26753302       0.14722422       0.23543704      -0.23530317
Ni      40.52600000      29.95400000       3.52400000       0.60000000       8.27245320     -53.37852739     -26.64609266      26.64621183
Ni      38.76400000      28.19200000       7.04800000       0.60000000       0.00114075      -0.12233263      -0.05974543       0.07392663
Ni      38.76400000      29.95400000       8.81000000       0.60000000       0.00115760      -0.12234451      -0.06561105       0.07390714
Ni      40.52600000      28.19200000       8.81000000       0.60000000       0.04261735      -0.08245841       0.00485223      -0.00477618
Ni      40.52600000      29.95400000       7.04800000       0.60000000       0.26766514       0.14774628       0.23525397      -0.23525248
Ni      38.76400000      28.19200000      10.57200000       0.60000000      -0.00223149      -0.15099033      -0.06755905       0.09484835
Ni      38.76400000      29.95400000      12.33400000       0.60000000      -0.00239822      -0.15094006      -0.06974799       0.09987174
Ni      40.52600000      28.19200000      12.33400000       0.60000000       0.00133274       0.00446821      -0.00348446       0.00372979
Ni      40.52600000      29.95400000      10.57200000       0.60000000       0.04253974      -0.08272878       0.00489856      -0.00476798
Ni      38.76400000      28.19200000      14.09600000       0.60000000       0.00296951      -0.21438622      -0.05824836       0.16576476
Ni      38.76400000      29.95400000      15.85800000       0.60000000       0.00532073      -0.22319947      -0.05472054       0.19140277
Ni      40.52600000      28.19200000      15.85800000       0.60000000      -0.00190356       0.01809974       0.00066111      -0.00007466
Ni      40.52600000      29.95400000      14.09600000       0.60000000       0.00131742       0.00425762      -0.00339298       0.00374514
Ni      38.76400000      28.19200000      17.62000000       0.60000000       0.02092040      -0.33224711       0.01997199       0.26743851
Ni      38.76400000      29.95400000      19.38200000       0.60000000       0.03589743      -0.42228715       0.11571133       0.31632598
Ni      40.52600000      28.19200000      19.38200000       0.60000000       0.00326602       0.03427706       0.00090701      -0.00005823
Ni      40.52600000      29.95400000      17.62000000       0.60000000      -0.00085175       0.02100251       0.00034745      -0.00055311
Ni      38.76400000      28.19200000      21.14400000       0.60000000       0.03772980      -0.52992909       0.09833606       0.22335361
Ni      38.76400000      29.95400000      22.90600000       0.60000000       0.04515778      -0.55652502       0.12028688       0.14913310
Ni      40.52600000      28.19200000      22.90600000       0.60000000       0.00584668       0.04180057       0.00096781       0.00100671
Ni      40.52600000      29.95400000      21.14400000       0.60000000       0.00535959       0.03898597       0.00232081       0.00074084
Ni      38.76400000      28.19200000      24.66800000       0.60000000       0.03916780      -0.57608171       0.08766973       0.08953947
Ni      38.76400000      29.95400000      26.43000000       0.60000000       0.44067445      -0.35085633       0.03983872       0.01395760
Ni      40.52600000      28.19200000      26.43000000       0.60000000       0.01548254       0.03369762      -0.00835667      -0.00798314
Ni      40.52600000      29.95400000      24.66800000       0.60000000       0.01610070       0.03623555      -0.00820233      -0.00714398
Ni      38.76400000      28.19200000      28.19200000       0.60000000       0.44309628      -0.34716765       0.02043027       0.02043027
Ni      40.52600000      28.19200000      29.95400000       0.60000000       0.29832900      -0.06284543       0.08974355       0.09109500
Ni      40.52600000      29.95400000      28.19200000       0.60000000       0.29832900      -0.06284543       0.09109500       0.08974355
Ni      37.45403966      28.53546138      32.17037432       0.60000000       0.72713532       0.00533736       0.00241533       0.00314497
Ni      40.52600000      28.19200000      33.47800000       0.60000000       0.68804265      -0.34824229      -0.02021060      -0.00903154
Ni      40.52600000      29.95400000      31.71600000       0.60000000       0.69601988      -0.31956010      -0.01354442      -0.00988529
Ni      37.53013386      26.73069021      34.01346354       0.60000000       0.71416718       0.00441338       0.00321000       0.00244624
Ni      37.54172421      28.62439756      35.76183037       0.60000000       0.36384191       0.00265802       0.00156490       0.00193418
Ni      37.57963453      26.88231162      37.57963453       0.60000000       0.65586160       0.00192795      -0.00026372       0.00192795
Ni      37.58933333      28.77933333      39.35133333       0.60000000       0.72603838      -0.00193609      -0.20832786       0.11355306
Ni      39.35133333      27.01733333      39.35133333       0.60000000       1.12388594       0.41764846      -0.06697714       0.41764846
Ni      39.35133333      28.77933333      37.58933333       0.60000000       0.72603838       0.11355306      -0.20832786      -0.00193609
Ni      38.76400000      31.71600000       0.00000000       0.60000000       0.39859519       0.58286231      -0.02934647      -0.31657915
Ni      38.76400000      33.47800000       1.76200000       0.60000000      -0.06580341       0.72645547      -0.00341832       0.15246236
Ni      40.52600000      31.71600000       1.76200000       0.60000000       8.31646213     -55.02926761     -24.07704443      24.19197322
Ni      40.52600000      33.47800000       0.00000000       0.60000000       8.75834145     -53.16856323     -23.00862442      23.58672723
Ni      38.76400000      31.71600000       3.52400000       0.60000000      -0.10041565       0.65789375       0.01015860       0.00026621
Ni      38.76400000      33.47800000       5.28600000       0.60000000      -0.10001515       0.65298371      -0.00069643       0.00436351
Ni      40.52600000      31.71600000       5.28600000       0.60000000       8.27271465     -53.37772259     -26.64615193      26.64609034
Ni      40.52600000      33.47800000       3.52400000       0.60000000       8.28213634     -55.04401367     -24.06419325      24.06443161
Ni      38.76400000      31.71600000       7.04800000       0.60000000       0.00486696       0.03626658       0.07183340      -0.06762890
Ni      38.76400000      33.47800000       8.81000000       0.60000000       0.00483349       0.03882056       0.07251932      -0.07144109
Ni      40.52600000      31.71600000       8.81000000       0.60000000       0.26762423       0.14759518       0.23527137      -0.23520146
Ni      40.52600000      33.47800000       7.04800000       0.60000000       8.27274142     -53.37764361     -26.64613645      26.64616308
Ni      38.76400000      31.71600000      10.57200000       0.60000000       0.00103252      -0.11959074      -0.06548929       0.07214634
Ni      38.76400000      33.47800000      12.33400000       0.60000000       0.00087847      -0.12142565      -0.06049951       0.07460872
Ni      40.52600000      31.71600000      12.33400000       0.60000000       0.04243774      -0.08310621       0.00488668      -0.00481344
Ni      40.52600000      33.47800000      10.57200000       0.60000000       0.26755030       0.14732804       0.23525925      -0.23521172
Ni      38.76400000      31.71600000      14.09600000       0.60000000      -0.00259269      -0.14751611      -0.06497056       0.09839370
Ni      38.76400000      33.47800000      15.85800000       0.60000000      -0.00146746      -0.13113159      -0.05819494       0.08009586
Ni      40.52600000      31.71600000      15.85800000       0.60000000       0.00129166       0.00369870      -0.00321229       0.00381864
Ni      40.52600000      33.47800000      14.09600000       0.60000000       0.04252027      -0.08283020       0.00467356      -0.00486742
Ni      38.76400000      31.71600000      17.62000000       0.60000000       0.01696700      -0.25574844      -0.04514341       0.24382479
Ni      38.76400000      33.47800000      19.38200000       0.60000000       0.05625966      -0.21990440      -0.00315877       0.27485117
Ni      40.52600000      31.71600000      19.38200000       0.60000000       0.00290519       0.03375587       0.00065365      -0.00120282
Ni      40.52600000      33.47800000      17.62000000       0.60000000       0.00144745       0.00198328      -0.00292602       0.00404428
Ni      38.76400000      31.71600000      21.14400000       0.60000000       0.06896736      -0.49130526       0.17188939       0.27649563
Ni      38.76400000      33.47800000      22.90600000       0.60000000       0.42427051      -0.38696755       0.08571358       0.02756394
Ni      40.52600000      31.71600000      22.90600000       0.60000000       0.01734692       0.04148226      -0.00856074      -0.00586405
Ni      40.52600000      33.47800000      21.14400000       0.60000000       0.01836858       0.05863744      -0.01260686      -0.00811101
Ni      38.76400000      31.71600000      24.66800000       0.60000000       0.43401792      -0.36333243       0.06504670       0.02058577
Ni      40.52600000      31.71600000      26.43000000       0.60000000       0.29595765      -0.07179437       0.09645774       0.09278751
Ni      40.52600000      33.47800000      24.66800000       0.60000000       0.29138061      -0.08840086       0.10527029       0.10082271
Ni      37.45403966      32.17037432      28.53546138       0.60000000       0.72713532       0.00533736       0.00314497       0.00241533
Ni      40.52600000      31.71600000      29.95400000       0.60000000       0.69601988      -0.31956010      -0.00988529      -0.01354442
Ni      40.52600000      33.47800000      28.19200000       0.60000000       0.68804265      -0.34824229      -0.00903154      -0.02021060
Ni      37.42787739      30.34706069      30.34706069       0.60000000       0.73109691       0.00604705       0.00317086       0.00317086
Ni      37.52262148      32.17289336      32.17289336       0.60000000       0.37010988       0.00081202       0.00187552       0.00187552
Ni      37.52728692      30.39456870      33.96190405       0.60000000       0.36684996       0.00180995       0.00111990       0.00186122
Ni      37.51999822      32.22421659      35.75136973       0.60000000       0.07885065       0.00090918       0.00110855       0.00102448
Ni      39.35133333      30.54133333      35.82733333       0.60000000       0.69843107       0.07111957      -0.15970443      -0.12517468
Ni      39.35133333      32.30333333      34.06533333       0.60000000       0.70344702       0.05720628      -0.16179012      -0.15074990
Ni      37.53387265      30.48109320      37.53387265       0.60000000       0.11891841       0.00086568       0.00083718       0.00086568
Ni      37.58933333      32.30333333      39.35133333       0.60000000       0.54262026      -0.15509004      -0.13996891       0.15625365
Ni      39.35133333      30.54133333      39.35133333       0.60000000       0.84561810       0.25388484      -0.03451790       0.25388484
Ni      39.35133333      32.30333333      37.58933333       0.60000000       0.54262026       0.15625365      -0.13996891      -0.15509004
Ni      38.76400000      35.24000000       0.00000000       0.60000000       0.39848903       0.58291295      -0.02927502      -0.31628798
Ni      38.76400000      37.00200000       1.76200000       0.60000000      -0.06761914       0.73185923       0.00944915       0.14280554
Ni      40.52600000      35.24000000       1.76200000       0.60000000       8.31073604     -55.00651505     -24.12926449      24.24408600
Ni      40.52600000      37.00200000       0.00000000       0.60000000       8.76303948     -53.18224356     -23.04521312      23.58961818
Ni      38.76400000      35.24000000       3.52400000       0.60000000      -0.10894986       0.73580314      -0.02288511       0.02687913
Ni      38.76400000      37.00200000       5.28600000       0.60000000      -0.11059748       0.73717451      -0.01205876       0.02217747
Ni      40.52600000      35.24000000       5.28600000       0.60000000       8.28223973     -55.04373499     -24.06438276      24.06421012
Ni      40.52600000      37.00200000       3.52400000       0.60000000       8.28029594     -55.03965335     -24.14757348      24.11815032
Ni      38.76400000      35.24000000       7.04800000       0.60000000      -0.10010121       0.65357108      -0.00059475       0.00136193
Ni      38.76400000      37.00200000       8.81000000       0.60000000      -0.10217808       0.65748545       0.01628916      -0.01000298
Ni      40.52600000      35.24000000       8.81000000       0.60000000       8.27266682     -53.37791225     -26.64626854      26.64614577
Ni      40.52600000      37.00200000       7.04800000       0.60000000       8.28624053     -55.06171218     -24.09551699      24.06585258
Ni      38.76400000      35.24000000      10.57200000       0.60000000       0.00457975       0.03872160       0.07681420      -0.07575261
Ni      38.76400000      37.00200000      12.33400000       0.60000000       0.00309656       0.03854216       0.08878852      -0.08472362
Ni      40.52600000      35.24000000      12.33400000       0.60000000       0.26753860       0.14720505       0.23516741      -0.23538193
Ni      40.52600000      37.00200000      10.57200000       0.60000000       8.27658488     -53.39595344     -26.67743546      26.64779675
Ni      38.76400000      35.24000000      14.09600000       0.60000000       0.00079742      -0.13162070      -0.06058623       0.07976394
Ni      38.76400000      37.00200000      15.85800000       0.60000000      -0.00044967      -0.12247534      -0.07263320       0.05227884
Ni      40.52600000      35.24000000      15.85800000       0.60000000       0.04195605      -0.09563721      -0.00895735      -0.00467393
Ni      40.52600000      37.00200000      14.09600000       0.60000000       0.26374168       0.14567863       0.23227933      -0.23786823
Ni      38.76400000      35.24000000      17.62000000       0.60000000       0.00176912      -0.12469858      -0.05297511       0.08196537
Ni      38.76400000      37.00200000      19.38200000       0.60000000       0.02654467      -0.14429966      -0.07785617      -0.05277536
Ni      40.52600000      35.24000000      19.38200000       0.60000000       0.00616458       0.00725821      -0.00964054      -0.00625843
Ni      40.52600000      37.00200000      17.62000000       0.60000000       0.02947313      -0.09996515      -0.00176968       0.00188937
Ni      38.76400000      35.24000000      21.14400000       0.60000000       0.28496639      -0.17038633       0.05616864       0.12732775
Ni      40.52600000      35.24000000      22.90600000       0.60000000       0.27835527      -0.11160757       0.13141873       0.11104836
Ni      40.52600000      37.00200000      21.14400000       0.60000000       0.12022530      -0.12044741       0.02724393       0.11352004
Ni      37.64685808      35.88733588      24.94317741       0.60000000       0.72606959       0.00327292       0.00331515       0.00356091
Ni      40.52600000      35.24000000      26.43000000       0.60000000       0.67032334      -0.41179454      -0.01104687      -0.02706601
Ni      40.52600000      37.00200000      24.66800000       0.60000000       0.59645463      -0.55288787       0.10056881      -0.06239013
Ni      37.53013386      34.01346354      26.73069021       0.60000000       0.71416718       0.00441338       0.00244624       0.00321000
Ni      37.54172421      35.76183037      28.62439756       0.60000000       0.36384191       0.00265802       0.00193418       0.00156490
Ni      37.52728692      33.96190405      30.39456870       0.60000000       0.36684996       0.00180995       0.00186122       0.00111990
Ni      37.51999822      35.75136973      32.22421659       0.60000000       0.07885065       0.00090918       0.00102448       0.00110855
Ni      39.35133333      34.06533333      32.30333333       0.60000000       0.70344702       0.05720628      -0.15074990      -0.16179012
Ni      39.35133333      35.82733333      30.54133333       0.60000000       0.69843107       0.07111957      -0.12517468      -0.15970443
Ni      37.51680497      33.98171020      33.98171020       0.60000000       0.07873963       0.00045469       0.00108528       0.00108528
Ni      37.53237218      35.77075566      35.77075566       0.60000000       0.05679278       0.00081998       0.00094577       0.00094577
Ni      39.35133333      34.06533333      35.82733333       0.60000000       0.51330694       0.14096266      -0.16960432      -0.17242050
Ni      39.35133333      35.82733333      34.06533333       0.60000000       0.51330694       0.14096266      -0.17242050      -0.16960432
Ni      37.54124728      34.02280441      37.54124728       0.60000000       0.09077938       0.00052956       0.00048645       0.00052956
Ni      37.58933333      35.82733333      39.35133333       0.60000000       0.53572067      -0.11071874      -0.10087576       0.21723428
Ni      39.35133333      34.06533333      39.35133333       0.60000000       0.84180457       0.28840378       0.00394115       0.28840378
Ni      39.35133333      35.82733333      37.58933333       0.60000000       0.53572067       0.21723428      -0.10087576      -0.11071874
Ni      38.76400000      38.76400000       0.00000000       0.60000000       0.34004841       0.29039025       0.29039025      -0.14687710
Ni      38.76400000      40.52600000       1.76200000       0.60000000       8.43404425     -24.77066222     -55.85140582      24.34257467
Ni      40.52600000      38.76400000       1.76200000       0.60000000       8.43404425     -55.85140582     -24.77066222      24.34257467
Ni      40.52600000      40.52600000       0.00000000       0.60000000       1.28121316      -0.19701676      -0.19701676      -5.53123658
Ni      38.76400000      38.76400000       3.52400000       0.60000000      -0.18071579       0.45348596       0.45348596       0.02179548
Ni      38.76400000      40.52600000       5.28600000       0.60000000       8.40027668     -24.76520029     -55.86988004      24.21821904
Ni      40.52600000      38.76400000       5.28600000       0.60000000       8.40027668     -55.86988004     -24.76520029      24.21821904
Ni      40.52600000      40.52600000       3.52400000       0.60000000       1.06894911      -0.14370563      -0.14370563      -6.34824886
Ni      38.76400000      38.76400000       7.04800000       0.60000000      -0.18060128       0.44699166       0.44699166       0.02210960
Ni      38.76400000      40.52600000       8.81000000       0.60000000       8.40600602     -24.71316136     -55.89250782      24.16605473
Ni      40.52600000      38.76400000       8.81000000       0.60000000       8.40600602     -55.89250782     -24.71316136      24.16605473
Ni      40.52600000      40.52600000       7.04800000       0.60000000       1.06895558      -0.14383040      -0.14383040      -6.34862155
Ni      38.76400000      38.76400000      10.57200000       0.60000000      -0.16420959       0.41246332       0.41246332      -0.05327447
Ni      38.76400000      40.52600000      12.33400000       0.60000000       8.39656984     -27.29449958     -54.16577546      26.80048553
Ni      40.52600000      38.76400000      12.33400000       0.60000000       8.39656984     -54.16577546     -27.29449958      26.80048553
Ni      40.52600000      40.52600000      10.57200000       0.60000000       1.07993514      -0.11373619      -0.11373619      -6.44908196
Ni      38.76400000      38.76400000      14.09600000       0.60000000       0.03373735      -0.02444207      -0.02444207      -0.21109327
Ni      38.76400000      40.52600000      15.85800000       0.60000000       0.13745961       0.00353408       0.09668748      -0.10412564
Ni      40.52600000      38.76400000      15.85800000       0.60000000       0.13745961       0.09668748       0.00353408      -0.10412564
Ni      40.52600000      40.52600000      14.09600000       0.60000000       0.32589788      -0.00193194      -0.00193194      -0.83748793
Ni      38.76400000      38.76400000      17.62000000       0.60000000      -0.00509488      -0.05743475      -0.05743475      -0.00121806
Ni      38.76400000      40.52600000      19.38200000       0.60000000       0.00044768       0.01056688      -0.00232774      -0.00469270
Ni      40.52600000      38.76400000      19.38200000       0.60000000       0.00044768      -0.00232774       0.01056688      -0.00469270
Ni      40.52600000      40.52600000      17.62000000       0.60000000       0.00261074       0.00147990       0.00147990       0.01790244
Ni      38.76400000      38.76400000      21.14400000       0.60000000       0.16795073      -0.08776825      -0.08776825       0.09993858
Ni      38.76400000      40.52600000      22.90600000       0.60000000       0.21025446      -0.16825673      -0.31434429       0.02339315
Ni      40.52600000      38.76400000      22.90600000       0.60000000       0.21025446      -0.31434429      -0.16825673       0.02339315
Ni      40.52600000      40.52600000      21.14400000       0.60000000      -0.00026722       0.01087641       0.01087641      -0.01029451
Ni      37.97810992      37.97810992      23.39136972       0.60000000       0.77431059       0.00051521       0.00051521       0.00173995
Ni      40.52600000      40.52600000      24.66800000       0.60000000       0.25584758      -0.06202660      -0.06202660       0.70261328
Ni      37.57963453      37.57963453      26.88231162       0.60000000       0.65586160       0.00192795       0.00192795      -0.00026372
Ni      37.58933333      39.35133333      28.77933333       0.60000000       0.72603838      -0.00193609       0.11355306      -0.20832786
Ni      39.35133333      37.58933333      28.77933333       0.60000000       0.72603838       0.11355306      -0.00193609      -0.20832786
Ni      39.35133333      39.35133333      27.01733333       0.60000000       1.12388594       0.41764846       0.41764846      -0.06697714
Ni      37.53387265      37.53387265      30.48109320       0.60000000       0.11891841       0.00086568       0.00086568       0.00083718
Ni      37.58933333      39.35133333      32.30333333       0.60000000       0.54262026      -0.15509004       0.15625365      -0.13996891
Ni      39.35133333      37.58933333      32.30333333       0.60000000       0.54262026       0.15625365      -0.15509004      -0.13996891
Ni      39.35133333      39.35133333      30.54133333       0.60000000       0.84561810       0.25388484       0.25388484      -0.03451790
Ni      37.54124728      37.54124728      34.02280441       0.60000000       0.09077938       0.00052956       0.00052956       0.00048645
Ni      37.58933333      39.35133333      35.82733333       0.60000000       0.53572067      -0.11071874       0.21723428      -0.10087576
Ni      39.35133333      37.58933333      35.82733333       0.60000000       0.53572067       0.21723428      -0.11071874      -0.10087576
Ni      39.35133333      39.35133333      34.06533333       0.60000000       0.84180457       0.28840378       0.28840378       0.00394115
Ni      37.55920613      37.55920613      37.55920613       0.60000000       0.12386931       0.00057341       0.00057341       0.00057341
Ni      37.58933333      39.35133333      39.35133333       0.60000000       0.86891984      -0.00203347       0.26660767       0.26660767
Ni      39.35133333      37.58933333      39.35133333       0.60000000       0.86891984       0.26660767      -0.00203347       0.26660767
Ni      39.35133333      39.35133333      37.58933333       0.60000000       0.86891984       0.26660767       0.26660767      -0.00203347
