3955
Lattice="35.2 0.0 0.0 0.0 35.2 0.0 0.0 0.0 35.2" Properties=species:S:1:pos:R:3:initial_magmoms:R:1:momenta:R:3:forces:R:3:energies:R:1 energy=-22627.875 stress="0.020379692316055298 0.0003291958710178733 0.00028124949312768877 0.0003291958710178733 0.020106690004467964 0.00019603756663855165 0.00028124949312768877 0.00019603756663855165 0.020245587453246117" free_energy=-22627.875 pbc="T T T"
Ni      -0.02373302       0.03360635      -0.01338638       0.60000000      -1.48966467      -1.20994698       0.13473247      -0.00042091      -0.00023302      -0.00031922      -5.72994357
Ni      -0.02209788       1.79848967       1.75163545       0.60000000      -0.28059919      -0.81987436      -0.89340196      -0.00004402      -0.00022048      -0.00017316      -5.72996843
Ni       1.74087254       0.03504480       1.75183231       0.60000000      -0.51434090       0.24105379      -2.22573659      -0.00008605       0.00019010      -0.00030733      -5.72995478
Ni       1.74080558       1.79973692      -0.01182029       0.60000000      -1.24790469      -0.21581574       0.13324943      -0.00011403      -0.00000998      -0.00017015      -5.72995049
Ni      -0.02280045       0.03302237       3.51488300       0.60000000       0.50970798      -1.09788334       0.35824613      -0.00029874      -0.00062379      -0.00008739      -5.72997540
Ni      -0.01999863       1.79867726       5.27796780       0.60000000      -1.81421635      -1.20968265      -1.53316341      -0.00010731      -0.00052756       0.00017236      -5.73004740
Ni       1.74273055       0.03558737       5.27863581       0.60000000      -0.11235747       0.06504852      -1.18333281      -0.00043175      -0.00040438       0.00004825      -5.73000187
Ni       1.74392987       1.80143467       3.51732158       0.60000000       1.92937769      -1.95682518       0.43290688       0.00022610      -0.00017871      -0.00018813      -5.72992796
Ni      -0.02220487       0.03213712       7.03844678       0.60000000       0.13975821       0.34365551      -1.95404065      -0.00075830      -0.00074283       0.00015486      -5.73003036
Ni      -0.01921745       1.79863652       8.79873764       0.60000000       0.92267926       0.26651110       0.65960857       0.00001615      -0.00022809       0.00030822      -5.73006403
Ni       1.74411596       0.03482228       8.79973560       0.60000000      -0.81572673       0.54154018       0.28350662      -0.00023832      -0.00031977       0.00001011      -5.73003864
Ni       1.74664096       1.80254580       7.04149812       0.60000000       1.16474027      -0.39932906       0.39894035       0.00032087      -0.00021720       0.00000569      -5.72997373
Ni      -0.02239606       0.03113735      10.55653244       0.60000000      -2.17572332      -0.24578368      -2.21130687      -0.00012512      -0.00044641      -0.00010525      -5.73007607
Ni      -0.01997944       1.79831081      12.31454424       0.60000000      -1.07262920      -0.23107410      -0.75298517      -0.00069960      -0.00008466      -0.00049038      -5.73010272
Ni       1.74433539       0.03325114      12.31524552       0.60000000       0.12218547      -1.19084731      -0.52992626      -0.00041066      -0.00024029      -0.00031781      -5.73009938
Ni       1.74774612       1.80233388      10.55931931       0.60000000      -1.05416318       2.14220885      -0.60417904      -0.00057778       0.00018623      -0.00013398      -5.73001045
Ni      -0.02328144       0.03052989      14.07063100       0.60000000      -1.11355976      -0.18761465      -0.74040796      -0.00056900      -0.00039842      -0.00041190      -5.73015177
Ni      -0.02251784       1.79823633      15.82719788       0.60000000       0.21632520       1.02785645      -2.59180569      -0.00061042      -0.00029005      -0.00006932      -5.73017907
Ni       1.74321599       0.03161596      15.82747234       0.60000000      -1.48920827       1.35317921      -1.87856344      -0.00044584      -0.00059674      -0.00039673      -5.73017371
Ni       1.74639711       1.80112919      14.07229085       0.60000000      -1.14820525      -0.14137992       0.10853690      -0.00037560      -0.00100642      -0.00056559      -5.73014259
Ni      -0.02499158       0.03076703      17.58298076       0.60000000      -0.08027887       0.19702360       2.07354919      -0.00011345      -0.00038031       0.00002024      -5.73015916
Ni      -0.02591082       1.79889186      19.33896700       0.60000000      -0.44524374      -1.24291279      -1.44182832       0.00007172      -0.00045089       0.00014476      -5.73014134
Ni       1.74137689       0.03062330      19.33915051       0.60000000       1.45396871      -0.03471294       0.37888985      -0.00018613      -0.00030315       0.00010242      -5.73018324
Ni       1.74346455       1.79952882      17.58333827       0.60000000       0.08510828      -3.24981290       1.90126728      -0.00041342      -0.00058715      -0.00020345      -5.73021394
Ni      -0.02636743       0.03170914      21.09577760       0.60000000       0.42216095       0.10481537      -0.69612138      -0.00031534      -0.00005487      -0.00013803      -5.73012525
Ni      -0.02842265       1.79969935      22.85219472       0.60000000      -0.42720276      -1.15663403       0.97491733      -0.00045756      -0.00025771       0.00022823      -5.73011696
Ni       1.73991332       0.03069855      22.85271198       0.60000000      -0.06493894      -0.93350595      -2.58405509      -0.00001216      -0.00049555       0.00016165      -5.73013061
Ni       1.74002346       1.79853283      21.09527949       0.60000000      -1.02586221       0.45380139       0.81379830       0.00036224      -0.00025185       0.00010003      -5.73021245
Ni      -0.02686531       0.03299461      24.61106971       0.60000000       0.03609541      -1.68481542       0.17492551       0.00015115      -0.00041010       0.00035992      -5.73005408
Ni      -0.02907709       1.80011585      26.36960815       0.60000000       1.70930456      -0.41434030      -0.75642932      -0.00016553      -0.00075724       0.00036171      -5.73000759
Ni       1.73919858       0.03156929      26.37023314       0.60000000      -0.88620206      -0.07153065       0.84351164      -0.00024478      -0.00064988       0.00027824      -5.73000193
Ni       1.73784067       1.79845756      24.61057852       0.60000000       2.32829482      -0.82320455      -0.65696224      -0.00053338      -0.00101170       0.00047397      -5.73015016
Ni      -0.02613354       0.03387483      28.13135472       0.60000000      -0.63357036      -0.63299147      -2.01091092      -0.00025234      -0.00054051      -0.00002264      -5.72993535
Ni      -0.02746994       1.79954637      29.89325649       0.60000000       1.55554455      -0.32202638       1.19413676      -0.00073365      -0.00040282      -0.00036242      -5.72993362
Ni       1.73907537       0.03280476      29.89361138       0.60000000      -0.31077786      -1.17240246      -1.88183669      -0.00014518      -0.00102156      -0.00039401      -5.72995037
Ni       1.73717438       1.79849098      28.13135845       0.60000000       1.18586269       0.38625517      -1.00217615      -0.00042661      -0.00072791      -0.00014044      -5.73005497
Ni      -0.02492575       0.03393219      31.65732330       0.60000000      -0.04157352      -1.33935501      -0.48536169      -0.00040218      -0.00013851      -0.00069101      -5.72991794
Ni      -0.02480910       1.79865561      33.42193878       0.60000000      -1.25128614       1.24057596       0.50749879      -0.00070039       0.00006337      -0.00044096      -5.72995019
Ni       1.73962558       0.03396779      33.42198977       0.60000000       1.18404407       0.69522932      -0.47938670      -0.00007333      -0.00029861      -0.00055841      -5.72994107
Ni       1.73832840       1.79883753      31.65801910       0.60000000      -0.77529818      -0.68698755      -3.07305512      -0.00033961      -0.00063585      -0.00030024      -5.73001951
Ni      -0.02321769       3.56254809      -0.01259571       0.60000000       1.67025878      -2.21880193      -2.69409705      -0.00054591       0.00001598      -0.00022711      -5.72997665
Ni      -0.02070052       5.32600702       1.75348989       0.60000000      -0.76379301      -0.90979124       0.87837832      -0.00044126       0.00009969      -0.00043955      -5.73001528
Ni       1.74381917       3.56525741       1.75469694       0.60000000       1.28523441      -0.39029202       0.48269935      -0.00004760      -0.00017667      -0.00004925      -5.72992992
Ni       1.74215646       5.32701029      -0.00962906       0.60000000      -0.79415345      -0.40857394       2.01789776      -0.00035062       0.00012755      -0.00019802      -5.73002476
Ni      -0.01943830       3.56343149       3.51650531       0.60000000      -0.41887320      -0.31579145       0.63857159      -0.00003656      -0.00011309       0.00014941      -5.73002756
Ni      -0.01702215       5.32827758       5.28109165       0.60000000       0.19602793      -0.04617717       0.44739414       0.00038770       0.00017322       0.00054651      -5.73005980
Ni       1.74805350       3.56806661       5.28234109       0.60000000       0.73120177      -0.28285044      -1.39338716       0.00065306      -0.00017289       0.00002673      -5.72991520
Ni       1.74782104       5.33058391       3.52130496       0.60000000       1.12245655      -3.04311883       0.28760327       0.00013169      -0.00021696       0.00022495      -5.72991395
Ni      -0.01726136       3.56463507       7.04043163       0.60000000       0.57839790      -0.15402120      -0.47111033       0.00039086       0.00016488       0.00081377      -5.73006994
Ni      -0.01546062       5.33027993       8.80217899       0.60000000      -0.97235784       0.39711641      -0.84324961      -0.00013210       0.00029519       0.00072499      -5.73006421
Ni       1.75075396       3.56988054       8.80335973       0.60000000      -0.28272642      -1.07567792       0.36188536      -0.00006788       0.00054282       0.00040914      -5.72992605
Ni       1.75236513       5.33447133       7.04654633       0.60000000      -0.71769463       1.13727418      -0.48295322       0.00015017       0.00046696       0.00067886      -5.72987771
Ni      -0.01704221       3.56520541      10.55847349       0.60000000      -0.74564252       1.77869735       0.56567012      -0.00056855       0.00015229       0.00001918      -5.73007971
Ni      -0.01688113       5.33110481      12.31718681       0.60000000       2.39798712      -0.97192110       0.63724413       0.00026095      -0.00001917      -0.00023007      -5.73016816
Ni       1.75043556       3.57007104      12.31794355       0.60000000       1.05876602       0.89336832      -0.61778349      -0.00037400      -0.00049669      -0.00062105      -5.73005641
Ni       1.75393515       5.33680153      10.56407574       0.60000000      -0.39086908      -1.96894996      -0.43513457       0.00020856       0.00049908       0.00006273      -5.72993749
Ni      -0.01948279       3.56540621      14.07195673       0.60000000       1.24982616       1.07918929       1.38659332      -0.00024530      -0.00095967      -0.00038053      -5.73019171
Ni      -0.02068941       5.33112418      15.82806142       0.60000000       0.52146105       0.10570892       0.44603084       0.00043162      -0.00081719      -0.00008262      -5.73027062
Ni       1.74721506       3.56848440      15.82851046       0.60000000      -1.24044916       2.84910704       2.94214597       0.00036772      -0.00020000      -0.00021004      -5.73020893
Ni       1.75199238       5.33652379      14.07512709       0.60000000       1.26281587       0.06003805       0.23532927       0.00018223       0.00051313       0.00009183      -5.73011285
Ni      -0.02360932       3.56537157      17.58302966       0.60000000      -0.29180452       2.26556226       0.05950575      -0.00046290       0.00017360       0.00020372      -5.73021436
Ni      -0.02635086       5.33082367      19.33773197       0.60000000      -1.58786022       0.34440724       0.47920957      -0.00029906       0.00001294       0.00007870      -5.73031110
Ni       1.74276180       3.56663959      19.33882742       0.60000000      -0.25605304      -0.76541729       0.12707172      -0.00059960      -0.00038531      -0.00045013      -5.73025101
Ni       1.74704043       5.33436613      17.58375353       0.60000000       0.12591961      -0.94946302       0.51454554       0.00068936      -0.00012542      -0.00035095      -5.73022366
Ni      -0.02837501       3.56598180      21.09427847       0.60000000      -1.03512941       0.60110881       0.58762924      -0.00012786      -0.00063328       0.00032065      -5.73019558
Ni      -0.03199171       5.33047057      22.84925602       0.60000000      -0.19199816       0.10806080      -1.43691275       0.00060032      -0.00017142       0.00064534      -5.73029810
Ni       1.73813728       3.56521119      22.85159423       0.60000000       0.14000544       0.31868658      -0.45709262       0.00001543      -0.00076400       0.00002065      -5.73027742
Ni       1.74106041       5.33171282      21.09391994       0.60000000      -0.83784870      -0.07380747       0.94315588      -0.00077573      -0.00051093      -0.00082396      -5.73032260
Ni      -0.03137212       3.56583621      24.60873670       0.60000000      -2.30135009      -0.30751217       0.76162946      -0.00017038      -0.00017153       0.00039427      -5.73013908
Ni      -0.03382044       5.32904580      26.36641458       0.60000000       0.24646267       0.24251547      -0.08163485      -0.00031575      -0.00041327       0.00055787      -5.73014516
Ni       1.73573382       3.56402114      26.36956497       0.60000000      -0.07788085       0.72372829      -0.85219044       0.00003595      -0.00019631       0.00004741      -5.73020726
Ni       1.73581939       5.32895429      24.60860876       0.60000000       0.31973574      -2.59017183      -0.54803643       0.00045496       0.00019557       0.00013026      -5.73035115
Ni      -0.03078210       3.56489043      28.12938215       0.60000000       0.32952004      -2.44144365       0.36521061      -0.00100415      -0.00101984       0.00013550      -5.73001689
Ni      -0.03113777       5.32660002      29.89132736       0.60000000      -0.05691337       0.92442150      -0.13219822      -0.00083067       0.00045467      -0.00017568      -5.73005527
Ni       1.73644045       3.56329670      29.89393193       0.60000000      -0.70190713       0.46612056      -0.89512002      -0.00065444      -0.00067243      -0.00019660      -5.73011708
Ni       1.73473851       5.32699087      28.13017253       0.60000000      -0.74774108      -0.82960945       0.41223614      -0.00058314      -0.00043578      -0.00041944      -5.73023683
Ni      -0.02751512       3.56306975      31.65674778       0.60000000      -0.06696470      -0.10960062      -0.96797753      -0.00081886       0.00026360      -0.00033025      -5.72998595
Ni      -0.02595893       5.32519982      33.42196187       0.60000000       1.07999306       0.19904494       0.09391389      -0.00077065       0.00026194      -0.00051969      -5.73002428
Ni       1.73939812       3.56327072      33.42368661       0.60000000      -0.17173311       0.91273087      -1.28720398      -0.00032339       0.00027686      -0.00034202      -5.73004001
Ni       1.73722436       5.32572928      31.65840535       0.60000000       1.12858279       0.17391079       0.21059795      -0.00023951       0.00103385      -0.00093831      -5.73012865
Ni      -0.02344174       7.08665674      -0.01158818       0.60000000       2.37753132       0.10816882       1.01045299      -0.00075771       0.00029315      -0.00072196      -5.73004323
Ni      -0.02140621       8.84766952       1.75550808       0.60000000      -0.20309907       0.63744463       1.01408124      -0.00037563       0.00033497      -0.00026174      -5.73007339
Ni       1.74575015       7.09028041       1.75774539       0.60000000      -0.19658890      -3.40095662      -0.02446288      -0.00026564      -0.00000588       0.00027122      -5.72998768
Ni       1.74266832       8.84815636      -0.00819021       0.60000000      -0.24656920      -0.74936062       2.35225511      -0.00029340       0.00042659      -0.00012893      -5.73004544
Ni      -0.01860422       7.08911351       3.51969267       0.60000000       1.12760913       0.78071674      -0.80102158       0.00016316       0.00018679      -0.00026576      -5.73006260
Ni      -0.01784767       8.85141570       5.28530299       0.60000000       0.84082648      -1.29462838       0.71032018      -0.00013584       0.00038727       0.00050684      -5.73008245
Ni       1.75179792       7.09527609       5.28742872       0.60000000      -0.66802868       0.26239797       1.28482776       0.00005432       0.00009047       0.00065514      -5.72989404
Ni       1.74906425       8.85273774       3.52512461       0.60000000       0.75428796      -1.21371534       0.84122951       0.00021944       0.00019419       0.00043096      -5.72995353
Ni      -0.01571118       7.09246463       7.04490616       0.60000000       0.10551541      -0.87390146      -0.53497081      -0.00023215       0.00045219       0.00083684      -5.73006684
Ni      -0.01667392       8.85520312       8.80742986       0.60000000      -0.48629382       0.11803063      -0.41114169       0.00009037       0.00027202      -0.00020045      -5.73012978
Ni       1.75565225       7.09991363       8.80957338       0.60000000       1.65507026      -0.66195800       0.02514978       0.00027453       0.00045709      -0.00014616      -5.72988093
Ni       1.75463800       8.85862523       7.05230628       0.60000000       1.13072041      -0.34729834      -1.81345600       0.00016100       0.00009423       0.00029573      -5.72989678
Ni      -0.01577050       7.09472387      10.56265399       0.60000000      -0.06265612      -0.76190736       0.73612233       0.00044581       0.00013256       0.00009906      -5.73014790
Ni      -0.01786408       8.85672645      12.32084472       0.60000000       0.53547057      -0.74679003      -0.43478072       0.00126612       0.00051269       0.00017518      -5.73027200
Ni       1.75591752       7.10189374      12.32293314       0.60000000       0.60021846       0.03211129      -0.99792941       0.00075254       0.00155458       0.00061550      -5.72997099
Ni       1.75754216       8.86300664      10.57030910       0.60000000       0.95666522      -0.58843196       0.73625020       0.00040510       0.00116369       0.00016984      -5.72994393
Ni      -0.01838134       7.09507205      14.07403231       0.60000000      -0.99275770      -0.35245650      -0.00095567       0.00105846      -0.00005461       0.00019223      -5.73026299
Ni      -0.02186072       8.85617105      15.82875064       0.60000000       0.16268536       0.85813620      -1.70488546       0.00090218      -0.00027409       0.00054522      -5.73043263
Ni       1.75237046       7.10077250      15.83074967       0.60000000      -0.79448454       1.17176222      -0.76970562       0.00000372       0.00108987       0.00022882      -5.73009157
Ni       1.75645372       8.86420042      14.07972397       0.60000000      -2.26665567       0.43438551       1.12383339       0.00003020       0.00133487       0.00022232      -5.72996897
Ni      -0.02368099       7.09442775      17.58246099       0.60000000      -0.59405969       0.53210823       0.50731923       0.00032514      -0.00076092       0.00039488      -5.73042691
Ni      -0.02894931       8.85431167      19.33570359       0.60000000       1.46583965       1.37022013       0.17174534       0.00103714      -0.00061511       0.00111558      -5.73065561
Ni       1.74532150       7.09745617      19.33792752       0.60000000      -2.04900661      -0.68436650       1.00106942       0.00070057      -0.00057732      -0.00005355      -5.73027265
Ni       1.75025331       8.86146280      17.58480435       0.60000000      -0.81843196       0.36958953      -0.14873041       0.00028587       0.00080781      -0.00041440      -5.73022085
Ni      -0.03068471       7.09311541      21.09169583       0.60000000      -1.90824620      -2.13191482      -1.96071392       0.00030810       0.00020735       0.00009189      -5.73049521
Ni      -0.03533982       8.85204123      22.84633243       0.60000000      -0.69818061      -1.01782414       0.30399574      -0.00018434      -0.00062463       0.00024410      -5.73060501
Ni       1.73827211       7.09331060      22.84932387       0.60000000      -2.20792226       0.51829643      -0.73850572      -0.00044364      -0.00024679      -0.00054228      -5.73041403
Ni       1.74123157       8.85610716      21.09210291       0.60000000       0.28484804       0.95286151       0.32880325       0.00076497       0.00019218       0.00019233      -5.73054403
Ni      -0.03530018       7.09167645      24.60523351       0.60000000       2.00368696      -0.51355326       0.12634268      -0.00003978      -0.00084219       0.00041854      -5.73034042
Ni      -0.03713222       8.84954186      26.36352197       0.60000000      -1.68019697      -0.35879037      -1.08948105      -0.00074481      -0.00089463       0.00007351      -5.73026991
Ni       1.73420757       7.08965665      26.36728355       0.60000000       0.15827643       1.23126736       2.57868684      -0.00075357       0.00035286      -0.00015627      -5.73037732
Ni       1.73513992       8.85132909      24.60617232       0.60000000       0.79720602       1.64990046      -0.27961215      -0.00027923       0.00038004       0.00063454      -5.73059458
Ni      -0.03481021       7.08877872      28.12660054       0.60000000       0.35891927       0.77610189       1.26467231       0.00012974       0.00079298      -0.00043931      -5.73013145
Ni      -0.03356793       8.84662173      29.88956058       0.60000000      -0.49050685      -0.37723353       1.01094912      -0.00003578       0.00126493      -0.00074844      -5.73012877
Ni       1.73501870       7.08732798      29.89290873       0.60000000       0.00154518      -0.14321062      -0.58335602      -0.00034216       0.00041954      -0.00059623      -5.73022127
Ni       1.73356857       8.84788040      28.12814265       0.60000000      -1.28482756      -0.72234782       1.51122126      -0.00058341       0.00005334       0.00113527      -5.73039788
Ni      -0.02962291       7.08653679      31.65567962       0.60000000      -1.14785783       1.07154220       0.15860659      -0.00103039       0.00087609      -0.00077195      -5.73008305
Ni      -0.02695485       8.84592327      33.42172846       0.60000000       0.76361469       0.57598012      -1.61397642      -0.00129136       0.00034660      -0.00032984      -5.73007852
Ni       1.73956603       7.08717590      33.42444954       0.60000000      -0.49657055       0.90826259      -0.98080403      -0.00016746       0.00097809      -0.00050015      -5.73010576
Ni       1.73681923       8.84636612      31.65773224       0.60000000      -1.43944959      -1.01084725      -1.37136956      -0.00038367       0.00127363       0.00031292      -5.73019069
Ni      -0.02467638      10.60492484      -0.01092075       0.60000000       0.75148521      -0.56010588      -0.24268563      -0.00096437       0.00039894      -0.00032519      -5.73007387
Ni      -0.02394460      12.36344474       1.75676686       0.60000000      -1.61645071      -0.39182086      -0.54427370      -0.00046753       0.00031288      -0.00042362      -5.73008639
Ni       1.74536049      10.60837812       1.75971794       0.60000000       1.09790812       0.81018656      -1.32021020       0.00015099       0.00027893      -0.00051203      -5.73000652
Ni       1.74188565      12.36362041      -0.00809779       0.60000000       2.58198181      -0.07129616       0.12080782      -0.00049434      -0.00012030      -0.00049243      -5.73007149
Ni      -0.02091871      10.60795671       3.52247918       0.60000000       1.90970825       0.00495955       1.39780106      -0.00012677       0.00048371       0.00014813      -5.73009402
Ni      -0.02276435      12.36691298       5.28847644       0.60000000       1.31802691      -1.09885820       1.00115931      -0.00017628       0.00046073       0.00012076      -5.73011112
Ni       1.75121930      10.61384543       5.29141152       0.60000000       2.19477550      -1.14830134      -1.33721503       0.00005394      -0.00023617       0.00035159      -5.72995919
Ni       1.74691709      12.36740441       3.52684494       0.60000000       1.32549484      -0.44168299       1.51303556      -0.00059332      -0.00035698       0.00003204      -5.73004258
Ni      -0.01945587      10.61218909       7.04971381       0.60000000      -0.00459627       0.57327684       2.15960388       0.00002735       0.00060770      -0.00018447      -5.73011094
Ni      -0.02316761      12.37050352       8.81157503       0.60000000      -0.95923939      -0.31567603      -2.94908718       0.00060218       0.00063936       0.00008087      -5.73024368
Ni       1.75581131      10.61946290       8.81472596       0.60000000      -0.08667466      -1.32111117      -1.30715288       0.00012724       0.00023218       0.00070527      -5.73000348
Ni       1.75153567      12.37262857       7.05539924       0.60000000      -1.15466931       0.91736814      -0.14092472      -0.00019742      -0.00065216       0.00035536      -5.73007369
Ni      -0.01956717      10.61527032      10.56737966       0.60000000      -0.90601522      -0.24130627       0.15303402       0.00049356       0.00042945      -0.00037609      -5.73027408
Ni      -0.02423145      12.37213201      12.32437063       0.60000000      -0.38519624       1.76236839      -0.51367457       0.00005847       0.00055340      -0.00007015      -5.73051685
Ni       1.75755952      10.62274811      12.32832872       0.60000000      -1.11720350      -1.26561463      -1.00661985      -0.00001631       0.00172119       0.00077258      -5.73001403
Ni       1.75480569      12.37698440      10.57413943       0.60000000       0.94317117      -0.84608725       0.81425328       0.00083960       0.00009054       0.00114666      -5.73013788
Ni      -0.02194752      10.61558379      14.07648860       0.60000000       0.79967651      -0.93291379       0.39794127       0.00069078       0.00041988       0.00003655      -5.73044360
Ni      -0.02868228      12.37113507      15.82985921       0.60000000      -0.36962411      -1.56926066       0.02300733       0.00172417      -0.00009742       0.00045396      -5.73078424
Ni       1.75385371      10.62231512      15.83407583       0.60000000      -0.48190267       0.87943521      -0.52538062      -0.00082701       0.00104577      -0.00003670      -5.73023576
Ni       1.75430487      12.37841365      14.08345508       0.60000000       0.65334621      -0.48447481       1.09348734       0.00069046       0.00141455       0.00087955      -5.73027623
Ni      -0.02812516      10.61372770      17.58189972       0.60000000       0.51819417       0.05119893       2.70010939       0.00190033      -0.00010151       0.00023312      -5.73073709
Ni      -0.03537660      12.36847226      19.33481221       0.60000000      -1.43564361       1.73819738       1.89730937       0.00227918      -0.00099976       0.00107077      -5.73100531
Ni       1.74462398      10.61747029      19.33792900       0.60000000       1.00096394      -0.21455584       0.69253880      -0.00025992      -0.00024603      -0.00009929      -5.73052639
Ni       1.74692466      12.37567479      17.58652527       0.60000000      -0.50158247      -0.71801173      -0.89153843      -0.00105672       0.00158790       0.00006474      -5.73058373
Ni      -0.03519352      10.61083879      21.08942888       0.60000000       1.08496604      -1.87593433       1.01047661       0.00205013      -0.00037623       0.00112103      -5.73089319
Ni      -0.03989375      12.36540587      22.84491178       0.60000000      -2.36181049       0.16128376       1.32661369       0.00068646      -0.00166896       0.00112954      -5.73090577
Ni       1.73610054      10.61147849      22.84774487       0.60000000       1.68518553      -0.19535165      -1.98568324      -0.00009068      -0.00125641       0.00131908      -5.73074639
Ni       1.73722461      12.36967972      21.09218022       0.60000000       1.14715811       0.57991549       0.30369262      -0.00080986       0.00244617       0.00021301      -5.73043609
Ni      -0.03880143      10.60809882      24.60297694       0.60000000      -0.84841402       0.45508958       0.57976050       0.00035431      -0.00108061       0.00138418      -5.73060006
Ni      -0.03917889      12.36296673      26.36256373       0.60000000       2.68651601      -0.61589949       0.07549363       0.00017833      -0.00105992       0.00112706      -5.73052567
Ni       1.73330831      10.60744301      26.36549232       0.60000000      -0.04836425       2.05717021      -1.00240486      -0.00194755      -0.00061690       0.00129657      -5.73067552
Ni       1.73238214      12.36523330      24.60581841       0.60000000      -0.71084758       0.19927602      -0.14132670      -0.00085750       0.00007579       0.00097692      -5.73075813
Ni      -0.03648869      10.60551402      28.12470885       0.60000000       1.13153942       0.01752355       0.61213637      -0.00109110       0.00033286       0.00073065      -5.73023391
Ni      -0.03373009      12.36151003      29.88842327       0.60000000      -0.10868112      -1.63907706      -1.00348252      -0.00122117       0.00019593       0.00071708      -5.73023778
Ni       1.73464916      10.60501391      29.89168269       0.60000000       1.28584105       1.03403703       0.88962961      -0.00046008       0.00037761      -0.00034286      -5.73035777
Ni       1.73352833      12.36297392      28.12704860       0.60000000       1.58311360      -1.73864007       2.08296138      -0.00039344       0.00042975       0.00044695      -5.73055059
Ni      -0.03076692      10.60415100      31.65468505       0.60000000      -1.65195326       0.35770272       0.03947666      -0.00047253       0.00031257      -0.00007249      -5.73013157
Ni      -0.02792194      12.36158288      33.42147998       0.60000000       1.82090982      -0.48999741      -1.51053993      -0.00063241      -0.00004228      -0.00036263      -5.73010790
Ni       1.73951303      10.60522168      33.42437189       0.60000000      -0.77749614      -1.10318720       1.19017190      -0.00066486       0.00064565      -0.00029801      -5.73012155
Ni       1.73707621      12.36213444      31.65671994       0.60000000      -0.57249996      -0.63788287      -1.23882248      -0.00051766       0.00062362      -0.00045386      -5.73024350
Ni      -0.02637830      14.11880546      -0.01096417       0.60000000       1.18843963       0.44921950       0.03930872      -0.00080550      -0.00023987      -0.00031028      -5.73011202
Ni      -0.02700832      15.87538929       1.75664603       0.60000000      -0.75056641      -0.48823256       0.27439761      -0.00099915      -0.00011118      -0.00043132      -5.73014700
Ni       1.74310048      14.12098906       1.75938730       0.60000000      -0.86168818       0.20611376       0.04058881      -0.00117885      -0.00024220      -0.00018954      -5.73011571
Ni       1.74062294      15.87538621      -0.00976098       0.60000000       0.02796654      -0.30858151      -0.45120112      -0.00041850       0.00014167      -0.00064897      -5.73014116
Ni      -0.02546338      14.12094784       3.52387158       0.60000000       1.09712783      -0.32643866      -0.05751153      -0.00048391       0.00009451      -0.00036750      -5.73012096
Ni      -0.02928768      15.87684104       5.28933954       0.60000000      -2.82242840      -1.47793180       1.29254661      -0.00009394       0.00042340      -0.00007280      -5.73018140
Ni       1.74657755      14.12452875       5.29214323       0.60000000      -1.10026976      -0.60345410       0.44907888      -0.00073073      -0.00037376       0.00010832      -5.73015404
Ni       1.74244421      15.87707249       3.52571024       0.60000000      -0.44160767       0.64514538       0.16757364      -0.00068145       0.00009746       0.00019029      -5.73020756
Ni      -0.02683563      14.12377592       7.05230420       0.60000000       0.88454015       2.03719844       1.54259584       0.00015767       0.00052479       0.00026932      -5.73019588
Ni      -0.03219330      15.87827657       8.81340269       0.60000000      -1.50352927       0.58723218       1.08365797       0.00014182       0.00045726      -0.00001545      -5.73031062
Ni       1.74965106      14.12851586       8.81628985       0.60000000       0.41454381      -1.26105739      -1.18001382       0.00084520      -0.00065946       0.00049243      -5.73022962
Ni       1.74421115      15.87954257       7.05455864       0.60000000       0.45077113      -1.54547703       1.72011220       0.00023225      -0.00050098       0.00070426      -5.73026794
Ni      -0.02828785      14.12596793      10.57046633       0.60000000      -0.53241756       0.56502656       1.49325307       0.00034140       0.00021321       0.00020696      -5.73044693
Ni      -0.03442692      15.87864873      12.32622508       0.60000000       0.19528599      -0.77793410      -0.43208540       0.00141257       0.00038390       0.00073384      -5.73071712
Ni       1.75136249      14.13085165      12.33051299       0.60000000      -1.54346704      -0.54075382       0.04029487       0.00086282      -0.00013978       0.00044931      -5.73034501
Ni       1.74610899      15.88168721      10.57411821       0.60000000      -0.48315185       1.14804224      -0.32914727       0.00065620      -0.00142719      -0.00058059      -5.73041105
Ni      -0.03085049      14.12588333      14.07863723       0.60000000       0.77387293       1.18920420       1.67763133       0.00110652       0.00084999      -0.00000602      -5.73081785
Ni      -0.03767913      15.87778687      15.83114051       0.60000000      -0.72379118       0.96837855      -0.76628578       0.00259726       0.00092619       0.00010499      -5.73117340
Ni       1.74749947      14.13023383      15.83605028       0.60000000       0.17093343      -0.52470657      -0.42798646      -0.00075456       0.00134354      -0.00020413      -5.73072851
Ni       1.74541757      15.88188789      14.08384012       0.60000000      -0.96639695      -2.71157406       0.19549407       0.00035492       0.00103733      -0.00047550      -5.73079461
Ni      -0.03616761      14.12414263      17.58239476       0.60000000       0.41249241      -0.44143101      -1.44246546       0.00184294       0.00042154      -0.00015321      -5.73112363
Ni      -0.04181545      15.87645468      19.33555386       0.60000000       0.25316705      -1.37339729       1.53487808       0.00040544      -0.00019433      -0.00067407      -5.73114216
Ni       1.73787543      14.12652934      19.33914141       0.60000000      -0.65195125       0.12884063      -1.77814479       0.00025851       0.00129020       0.00084914      -5.73017257
Ni       1.73888456      15.88038079      17.58756475       0.60000000       0.25646686       1.96561007      -0.15190727      -0.00041512       0.00256202       0.00091496      -5.73072720
Ni      -0.04103796      14.12161021      21.08909369       0.60000000      -0.35047087       0.53572592      -0.48155218       0.00124866      -0.00128660       0.00107034      -5.73096478
Ni      -0.04289519      15.87455141      22.84518992       0.60000000      -1.03916409       0.91421240      -0.53914089      -0.00024819      -0.00029984       0.00185973      -5.73088378
Ni       1.73162869      14.12192567      22.84850954       0.60000000       2.06730840      -2.33644090      -1.52726096       0.00032712       0.00142956       0.00062325      -5.73007107
Ni       1.73200143      15.87758362      21.09348391       0.60000000      -0.27772900      -0.09598929       1.93083329      -0.00289488       0.00123025       0.00070816      -5.72965795
Ni      -0.04114601      14.11913388      24.60271275       0.60000000      -0.92094144      -0.55977945       0.18300259      -0.00045171      -0.00037524       0.00216105      -5.73079187
Ni      -0.03868333      15.87348809      26.36267338       0.60000000       1.39005960       0.49856873      -0.44061009       0.00033376       0.00058797       0.00099329      -5.73070580
Ni       1.73234400      14.11981551      26.36508986       0.60000000      -1.39517671       1.52254677      -1.17277381      -0.00044790       0.00012279       0.00183887      -5.73070079
Ni       1.73138745      15.87535096      24.60597884       0.60000000      -0.62053281       1.02822810       0.01944002      -0.00043479       0.00084018      -0.00138915      -5.73047799
Ni      -0.03639518      14.11797321      28.12440609       0.60000000      -0.91184021      -1.19167539      -0.41487744      -0.00042734       0.00003340       0.00098910      -5.73042631
Ni      -0.03212484      15.87358738      29.88784491       0.60000000      -1.31582282      -0.21526495      -0.16015851      -0.00034288       0.00022752       0.00010491      -5.73034531
Ni       1.73605673      14.11888678      29.88978516       0.60000000      -0.90064675      -2.90987023       1.35174214      -0.00014137       0.00087169       0.00010700      -5.73036140
Ni       1.73575275      15.87499551      28.12497286       0.60000000       0.05900724      -0.27522974      -0.08745651      -0.00025565       0.00013599       0.00057664      -5.73058730
Ni      -0.03034344      14.11783132      31.65386796       0.60000000      -1.71097687       0.83434019      -0.07897473      -0.00058630      -0.00008917       0.00044226      -5.73021007
Ni      -0.02783867      15.87422107      33.42057444       0.60000000      -1.12055714      -0.77910050      -0.01259327      -0.00070282      -0.00007616      -0.00018953      -5.73016495
Ni       1.73943207      14.11908731      33.42303900       0.60000000       0.24410817      -0.81145796      -0.18463407      -0.00036391       0.00012793      -0.00039221      -5.73015314
Ni       1.73896183      15.87476614      31.65399607       0.60000000       1.96330326       1.55191839      -0.87397244      -0.00074279       0.00066221      -0.00010581      -5.73017609
Ni      -0.02738204      17.63043541      -0.01202281       0.60000000      -1.91176209       0.32769866      -0.29654022      -0.00092620       0.00007324       0.00002017      -5.73013014
Ni      -0.02926004      19.38626812       1.75540324       0.60000000       0.24223960      -0.69959345      -0.49846027      -0.00071681       0.00016152      -0.00020415      -5.73013985
Ni       1.74015100      17.63109386       1.75722321       0.60000000      -1.29588928       0.50161368      -1.14414564      -0.00085691       0.00015195      -0.00027536      -5.73018849
Ni       1.74000024      19.38606847      -0.01273617       0.60000000       1.42448888      -1.44294002      -0.04310377      -0.00086731       0.00025227       0.00010415      -5.73010987
Ni      -0.02995759      17.63095723       3.52326878       0.60000000      -0.43036689       0.37027435      -0.40971212      -0.00082838       0.00017718       0.00021597      -5.73019463
Ni      -0.03434349      19.38537917       5.28819772       0.60000000      -1.14769974      -2.18933304      -1.41249596      -0.00050345       0.00048210       0.00055364      -5.73022437
Ni       1.73998256      17.63180539       5.28983407       0.60000000       0.34609868       0.69174190      -1.88856410       0.00039762       0.00044513       0.00060241      -5.73028749
Ni       1.73797490      19.38613684       3.52284196       0.60000000      -0.21476453      -0.06320095      -2.46160551      -0.00037233       0.00056642       0.00020811      -5.73026919
Ni      -0.03439435      17.63101069       7.05249629       0.60000000      -0.11754495       1.20162788       1.21639221       0.00007655       0.00046749      -0.00005998      -5.73023677
Ni      -0.03970723      19.38361404       8.81263293       0.60000000       0.61946526       0.08109039      -1.32400240       0.00149245       0.00062805       0.00047565      -5.73036546
Ni       1.74078495      17.63273322       8.81415156       0.60000000      -1.52826006      -1.15664175      -0.34344009      -0.00015737      -0.00087522      -0.00018987      -5.73039162
Ni       1.73679727      19.38563439       7.05147815       0.60000000       0.60507776       0.23598667       0.23044617       0.00047427       0.00012205      -0.00003665      -5.73036200
Ni      -0.03799008      17.63057403      10.57125046       0.60000000      -0.62501589       0.64663786       1.31792008       0.00172786       0.00066334       0.00046425      -5.73051214
Ni      -0.04213866      19.38212074      12.32627305       0.60000000      -0.91336274       2.27782469      -1.42351270       0.00113037       0.00066852      -0.00056410      -5.73072082
Ni       1.74135303      17.63292930      12.32884033       0.60000000       0.83672642      -1.40972382       0.21505183       0.00128042      -0.00067281      -0.00038679      -5.73063922
Ni       1.73680438      19.38488591      10.57058348       0.60000000      -0.40777122      -2.99206986      -0.14349454       0.00103502      -0.00034655       0.00081483      -5.73052019
Ni      -0.03966269      17.63001575      14.07961166       0.60000000      -0.85439196       0.38071374       1.07405809       0.00044445       0.00050181      -0.00004184      -5.73100483
Ni      -0.04289461      19.38188239      15.83183571       0.60000000       0.50159077      -1.50210183      -1.58474328      -0.00003860       0.00132936      -0.00191580      -5.73116022
Ni       1.73855804      17.63240259      15.83556924       0.60000000      -0.96251497      -1.22390846      -0.05227654       0.00033093       0.00151566      -0.00055845      -5.73111355
Ni       1.73663527      19.38404778      14.08149713       0.60000000      -0.08972540       0.42409573      -0.75547977       0.00183076       0.00137401       0.00003061      -5.73089212
Ni      -0.04227035      17.62959385      17.58356980       0.60000000      -0.40635270      -2.24556609       1.67083475       0.00022916       0.00079373      -0.00188149      -5.73129052
Ni      -0.04376687      19.38237125      19.33662495       0.60000000       0.35838858       0.59893573      -1.75702866       0.00009583       0.00249700      -0.00080094      -5.73115844
Ni       1.73286092      17.63157070      19.34044248       0.60000000      -0.41979906       0.98296186       0.32443393      -0.00090637       0.00115803       0.00004232      -5.73033416
Ni       1.73399103      19.38420893      17.58764435       0.60000000      -0.58159611       1.18340023      -1.24105586      -0.00044631       0.00138434      -0.00020338      -5.73115194
Ni      -0.04387004      17.62896442      21.09000644       0.60000000      -1.75619176       0.29672129       0.76538237      -0.00017193       0.00124049       0.00016158      -5.73104292
Ni      -0.04136144      19.38262132      22.84606510       0.60000000       0.01932655       0.57486663      -0.86284370      -0.00043483       0.00230870       0.00103133      -5.73100293
Ni       1.73103170      17.62998720      22.84883358       0.60000000      -0.87974846       0.63695625       0.78403012      -0.00016486       0.00000206      -0.00014172      -5.73032677
Ni       1.73244903      19.38379476      21.09435276       0.60000000       0.49652039      -1.79215786      -0.54644378      -0.00134248      -0.00102391      -0.00043117      -5.73069352
Ni      -0.04043017      17.62831229      24.60308178       0.60000000      -0.64206414      -0.39585169       0.08101157      -0.00037116       0.00078616       0.00209381      -5.73089594
Ni      -0.03470400      19.38314113      26.36244664       0.60000000       2.01786188      -0.44801870       1.85906498       0.00025967       0.00133630       0.00064063      -5.73080873
Ni       1.73576559      17.62960055      26.36284504       0.60000000       0.46997504       1.58310162      -0.41994497      -0.00047521      -0.00021428      -0.00050629      -5.73082590
Ni       1.73601467      19.38292151      24.60404598       0.60000000       0.49954560       1.35425086      -0.45721885       0.00015018      -0.00127987      -0.00130424      -5.73110437
Ni      -0.03342194      17.62868635      28.12387234       0.60000000       0.18011919       1.07189826       0.32659796      -0.00073624       0.00054612       0.00069097      -5.73056632
Ni      -0.02820546      19.38447807      29.88673712       0.60000000      -0.26741177       0.05409474       1.60976774      -0.00051568       0.00050380      -0.00002632      -5.73036581
Ni       1.73999055      17.62997546      29.88613369       0.60000000       1.34840263      -1.45663616       1.23263650      -0.00006171       0.00037363       0.00009077      -5.73024833
Ni       1.74176737      19.38361105      28.12087518       0.60000000      -0.04314954      -1.47658955       0.50363077       0.00041106       0.00008290       0.00000644      -5.73043752
Ni      -0.02839813      17.62949611      31.65278972       0.60000000      -0.94387901      -0.02659962       0.64973336      -0.00008785       0.00061246      -0.00020600      -5.73022997
Ni      -0.02669102      19.38578249      33.41927379       0.60000000       0.19947234      -0.68738578      -0.55506302      -0.00065850       0.00018714      -0.00002191      -5.73012328
Ni       1.74039772      17.63034840      33.42007970       0.60000000      -0.67490232       0.48774861      -1.66686901      -0.00063021       0.00049346       0.00023878      -5.73011768
Ni       1.74212692      19.38507305      31.65045201       0.60000000       1.95496000      -1.13409044       0.75883692      -0.00019147       0.00060221       0.00008424      -5.73007923
Ni      -0.02744375      21.14236053      -0.01324676       0.60000000      -0.89014751      -0.90124750       1.48690233      -0.00075033      -0.00008916      -0.00018289      -5.73007751
Ni      -0.02991145      22.89893301       1.75394452       0.60000000       1.44192008       0.76074625       0.88344451      -0.00104030       0.00021818      -0.00003385      -5.73005909
Ni       1.73797546      21.14199453       1.75410712       0.60000000       0.15945693      -0.09300284      -0.76745162      -0.00065982       0.00012888       0.00010029      -5.73018324
Ni       1.73976614      22.89846744      -0.01532284       0.60000000      -0.58019656      -1.67410634      -0.64580990      -0.00080476       0.00018740      -0.00033679      -5.73009020
Ni      -0.03266759      21.14150662       3.52178466       0.60000000       1.57697470       0.17546414       0.79081733      -0.00077020       0.00052413      -0.00019033      -5.73015863
Ni      -0.03647409      22.89629407       5.28608572       0.60000000      -2.10421087      -0.62614972       2.72097138      -0.00013958       0.00094820      -0.00001706      -5.73016798
Ni       1.73523405      21.14094077       5.28642628       0.60000000      -0.62856267      -0.82470561      -0.03475912      -0.00064530       0.00051199       0.00015840      -5.73031455
Ni       1.73547998      22.89818963       3.51953221       0.60000000      -0.69809633      -1.03863948      -0.74118272      -0.00103547       0.00025747       0.00007783      -5.73022759
Ni      -0.03895599      21.13885611       7.05061375       0.60000000       0.57555462      -0.05944135      -0.17772519       0.00036954       0.00079632       0.00044258      -5.73028666
Ni      -0.04196198      22.89251287       8.80992765       0.60000000       0.27325711       1.20895728      -0.76786614       0.00019278       0.00082171      -0.00008716      -5.73038542
Ni       1.73348003      21.13920456       8.81006907       0.60000000      -1.19336518       0.01075086      -1.31317613       0.00196386       0.00004553       0.00056274      -5.73045737
Ni       1.73258309      22.89600758       7.04733196       0.60000000      -0.82312143       1.02300522      -1.03424857       0.00059054       0.00056554       0.00053007      -5.73035210
Ni      -0.04320901      21.13601225      10.56971745       0.60000000      -1.28104602      -0.71078630      -1.44489158       0.00141928       0.00054842      -0.00038021      -5.73054123
Ni      -0.04410383      22.89009539      12.32360493       0.60000000       1.18596886       2.79272556      -0.74833628       0.00089421      -0.00030314      -0.00026926      -5.73064721
Ni       1.73370004      21.13757665      12.32481740       0.60000000       0.10149628      -0.36116125       1.52516811       0.00173933      -0.00011307       0.00122660      -5.73067886
Ni       1.73161333      22.89359208      10.56639452       0.60000000       0.34193146       1.54075159      -1.52198195       0.00160807      -0.00012376      -0.00036522      -5.73056179
Ni      -0.04374876      21.13484104      14.07901741       0.60000000      -0.05502943      -0.44147232      -0.20546057      -0.00004537       0.00074949      -0.00217375      -5.73082829
Ni      -0.04289756      22.88994138      15.83073666       0.60000000       0.61177691      -0.17808219      -0.20549156       0.00034699       0.00180913      -0.00118255      -5.73077643
Ni       1.73406203      21.13692428      15.83390890       0.60000000       1.06160935      -0.77363565       1.87651063      -0.00027772       0.00141063      -0.00071516      -5.73097420
Ni       1.73259595      22.89194379      14.07827423       0.60000000      -1.92642417       0.58034020      -1.88867682       0.00080960       0.00048405      -0.00040245      -5.73075646
Ni      -0.04322470      21.13566139      17.58398651       0.60000000       1.55283345      -0.28650162      -0.09823542      -0.00004034       0.00193745      -0.00166226      -5.73101532
Ni      -0.04010632      22.89145447      19.33743719       0.60000000      -1.93720995      -0.53421028       2.10068900      -0.00057647       0.00173158      -0.00033330      -5.73080719
Ni       1.73373346      21.13704743      19.34080019       0.60000000       1.39745613       0.56062875      -0.11247143       0.00001797       0.00093832      -0.00087935      -5.73111546
Ni       1.73419207      22.89154595      17.58664982       0.60000000      -1.13695037       0.59719128      -0.36010110       0.00107212       0.00005649      -0.00039577      -5.73089319
Ni      -0.04119377      21.13691975      21.09121897       0.60000000       1.16051226       0.06314179      -0.53345410       0.00093549       0.00122332       0.00032450      -5.73091620
Ni      -0.03490867      22.89269508      22.84754721       0.60000000       0.09389412      -2.00993055      -0.39264712      -0.00061337       0.00032291       0.00036732      -5.73075688
Ni       1.73712229      21.13600961      22.84855367       0.60000000       2.43986157      -0.34582397       0.23032721       0.00030592      -0.00029243      -0.00153147      -5.73103833
Ni       1.73790481      22.89071361      21.09439203       0.60000000       1.52998123       1.33971710      -1.13583623      -0.00005910      -0.00096350      -0.00027120      -5.73100102
Ni      -0.03527430      21.13768292      24.60375211       0.60000000      -1.27043112       0.60664448      -1.69734761       0.00025290       0.00059635       0.00086355      -5.73088109
Ni      -0.02787701      22.89393947      26.36310759       0.60000000      -1.38006600       0.46178845       1.87876231      -0.00015016       0.00029891       0.00014816      -5.73060954
Ni       1.74350418      21.13599224      26.35987052       0.60000000      -1.83435849      -0.63624263      -0.86733146      -0.00069055       0.00001565      -0.00119221      -5.73068994
Ni       1.74426548      22.88951958      24.60320321       0.60000000      -0.20675057      -1.04460320       0.87905071       0.00084015      -0.00113128      -0.00128003      -5.73064548
Ni      -0.02809599      21.13909211      28.12337465       0.60000000      -0.67520798      -0.97212604       1.00210217       0.00033432       0.00016966       0.00026769      -5.73053658
Ni      -0.02384501      22.89645888      29.88662723       0.60000000      -1.12883202       1.12559962       0.80329074       0.00022756      -0.00009391       0.00009751      -5.73033816
Ni       1.74506218      21.13878378      29.88293338       0.60000000      -0.90620590      -0.51618336      -0.84262023       0.00001489       0.00003016      -0.00091508      -5.73007709
Ni       1.74763480      22.89178761      28.11941426       0.60000000      -1.58845551       1.33908093       0.16406530       0.00020966      -0.00004261      -0.00108927      -5.73017740
Ni      -0.02521718      21.14109432      31.65167290       0.60000000      -2.86526364      -0.88628413       0.16671472      -0.00048248       0.00025613       0.00049455      -5.73021275
Ni      -0.02491273      22.89875955      33.41847855       0.60000000      -1.13325698      -2.13424947      -0.40482402      -0.00061307       0.00019529       0.00044493      -5.73010182
Ni       1.74177697      21.14122480      33.41717509       0.60000000      -0.02646296      -0.32191445      -0.73975841      -0.00017351       0.00026563      -0.00042168      -5.73004621
Ni       1.74486340      22.89603098      31.64836532       0.60000000       0.19528354       1.42756390       1.02065418       0.00037058      -0.00031160      -0.00031443      -5.72999179
Ni      -0.02656778      24.65715422      -0.01409681       0.60000000       0.30028469      -0.79329497       0.79300441      -0.00114424       0.00014822       0.00005684      -5.72999829
Ni      -0.02894769      26.41599692       1.75260727       0.60000000       0.25939157      -0.46962365      -1.15093328      -0.00135735       0.00002574      -0.00030670      -5.72994536
Ni       1.73724470      24.65657004       1.75153732       0.60000000       0.07546472      -1.29350218      -0.58526505      -0.00157029       0.00030849      -0.00040639      -5.73012197
Ni       1.73976531      26.41568680      -0.01651041       0.60000000       0.30175348       0.90811610       0.70183473      -0.00113990       0.00009009      -0.00023797      -5.72999418
Ni      -0.03294777      24.65552341       3.51972110       0.60000000      -1.76590327       0.03618317       0.56619760      -0.00065586       0.00046847      -0.00010250      -5.73005140
Ni      -0.03506194      26.41278895       5.28298821       0.60000000      -0.79608654      -1.70357274       0.97965543      -0.00053403       0.00041726       0.00003329      -5.73007524
Ni       1.73325588      24.65501225       5.28264817       0.60000000      -0.70388409      -0.31645464      -2.17644853      -0.00032238       0.00004952       0.00058993      -5.73025656
Ni       1.73511882      26.41554024       3.51664602       0.60000000      -1.64735023      -0.49394267       0.18641043      -0.00139015       0.00014693      -0.00027135      -5.73015851
Ni      -0.03899272      24.65157060       7.04750092       0.60000000      -2.61683207       0.99072636      -0.36237786      -0.00031564       0.00076813      -0.00009902      -5.73020941
Ni      -0.03936637      26.40869939       8.80537435       0.60000000       1.55111193      -0.26706581       0.49399040      -0.00011121       0.00042064       0.00042603      -5.73026550
Ni       1.73148304      24.65215367       8.80584130       0.60000000       0.38256925      -1.67688794       1.06099469       0.00049813       0.00006656       0.00004599      -5.73040813
Ni       1.73251152      26.41298014       7.04334047       0.60000000      -1.03476346       1.20011736       2.40697807      -0.00019453      -0.00022949       0.00089775      -5.73028964
Ni      -0.04251361      24.64808774      10.56557260       0.60000000      -0.00660612       2.46079256       0.31132282      -0.00008363      -0.00015545       0.00082695      -5.73047596
Ni      -0.04047208      26.40648651      12.31924792       0.60000000       0.06936269       0.82893474      -0.17683201      -0.00019907      -0.00065188       0.00055257      -5.73049307
Ni       1.73144265      24.64956904      12.32094607       0.60000000      -1.72440476      -0.47488822      -1.39437334       0.00170202       0.00073625       0.00008553      -5.73065937
Ni       1.73202531      26.40996900      10.56212834       0.60000000      -0.04889013      -1.80471058       0.57917793       0.00079059      -0.00054909       0.00061409      -5.73043519
Ni      -0.04243864      24.64686659      14.07589005       0.60000000      -0.54054763      -1.80168312       0.13448215       0.00115515      -0.00004556       0.00029747      -5.73063844
Ni      -0.03837842      26.40626151      15.82876881       0.60000000      -1.21717713       0.24450766      -0.62907178       0.00042041       0.00084040      -0.00026473      -5.73058933
Ni       1.73374714      24.64837844      15.83122414       0.60000000      -0.04601152      -1.76439049      -0.35898220       0.00050886      -0.00035768       0.00102022      -5.73076588
Ni       1.73332625      26.40766039      14.07485202       0.60000000       2.73812686       0.79806699       0.73699504       0.00109691       0.00070703       0.00008528      -5.73067182
Ni      -0.03929220      24.64762149      17.58353813       0.60000000      -0.33596647      -0.82927789       1.13674357       0.00000177       0.00151920      -0.00076278      -5.73069280
Ni      -0.03384166      26.40728364      19.33800266       0.60000000      -0.96389506      -0.56861176      -0.96154103      -0.00061602       0.00058859      -0.00041464      -5.73059809
Ni       1.73763416      24.64717207      19.33984384       0.60000000       1.42944599       0.43657614      -1.96328723       0.00070701       0.00025103       0.00121017      -5.73077989
Ni       1.73699640      26.40641552      17.58474452       0.60000000       1.48302053      -0.44175071       0.46466226       0.00054990      -0.00066600       0.00111551      -5.73067403
Ni      -0.03436885      24.64902810      21.09273030       0.60000000      -0.18032353       1.58175387      -0.88182860      -0.00058899       0.00014938      -0.00033542      -5.73067617
Ni      -0.02801344      26.40843635      22.84965270       0.60000000       0.28867536      -0.24388189       2.07274615      -0.00079323      -0.00025294       0.00006369      -5.73051137
Ni       1.74384163      24.64565354      22.84867166       0.60000000       2.00903651      -0.81968857       0.94993868       0.00038635      -0.00011361      -0.00049138      -5.73059583
Ni       1.74231280      26.40479324      21.09398503       0.60000000      -0.21762786      -0.99558648       0.73648475       0.00021897      -0.00014137       0.00144127      -5.73055595
Ni      -0.02773284      24.65018245      24.60561001       0.60000000       1.12412834      -0.36934283       0.74003440      -0.00104806      -0.00023240      -0.00004926      -5.73058355
Ni      -0.02274100      26.41012812      26.36547870       0.60000000       1.22011077      -0.30967137       0.22449449      -0.00055596       0.00034834       0.00045631      -5.73040277
Ni       1.74871578      24.64655057      26.36071214       0.60000000       1.36348929       0.92678826      -1.76617103       0.00020585      -0.00106247      -0.00134079      -5.73025173
Ni       1.74775456      26.40456189      24.60478372       0.60000000      -0.08608536      -0.68643294      -2.13464935      -0.00017063      -0.00054313       0.00048104      -5.73029751
Ni      -0.02289943      24.65244440      28.12461720       0.60000000       0.48622203      -0.73323456       0.47680365       0.00006273      -0.00017802       0.00014388      -5.73041874
Ni      -0.02097833      26.41336316      29.88854168       0.60000000       0.69137964       1.89195115      -1.96550271      -0.00011961       0.00009084       0.00053694      -5.73022270
Ni       1.74767958      24.65071781      29.88300764       0.60000000       1.65039817       0.54975911      -0.38462436       0.00101983      -0.00018489      -0.00067321      -5.72999233
Ni       1.74897826      26.40723612      28.12191082       0.60000000      -0.29848838       0.85154296       0.63463661       0.00075199       0.00045265      -0.00014025      -5.73005456
Ni      -0.02254483      24.65561991      31.65220932       0.60000000      -1.25913608       1.21297065       0.37755524      -0.00028682       0.00007037       0.00008889      -5.73017257
Ni      -0.02359307      26.41609616      33.41896780       0.60000000      -0.24708358      -1.55891799       0.51962227      -0.00055208       0.00018262       0.00033772      -5.72999728
Ni       1.74262740      24.65514674      33.41582363       0.60000000      -0.66819221      -1.18563952       0.82798720      -0.00039823       0.00022017      -0.00013980      -5.72999072
Ni       1.74528347      26.41233721      31.64946597       0.60000000       0.99529292       0.06933764       0.42127410       0.00027920       0.00006123      -0.00040702      -5.72991645
Ni      -0.02550641      28.17741166      -0.01421208       0.60000000       0.01247734      -0.16756437      -2.50490111      -0.00104121      -0.00043758      -0.00005651      -5.72991508
Ni      -0.02693843      29.93935357       1.75142408       0.60000000      -0.10080825      -0.04214140      -2.02716467      -0.00153447      -0.00067740       0.00013359      -5.72993797
Ni       1.73744202      28.17721261       1.75006085       0.60000000      -0.78428645      -1.76447834       1.13593831      -0.00121602      -0.00038597      -0.00032115      -5.73005134
Ni       1.73957704      29.93963685      -0.01584962       0.60000000      -0.23165368      -0.37970622      -0.98332485      -0.00102018      -0.00034893      -0.00077286      -5.72996712
Ni      -0.03067473      28.17554417       3.51735138       0.60000000       0.25295945       0.17315367       0.29429993      -0.00159780       0.00008302      -0.00001059      -5.72995508
Ni      -0.03074756      29.93650491       5.27954058       0.60000000       0.08949810      -0.52925295       1.96516526      -0.00168440       0.00016795       0.00019436      -5.72995490
Ni       1.73443784      28.17564220       5.27948046       0.60000000      -2.22811797       1.89517966       0.56919697      -0.00132502       0.00007064       0.00027850      -5.73020917
Ni       1.73667316      29.93965352       3.51474852       0.60000000       0.87041886       0.99983419       0.21490903      -0.00128628      -0.00048386       0.00051887      -5.73011225
Ni      -0.03525777      28.17175294       7.04310425       0.60000000      -0.26314475       0.87666288      -3.06319188      -0.00042659       0.00030069       0.00034877      -5.73010874
Ni      -0.03322345      29.93326749       8.80088729       0.60000000       0.18651557       1.08267192       0.35244540      -0.00046985      -0.00014203      -0.00027310      -5.73013222
Ni       1.73336658      28.17271118       8.80167550       0.60000000       1.85655278       0.10526319      -0.41076571       0.00021412      -0.00100279       0.00169788      -5.73030651
Ni       1.73545141      29.93732894       7.04009832       0.60000000       0.10647809       0.54983524       1.31569691      -0.00105135      -0.00008283       0.00092866      -5.73021430
Ni      -0.03727427      28.16864391      10.56092762       0.60000000      -1.76207687       0.75845541       1.16301850      -0.00017241      -0.00023552       0.00004933      -5.73030126
Ni      -0.03343197      29.93127690      12.31580867       0.60000000      -0.05379293      -1.23245328      -0.52257771      -0.00014153      -0.00005676      -0.00064300      -5.73029459
Ni       1.73430052      28.16963565      12.31734673       0.60000000      -0.92574856       0.45894959      -1.01462343       0.00021744       0.00055251       0.00064059      -5.73044378
Ni       1.73578413      29.93431808      10.55879163       0.60000000       1.05605073       0.22448163      -1.08094766       0.00020803      -0.00091207       0.00087577      -5.73029506
Ni      -0.03642717      28.16757709      14.07282682       0.60000000       0.23734202      -1.61903352      -0.07222764      -0.00021201      -0.00010314      -0.00003023      -5.73046029
Ni      -0.03164732      29.93103347      15.82720167       0.60000000       2.07908775       1.91886428       0.79119900      -0.00078284      -0.00011934      -0.00002744      -5.73037559
Ni       1.73669686      28.16782393      15.82880371       0.60000000       0.69531243      -0.00219889       0.17053210       0.00000411       0.00038093       0.00088368      -5.73055476
Ni       1.73749940      29.93175109      14.07233245       0.60000000       0.78757072      -0.03852058      -0.40708401      -0.00062397       0.00041687       0.00017574      -5.73038447
Ni      -0.03320705      28.16794684      17.58290321       0.60000000      -0.54725874      -0.49696818       1.01357765      -0.00014410       0.00052040      -0.00002107      -5.73049438
Ni      -0.02857030      29.93163759      19.33857463       0.60000000      -0.16213260      -0.69358779      -0.16486496      -0.00031155      -0.00011861       0.00004881      -5.73037416
Ni       1.74092174      28.16641918      19.33904742       0.60000000       2.27302649       1.34944333       2.08169133      -0.00050599       0.00008650       0.00093545      -5.73046553
Ni       1.73983406      29.93029538      17.58354064       0.60000000       0.99206501      -1.46698865      -0.59517715       0.00033471      -0.00002796       0.00002634      -5.73038888
Ni      -0.02834240      28.16893349      21.09415581       0.60000000      -0.19875139       1.16689472       0.02815291      -0.00095728       0.00015619      -0.00020457      -5.73045784
Ni      -0.02470624      29.93281540      22.85182642       0.60000000       1.01070815       0.13237807      -0.57255985      -0.00068416       0.00042254      -0.00010000      -5.73026699
Ni       1.74557693      28.16568429      22.84974054       0.60000000      -0.32015301      -0.55079995      -1.86202533      -0.00075607       0.00057909       0.00105337      -5.73029864
Ni       1.74330766      29.92948454      21.09458712       0.60000000       0.46313981      -0.66114312       0.56399828      -0.00070036       0.00026129       0.00071736      -5.73027331
Ni      -0.02357394      28.17033312      24.60836540       0.60000000       0.32133788       0.91259017       0.27029579      -0.00035045       0.00030666      -0.00039825      -5.73033398
Ni      -0.02175384      29.93498438      26.36891364       0.60000000      -1.04237439       0.06905189       0.73120932      -0.00018288       0.00012548      -0.00067203      -5.73021406
Ni       1.74808789      28.16725178      26.36420733       0.60000000      -2.72228488      -0.41381658       1.43751727       0.00056605      -0.00039975       0.00012290      -5.73009831
Ni       1.74582274      29.93013317      24.60790334       0.60000000      -0.30155857      -1.51765463      -1.64699303       0.00000495       0.00019603       0.00033020      -5.73009998
Ni      -0.02065981      28.17291995      28.12770372       0.60000000      -1.02767519       0.26515890       1.85437731      -0.00042033       0.00042252       0.00009987      -5.73024076
Ni      -0.02116830      29.93762321      29.89149075       0.60000000      -0.54484068       0.11762570       0.30554660       0.00025609       0.00038441       0.00041260      -5.73003590
Ni       1.74661868      28.17110404      29.88639457       0.60000000       1.02739729      -0.43369177       0.59235059       0.00048374       0.00080981       0.00057630      -5.72991604
Ni       1.74601611      29.93289539      28.12655222       0.60000000       0.65057338      -0.83065069      -2.16546038       0.00045885       0.00028394       0.00032108      -5.72996908
Ni      -0.02164547      28.17604104      31.65408180       0.60000000       1.30104628       0.36758221       0.70069405       0.00007605       0.00023503       0.00051238      -5.73000413
Ni      -0.02329835      29.93969707      33.42030469       0.60000000       0.25212271       0.40994516       0.24459911      -0.00025989      -0.00038957      -0.00021698      -5.72989690
Ni       1.74213922      28.17556160      33.41699308       0.60000000      -0.61626280      -1.11306463       0.08022008      -0.00081875       0.00002525      -0.00057686      -5.72988689
Ni       1.74332360      29.93676378      31.65272642       0.60000000      -2.33883484       1.12800980       0.02622827      -0.00005209       0.00021713      -0.00005371      -5.72982663
Ni      -0.02457331      31.70369510      -0.01386825       0.60000000      -0.74027798      -0.51654260       0.61895698      -0.00073849      -0.00058296      -0.00043038      -5.72992849
Ni      -0.02448156      33.46802586       1.75098492       0.60000000       0.54891828      -0.45951834      -0.70907747      -0.00084244      -0.00036644      -0.00003156      -5.72994977
Ni       1.73869733      31.70417647       1.75013069       0.60000000       2.25644851       1.09886140       0.42581587      -0.00121942      -0.00007261      -0.00027586      -5.73005372
Ni       1.73970442      33.46900397      -0.01407689       0.60000000      -0.26483069       1.64098995       0.16675029      -0.00016772      -0.00003848      -0.00074269      -5.72995389
Ni      -0.02690512      31.70223266       3.51526472       0.60000000       1.06447490       0.95310071       0.88220501      -0.00170598      -0.00056485       0.00045099      -5.72993922
Ni      -0.02515650      33.46650737       5.27745997       0.60000000      -0.79733204       0.03650301      -0.19738505      -0.00115380      -0.00082893       0.00022743      -5.72995764
Ni       1.73776044      31.70328971       5.27764887       0.60000000      -1.04059665       0.29793470       0.84837580      -0.00117238      -0.00045616       0.00078148      -5.73010957
Ni       1.73981754      33.46940698       3.51488953       0.60000000      -1.27999218       0.58749637       1.81788275      -0.00103795       0.00008682       0.00009280      -5.73004603
Ni      -0.02888428      31.69953275       7.03961532       0.60000000      -0.22730641      -0.62436132      -0.01592907      -0.00130087      -0.00022182      -0.00030434      -5.72997594
Ni      -0.02569579      33.46463003       8.79834212       0.60000000      -0.42522241       0.01526986       0.22961933      -0.00081448      -0.00070455      -0.00035791      -5.73003680
Ni       1.73801870      31.70083834       8.79935578       0.60000000      -1.16748870       0.47559760      -0.66027258      -0.00077532      -0.00050023       0.00026530      -5.73017812
Ni       1.74051193      33.46838111       7.03922292       0.60000000      -1.28844287      -1.35105681       0.44523624      -0.00079655      -0.00068679       0.00032574      -5.73006791
Ni      -0.02969608      31.69729695      10.55752554       0.60000000       0.35418490      -1.13600800       1.09304704      -0.00024508      -0.00046326      -0.00055743      -5.73015380
Ni      -0.02593726      33.46324480      12.31395820       0.60000000      -1.73208677      -1.54657646      -1.23651787      -0.00040472      -0.00004426      -0.00032804      -5.73015046
Ni       1.73896460      31.69805651      12.31526683       0.60000000       0.56375284      -0.47703481       0.19739938      -0.00030100       0.00016188      -0.00026577      -5.73024619
Ni       1.74131432      33.46613701      10.55765798       0.60000000       0.77297723      -0.16916679      -0.64423668      -0.00050162       0.00009096      -0.00031715      -5.73013771
Ni      -0.02920948      31.69621609      14.07092391       0.60000000       0.55677864       1.26254056      -1.17501768      -0.00051840       0.00012931      -0.00038886      -5.73025590
Ni      -0.02614575      33.46293838      15.82674731       0.60000000      -1.28765460      -0.23268782       1.59542024      -0.00023093      -0.00025810      -0.00011387      -5.73020625
Ni       1.74012501      31.69630617      15.82760918       0.60000000       0.32629776       0.43045348       1.14203701       0.00005511      -0.00045154      -0.00037305      -5.73027778
Ni       1.74156994      33.46418037      14.07139809       0.60000000      -0.80070083      -0.64538279       0.38495096       0.00017462      -0.00053865      -0.00025046      -5.73018283
Ni      -0.02785092      31.69648598      17.58276544       0.60000000       0.24473929      -1.10690372      -0.47706690      -0.00057658      -0.00043810       0.00000986      -5.73029119
Ni      -0.02595147      33.46354172      19.33913675       0.60000000       0.23429564      -1.08273216      -2.09400412      -0.00064591      -0.00019986       0.00004306      -5.73018533
Ni       1.74173012      31.69526063      19.33901484       0.60000000      -0.83335221       0.28333637       0.22559691      -0.00061044       0.00023739       0.00026879      -5.73024404
Ni       1.74164540      33.46278651      17.58319656       0.60000000      -0.66659720       0.68043138       0.53692460      -0.00081588      -0.00024442      -0.00021737      -5.73020583
Ni      -0.02580573      31.69728322      21.09542001       0.60000000      -0.51418083      -0.61393060      -0.16209338      -0.00027073       0.00058704       0.00028888      -5.73022741
Ni      -0.02540581      33.46487526      22.85310133       0.60000000       0.98936726       0.31279762       0.08446830      -0.00002365      -0.00011852      -0.00001256      -5.73012644
Ni       1.74330765      31.69544431      22.85179216       0.60000000      -0.71386342       0.23793352       1.82470477      -0.00040383       0.00020117       0.00031133      -5.73011035
Ni       1.74150599      33.46246656      21.09550843       0.60000000       1.12995145       1.86490150       0.56997134      -0.00028451      -0.00014501       0.00007731      -5.73014623
Ni      -0.02354921      31.69914456      24.61084367       0.60000000      -0.18027973       1.92953232      -0.63549889      -0.00012722      -0.00020618      -0.00047512      -5.73015487
Ni      -0.02446903      33.46658101      26.37064519       0.60000000       0.62445130       0.85386233      -0.26685972       0.00033660       0.00006920       0.00001601      -5.73003739
Ni       1.74395717      31.69719627      26.36827788       0.60000000       0.07101728      -0.27124929      -2.37799194       0.00040098      -0.00006723       0.00011811      -5.72999758
Ni       1.74155499      33.46331746      24.61041073       0.60000000       1.03434032       0.28958545       0.05147788       0.00002803      -0.00000046       0.00035011      -5.73003906
Ni      -0.02229360      31.70122410      28.13066314       0.60000000       0.57216964      -0.04108426       1.05286494       0.00029476       0.00059917       0.00006805      -5.73005968
Ni      -0.02374634      33.46799402      29.89353363       0.60000000       1.19714919       0.35235031       0.33100731      -0.00002992      -0.00012181      -0.00023162      -5.72992444
Ni       1.74297780      31.70007296      29.89084419       0.60000000       0.55069937       0.84372246       0.57693884       0.00009451       0.00011190       0.00001207      -5.72986150
Ni       1.74128315      33.46523079      28.13030039       0.60000000      -1.23547714      -0.87701823       0.79480163       0.00012747      -0.00025820      -0.00007149      -5.72991836
Ni      -0.02266822      31.70319722      31.65632387       0.60000000      -0.77086442       1.36132126      -1.01606644       0.00005905      -0.00032710      -0.00024361      -5.72990435
Ni      -0.02386371      33.46860392      33.42149919       0.60000000       0.28545697      -1.19049617       0.32037086      -0.00025432      -0.00048941      -0.00060200      -5.72992045
Ni       1.74064078      31.70297797      33.41951503       0.60000000      -0.38822205      -1.15374849       1.28855508      -0.00006708      -0.00045154      -0.00084617      -5.72987461
Ni       1.74048137      33.46744994      31.65618570       0.60000000       1.09756478      -1.82468221      -1.17175454       0.00000628      -0.00072621      -0.00061865      -5.72987866
Ni       3.50316232       0.03553739      -0.01271403       0.60000000       0.41551878      -0.62471184       1.03538376       0.00005174       0.00024773      -0.00067281      -5.72995239
Ni       3.50593883       1.80276248       1.75466399       0.60000000       0.41790893       0.27095191       1.46267085       0.00010562       0.00014010      -0.00030804      -5.72990638
Ni       5.26594884       0.03831337       1.75309796       0.60000000       1.17223793      -1.07554480      -1.40364641       0.00043418       0.00015254      -0.00039319      -5.73000282
Ni       5.26636053       1.80286598      -0.01025285       0.60000000      -0.27022882      -1.13942943       0.75272857       0.00015883      -0.00020430      -0.00051368      -5.72996056
Ni       3.50533734       0.03774117       3.51699850       0.60000000       0.92771983       0.26149894      -0.28959174       0.00031882       0.00009520      -0.00009690      -5.72999561
Ni       3.51005684       1.80559399       5.28273152       0.60000000       0.44056006       0.64089874      -0.06497537       0.00048194       0.00013930      -0.00010667      -5.72987574
Ni       5.26964304       0.04036827       5.28192718       0.60000000       0.11706977       1.08823113       0.32762045       0.00054207       0.00057210       0.00023269      -5.73000222
Ni       5.27067980       1.80691741       3.52127973       0.60000000      -1.40051834      -0.91517774       0.22326429       0.00030059       0.00050961      -0.00010115      -5.72987270
Ni       3.50840655       0.03815610       7.04188202       0.60000000       0.43055046      -1.14265342       1.24966255      -0.00027119       0.00028125       0.00010643      -5.73001844
Ni       3.51333086       1.80669866       8.80407282       0.60000000       0.78148761      -0.49412553      -0.99333210       0.00024156       0.00026944      -0.00008308      -5.72991562
Ni       5.27346276       0.03990799       8.80402818       0.60000000      -1.60452699      -0.86731421      -1.63548799       0.00039189      -0.00005717      -0.00002983      -5.73004216
Ni       5.27576913       1.81014570       7.04737946       0.60000000       1.98753138      -0.43050074      -0.73597060       0.00069812       0.00021855      -0.00003150      -5.72983170
Ni       3.51028807       0.03662569      10.56001143       0.60000000      -0.10068760      -0.81740925      -1.61127423       0.00012498      -0.00026732      -0.00020758      -5.73007065
Ni       3.51396174       1.80543159      12.31843353       0.60000000       1.12508866       0.96981342      -0.03403788      -0.00020355      -0.00060210      -0.00063934      -5.73004985
Ni       5.27542457       0.03664470      12.31867091       0.60000000       1.09780760      -0.94305998      -1.67674121      -0.00001962      -0.00018332      -0.00013142      -5.73011839
Ni       5.27894134       1.81018013      10.56500437       0.60000000      -1.63691314      -1.16940110       0.24073342       0.00007884       0.00018794      -0.00047918      -5.72994345
Ni       3.51041148       0.03368175      14.07274884       0.60000000       0.88222163      -0.47164958       0.13696587      -0.00038150      -0.00036940      -0.00047643      -5.73013818
Ni       3.51175518       1.80241860      15.82866995       0.60000000       1.05635199      -0.55934354      -1.53598179      -0.00008240      -0.00064738      -0.00035141      -5.73022264
Ni       5.27477763       0.03223189      15.82867723       0.60000000       0.09775194      -0.02082524       0.11477298      -0.00008301      -0.00028252      -0.00016858      -5.73022199
Ni       5.27843643       1.80701798      14.07560442       0.60000000       0.62154032       1.19008256      -2.44849093      -0.00017235      -0.00082565      -0.00073854      -5.73016387
Ni       3.50870890       0.03082532      17.58330303       0.60000000       0.27906763      -0.06325601      -1.64944608       0.00033332      -0.00080739      -0.00016822      -5.73023111
Ni       3.50816544       1.79930457      19.33882206       0.60000000       0.37125192       0.30320250       0.34240563       0.00006903      -0.00024935       0.00028816      -5.73029512
Ni       5.27259233       0.02873979      19.33824247       0.60000000      -0.87614880      -0.25353502       1.13394399       0.00038461      -0.00082195      -0.00003281      -5.73028678
Ni       5.27502575       1.80199342      17.58376290       0.60000000       0.68881464      -2.99022558       1.52938984       0.00032026       0.00038931       0.00011128      -5.73032230
Ni       3.50675408       0.02917486      21.09490707       0.60000000      -0.38617468      -1.43280717      -0.81789005      -0.00038248      -0.00057601       0.00028313      -5.73022288
Ni       3.50475325       1.79763270      22.85199776       0.60000000       0.30702458       1.96754803      -1.62836745       0.00020217      -0.00052464       0.00011613      -5.73026717
Ni       5.27016656       0.02719442      22.85049910       0.60000000       0.41158949      -1.28962963      -1.98989394      -0.00020712      -0.00013308       0.00075285      -5.73026538
Ni       5.27101235       1.79839690      21.09424994       0.60000000      -0.28773677       2.09665068       0.63285657       0.00006886      -0.00079644       0.00032665      -5.73036027
Ni       3.50486573       0.02907891      24.60989632       0.60000000       2.04185391       0.70629335      -0.06418751       0.00000849      -0.00031033       0.00050648      -5.73013794
Ni       3.50251853       1.79739265      26.36999434       0.60000000       0.59139335      -1.19853135       1.50414210      -0.00046519      -0.00088738       0.00019580      -5.73019814
Ni       5.26753429       0.02805892      26.36793718       0.60000000       0.14493478       0.30846051      -0.30121121       0.00004400      -0.00035862       0.00045358      -5.73018426
Ni       5.26740309       1.79672541      24.60949531       0.60000000      -0.23779883       0.26824207       0.50526971       0.00076073       0.00009282      -0.00029849      -5.73031396
Ni       3.50342279       0.03058420      28.13033366       0.60000000       1.39058505       0.85884451      -0.21257090      -0.00011316      -0.00093464       0.00012252      -5.73002177
Ni       3.50166155       1.79817931      29.89412398       0.60000000      -0.38907892      -0.93420412       0.60674723       0.00026749      -0.00081881      -0.00039085      -5.73011470
Ni       5.26528014       0.03089893      29.89183692       0.60000000      -1.31765189      -0.56938394       0.80677132       0.00018034      -0.00112758       0.00007705      -5.73003519
Ni       5.26513945       1.79741176      28.13053331       0.60000000      -0.73878892      -0.03337463       0.88717182       0.00001201      -0.00094300       0.00007068      -5.73025513
Ni       3.50256699       0.03300372      31.65690758       0.60000000      -0.15958276      -0.63373905       0.48404358       0.00017091      -0.00115980      -0.00037965      -5.72996122
Ni       3.50285477       1.80001365      33.42349438       0.60000000       0.36620990       1.79404897       0.75695121       0.00011402      -0.00059423      -0.00028414      -5.73000997
Ni       5.26446267       0.03467604      33.42145810       0.60000000       0.92521564       1.19602218      -1.63466968       0.00017633      -0.00052645      -0.00059590      -5.72996765
Ni       5.26439095       1.79944203      31.65800634       0.60000000      -2.57005223      -0.91042460       1.77565266       0.00065849      -0.00075698      -0.00041882      -5.73009825
Ni       3.50549707       3.56595609      -0.00906171       0.60000000       1.01497599      -3.41437439      -0.86054319       0.00008534       0.00013678      -0.00030480      -5.72998410
Ni       3.51012280       5.33165177       1.75908517       0.60000000       1.27703265      -1.13203988       0.76393122       0.00008408      -0.00020426       0.00053274      -5.72990322
Ni       5.27105523       3.57060365       1.75878625       0.60000000       1.51307997      -0.87710207      -0.44158435       0.00016391       0.00006171       0.00014735      -5.72986656
Ni       5.27030036       5.33174524      -0.00616890       0.60000000      -1.39581691      -0.39071917       0.51257660       0.00044550       0.00045312       0.00014124      -5.72999871
Ni       3.51088562       3.57017516       3.52211709       0.60000000       1.95446960      -2.71176817      -1.84858035       0.00026123      -0.00015870      -0.00000931      -5.72981340
Ni       3.51725391       5.33768404       5.28938360       0.60000000       0.45816433      -1.02113310       0.00724179       0.00044165       0.00008482       0.00033959      -5.72970366
Ni       5.27788997       3.57666245       5.28955057       0.60000000      -0.69121174       0.92874545      -1.70856681       0.00055164       0.00042873       0.00013665      -5.72966748
Ni       5.27830457       5.33870645       3.52876954       0.60000000       0.32405592       0.72132308       0.57638321       0.00050574       0.00036501       0.00049753      -5.72966808
Ni       3.51607093       3.57422731       7.04771711       0.60000000       2.29961756       0.05661500      -1.10944201       0.00059098       0.00035663       0.00012361      -5.72975791
Ni       3.52259349       5.34296715       8.81171363       0.60000000      -0.65024037      -0.70512415       1.16278165       0.00036249       0.00034564      -0.00019024      -5.72963089
Ni       5.28356977       3.58132588       8.81206777       0.60000000      -2.17734109       0.20257145      -1.80435228       0.00066774       0.00024590      -0.00022276      -5.72961533
Ni       5.28723284       5.34729290       7.05758168       0.60000000       0.07868348      -0.61164570       0.49439922       0.00066740       0.00039885       0.00038304      -5.72936040
Ni       3.51862007       3.57596383      10.56512358       0.60000000       0.84692929      -0.81385380       0.81455627      -0.00007606      -0.00004970      -0.00042903      -5.72984600
Ni       3.52348036       5.34459593      12.32461822       0.60000000      -1.18713319      -1.10563879      -0.18587218       0.00021481       0.00038474      -0.00031015      -5.72982538
Ni       5.28490544       3.58137433      12.32465601       0.60000000       0.91562509       0.03131010      -0.65409691       0.00001564       0.00026203      -0.00050498      -5.72988158
Ni       5.29241625       5.35308495      10.57559466       0.60000000      -2.38544469       0.56844084       0.35597160       0.00024028      -0.00025454      -0.00081939      -5.72939324
Ni       3.51703109       3.57414583      14.07563501       0.60000000      -0.75195204       0.25472348       0.62636124       0.00018482       0.00039442      -0.00033693      -5.73011166
Ni       3.51956256       5.34168948      15.83160496       0.60000000       0.62987323       0.92947692       0.84196565       0.00118230       0.00128423       0.00004236      -5.73003173
Ni       5.28133779       3.57701979      15.83144941       0.60000000       0.25415382      -0.89982055      -1.95234219       0.00058791      -0.00030527      -0.00029877      -5.73017538
Ni       5.29076181       5.35192807      14.08264355       0.60000000       0.62329257      -0.30337677       0.45387891       0.00129465       0.00124913       0.00071008      -5.72972000
Ni       3.51264967       3.57055721      17.58404826       0.60000000      -1.24374743      -1.38610550      -1.44044058       0.00025596      -0.00058780      -0.00026246      -5.73025644
Ni       3.51311933       5.33692261      19.33884190       0.60000000      -2.61312618       1.10913248      -0.23022749       0.00016530      -0.00049397      -0.00049840      -5.73021030
Ni       5.27546746       3.57090023      19.33883794       0.60000000      -0.86462483      -0.28097023       1.04732983       0.00068077       0.00014556      -0.00026958      -5.73033547
Ni       5.28430023       5.34556173      17.58633994       0.60000000       0.56316916       0.87155290      -0.61891720       0.00066725       0.00026672      -0.00013595      -5.73005784
Ni       3.50732161       3.56674166      21.09459159       0.60000000      -0.48548692       0.19603909       1.99599672       0.00048387      -0.00004663      -0.00009590      -5.73032808
Ni       3.50625389       5.33195814      22.85057719       0.60000000      -0.35657136      -0.18087018       1.02097301       0.00061976      -0.00033507      -0.00030058      -5.73034233
Ni       5.26994396       3.56652247      22.85102391       0.60000000       2.98739593       1.42999855       1.21327288       0.00049347      -0.00057394      -0.00043764      -5.73036182
Ni       5.27599369       5.33779642      21.09373657       0.60000000       0.33234464      -2.29321249       1.19740790       0.00089349      -0.00026545      -0.00072931      -5.73030806
Ni       3.50315640       3.56454637      24.60996620       0.60000000       0.98574178       0.27498924       1.45688833      -0.00028432      -0.00084849      -0.00038153      -5.73032570
Ni       3.50191525       5.32849556      26.36904350       0.60000000      -0.19786126      -1.02976443      -0.16574649       0.00002623      -0.00020893      -0.00072230      -5.73037463
Ni       5.26624260       3.56451464      26.36929281       0.60000000      -1.09019220      -0.30903331      -0.66076987       0.00021657      -0.00055424      -0.00082707      -5.73035151
Ni       5.26946585       5.33219880      24.60812512       0.60000000       1.73219135       0.91112455      -0.30479743       0.00072070       0.00008613      -0.00049805      -5.73041338
Ni       3.50117326       3.56335612      28.13140777       0.60000000       0.41168197      -0.57939549      -0.59654874       0.00000390       0.00013115      -0.00046524      -5.73026079
Ni       3.50143875       5.32701359      29.89429282       0.60000000      -1.00927729       0.76467451      -0.51981464      -0.00076693      -0.00004959      -0.00044870      -5.73024833
Ni       5.26473663       3.56427982      29.89414076       0.60000000       1.69237128      -0.74151694       1.47900557       0.00063092       0.00006959      -0.00062804      -5.73025495
Ni       5.26618127       5.32927785      28.13004345       0.60000000      -0.16167119       0.92396839      -1.66848031       0.00005204       0.00027947      -0.00032078      -5.73039085
Ni       3.50198421       3.56381263      31.65911616       0.60000000      -0.42886390      -1.23564156       1.91408425       0.00026094      -0.00053103      -0.00056048      -5.73014039
Ni       3.50417522       5.32759117      33.42564441       0.60000000       0.89087005      -0.41550869      -0.47864069       0.00042694       0.00092375      -0.00062078      -5.73010546
Ni       5.26621515       3.56626240      33.42508950       0.60000000      -0.27702134      -0.68554400       1.28613876       0.00040266      -0.00043404      -0.00027835      -5.73008162
Ni       5.26619935       5.32893842      31.65907394       0.60000000       0.70439417      -0.86214367      -0.16444747       0.00070936      -0.00014983       0.00038881      -5.73019820
Ni       3.50796600       7.09071086      -0.00640043       0.60000000      -0.67683871      -1.50661288      -0.60450924       0.00046706       0.00077956       0.00018343      -5.73002362
Ni       3.51275834       8.85331621       1.76261919       0.60000000       1.39234676      -0.98477194      -0.92254619       0.00054108       0.00045456      -0.00017374      -5.72990263
Ni       5.27652820       7.09700201       1.76425657       0.60000000       2.05616245      -1.71744760      -0.90465441       0.00082356       0.00066869       0.00008615      -5.72981876
Ni       5.27361295       8.85333074      -0.00366683       0.60000000       0.06659150       0.79776724      -0.51486535       0.00095035       0.00076061      -0.00015903      -5.72997117
Ni       3.51600328       7.09694673       3.52772946       0.60000000      -0.48280843      -1.32552330       0.14071015       0.00038046       0.00008581       0.00058467      -5.72977525
Ni       3.52222771       8.86132227       5.29566313       0.60000000       1.80641251      -0.96955962      -0.18355959       0.00042395       0.00008958       0.00078694      -5.72964823
Ni       5.28779847       7.10709442       5.29900157       0.60000000       0.26157778       0.52059214      -1.31827215       0.00045429       0.00034266       0.00080208      -5.72934765
Ni       5.28479873       8.86210585       3.53530592       0.60000000      -0.52988736       0.01405785      -0.58700824       0.00017997      -0.00020968       0.00032371      -5.72957009
Ni       3.52407021       7.10465193       7.05577781       0.60000000      -0.66126563      -0.05419504      -1.89669934       0.00062645       0.00034147       0.00034873      -5.72956347
Ni       3.53039391       8.86983947       8.82017754       0.60000000       0.63744400       0.17648630       2.13205071       0.00078373       0.00063256       0.00063650      -5.72949666
Ni       5.29787215       7.11779792       8.82458114       0.60000000       1.28751725      -2.66693195       0.63628783       0.00037356       0.00045157       0.00015914      -5.72902906
Ni       5.29846388       8.87466588       7.06827231       0.60000000      -0.06603821       1.39729397       1.47571179       0.00035711       0.00001406       0.00029206      -5.72904640
Ni       3.52877837       7.11051874      10.57394254       0.60000000      -0.41053292      -1.28298030       0.35270383       0.00031367       0.00082566      -0.00020546      -5.72955155
Ni       3.53395293       8.87565256      12.33392173       0.60000000      -1.63946374       1.09746358      -0.99296900       0.00112750       0.00052261       0.00031266      -5.72938490
Ni       5.30127198       7.12391626      12.33722958       0.60000000      -1.69841673       0.14387607       0.68313943       0.00128335      -0.00007528      -0.00008381      -5.72906429
Ni       5.30854502       8.88676602      10.58943935       0.60000000       1.16810384      -1.20045763       1.91167421       0.00047188       0.00029604       0.00062940      -5.72868907
Ni       3.52765301       7.11146359      14.08237615       0.60000000       1.94776750      -0.73080203       0.51071418       0.00145401       0.00078504      -0.00010498      -5.72964847
Ni       3.53083564       8.87510209      15.83817694       0.60000000       0.58946634      -1.05926724      -0.90028997      -0.00046065       0.00001273      -0.00055001      -5.72953182
Ni       5.29679398       7.12102836      15.83926531       0.60000000      -0.27775152      -0.48392206      -0.09380714       0.00134284      -0.00010514       0.00071066      -5.72939640
Ni       5.31040095       8.89252941      14.09711531       0.60000000      -0.88727790       0.68701238       1.43161856       0.00025030      -0.00028003      -0.00088920      -5.72851634
Ni       3.52142965       7.10692811      17.58631164       0.60000000      -0.55618047       1.67257147       0.13313702       0.00075566       0.00089372      -0.00030535      -5.72991842
Ni       3.52104770       8.86790196      19.33969381       0.60000000      -1.17303096       0.46195080      -1.66846401      -0.00073910       0.00059324      -0.00041039      -5.72983992
Ni       5.28694160       7.11165580      19.34017608       0.60000000       1.68650027      -1.49392423      -1.42621238       0.00060557       0.00006221       0.00090273      -5.72991353
Ni       5.30231063       8.88676075      17.59412475       0.60000000      -1.57471503       0.24339047      -1.07692911      -0.00022496      -0.00085683      -0.00068811      -5.72881293
Ni       3.51244160       7.10012475      21.09315494       0.60000000      -0.95069637       0.15734522      -0.75234875       0.00066220       0.00021091       0.00019562      -5.73022002
Ni       3.51014596       8.85887828      22.84823370       0.60000000       1.00488746      -0.17377015      -2.37980243      -0.00104337      -0.00036105       0.00088933      -5.73013479
Ni       5.27627729       7.10153239      22.84841166       0.60000000       0.43116342       1.25942057       0.23888972      -0.00042654      -0.00015519      -0.00031638      -5.73019046
Ni       5.28758228       8.87355015      21.09311786       0.60000000       1.26943774      -1.23613191      -0.14154514       0.00172971       0.00054467       0.00059650      -5.72853905
Ni       3.50467566       7.09344867      24.60748756       0.60000000      -1.57070396       1.34140107      -0.26208866       0.00039855       0.00029394       0.00010957      -5.73047113
Ni       3.50309947       8.85192410      26.36636281       0.60000000      -0.84810032       0.47689195       0.26238295      -0.00126138      -0.00194938       0.00108554      -5.73058134
Ni       5.26923257       7.09442352      26.36635193       0.60000000       1.06301590       0.28689014       0.51116689      -0.00038158       0.00015927       0.00017180      -5.73041034
Ni       5.27450116       8.86022967      24.60445107       0.60000000       0.54365035       0.03923451      -0.11731477       0.00237357       0.00196515      -0.00073152      -5.72935194
Ni       3.50142092       7.08960575      28.12969859       0.60000000       0.32483152       0.43619413      -1.09148341       0.00004070       0.00008809       0.00045608      -5.73044717
Ni       3.50194346       8.84854214      29.89289284       0.60000000      -0.50518910       0.49769661      -0.14564213      -0.00051155      -0.00057577       0.00051930      -5.73045516
Ni       5.26709847       7.09130019      29.89261032       0.60000000       1.46985792       0.02538281       1.90796040      -0.00075944      -0.00075210       0.00084085      -5.73041135
Ni       5.26864697       8.85303193      28.12689668       0.60000000      -0.21358865       2.63072325       2.03256663       0.00080427       0.00035189       0.00019850      -5.73023653
Ni       3.50290153       7.08837764      31.65919465       0.60000000      -1.79161962      -0.25175340       0.25040263      -0.00045338       0.00055067       0.00014100      -5.73019981
Ni       3.50559136       8.84865411      33.42628896       0.60000000      -0.77053680       1.29110383       1.32242659      -0.00013714       0.00126286      -0.00047633      -5.73011315
Ni       5.26914779       7.09146065      33.42665150       0.60000000      -0.79563707       1.65779321       1.44583517       0.00084357       0.00062025      -0.00029767      -5.73010433
Ni       5.26868725       8.85067088      31.65821745       0.60000000       0.89100836       1.31694284       1.06825844      -0.00062453       0.00019729       0.00070604      -5.73034090
Ni       3.50903303      10.60869203      -0.00533686       0.60000000      -0.73276585       0.89023897       0.68875916       0.00012184       0.00014078      -0.00042270      -5.73001862
Ni       3.51260165      12.36768905       1.76331816       0.60000000       2.82452002      -1.87411228       1.02407392      -0.00034183      -0.00048929      -0.00023074      -5.73001707
Ni       5.27960637      10.61481905       1.76708769       0.60000000      -1.07814627      -0.26248450      -0.75403320       0.00050570      -0.00018492       0.00000621      -5.72985709
Ni       5.27477711      12.36777089      -0.00385272       0.60000000      -0.13988454      -0.57298064      -0.30670948       0.00019210      -0.00025943      -0.00019265      -5.73006773
Ni       3.51777442      10.61489651       3.53127079       0.60000000       1.56484302      -0.36843818       1.02846771      -0.00000380      -0.00039432       0.00018801      -5.72983629
Ni       3.52186311      12.37445005       5.29816557       0.60000000      -0.37490128       1.00850691       0.45926632      -0.00034753      -0.00087342      -0.00001916      -5.72988826
Ni       5.29400568      10.62589575       5.30546724       0.60000000      -0.22480633      -0.76351660      -0.38926348      -0.00012688      -0.00075965      -0.00006423      -5.72938579
Ni       5.28637317      12.37503384       3.53737505       0.60000000      -0.47940908      -1.79127826      -0.60915484       0.00038736      -0.00057758      -0.00005046      -5.72980654
Ni       3.52772999      10.62362953       7.06160336       0.60000000       1.15874215       0.24339046       0.41922315       0.00005469      -0.00038736       0.00069590      -5.72963864
Ni       3.53119791      12.38254612       8.82436798       0.60000000      -1.17288363       0.96906534      -0.70181017       0.00021074      -0.00006505       0.00025719      -5.72973472
Ni       5.30885099      10.63974731       8.83492728       0.60000000       0.11246442       0.43784483       0.45055439      -0.00014628      -0.00002508      -0.00061393      -5.72885972
Ni       5.30248891      12.38677229       7.07263486       0.60000000      -1.98328157       1.55711499      -3.04399790      -0.00000766       0.00002979      -0.00038495      -5.72932124
Ni       3.53518872      10.63184611      10.58177517       0.60000000       0.20353093      -0.28411962       2.05452754       0.00101806       0.00097317       0.00112647      -5.72945368
Ni       3.53742195      12.38924768      12.34017311       0.60000000       0.07675097       0.13393671      -1.55977686       0.00035374       0.00110405       0.00123111      -5.72946340
Ni       5.31839850      10.65232380      12.35174026       0.60000000      -0.14116876       0.63265720      -0.30899249      -0.00002128       0.00038898      -0.00034498      -5.72822857
Ni       5.31694876      12.40029350      10.59749396       0.60000000      -0.20907781      -1.36079625      -0.57059068       0.00027607       0.00075633      -0.00060808      -5.72868222
Ni       3.53731551      10.63657130      14.09131768       0.60000000       0.34330083       0.71983484       0.68516321      -0.00049509       0.00019694      -0.00049130      -5.72932714
Ni       3.53547902      12.39116608      15.84505952       0.60000000      -0.59502873       0.23721554      -0.11522656      -0.00008251       0.00060034       0.00068309      -5.72911566
Ni       5.31808591      10.65654984      15.85431042       0.60000000      -1.40227021       1.03949871      -0.08838260      -0.00076309      -0.00029835      -0.00122749      -5.72748506
Ni       5.32563224      12.41176662      14.11082484       0.60000000       0.70378329      -1.88383787       0.30146157      -0.00059508       0.00038778      -0.00187810      -5.72749567
Ni       3.52963241      10.63300377      17.59125361       0.60000000      -0.13046324      -1.17078333      -0.90547663       0.00064439       0.00092591       0.00037702      -5.72925025
Ni       3.52144974      12.38375704      19.34265483       0.60000000      -0.61150233       1.51951373      -0.26360421      -0.00029116       0.00056832       0.00054517      -5.72847342
Ni       5.30381119      10.64605254      19.34565364       0.60000000      -0.32993468      -0.05234419      -0.50350600      -0.00149162       0.00055144       0.00260445      -5.72635466
Ni       5.31948501      12.41183338      17.60745531       0.60000000       1.65846971      -0.70141685      -0.83070746      -0.00063786      -0.00022556      -0.00163086      -5.72521150
Ni       3.51527900      10.62185839      21.09319194       0.60000000      -0.28511704      -0.40708727      -0.18402260       0.00126942       0.00262860       0.00018366      -5.72917825
Ni       3.50744522      12.37278698      22.84915289       0.60000000       0.68014257       0.48537463       0.53065910       0.00015814       0.00094154      -0.00118671      -5.72800386
Ni       5.28502579      10.62893813      22.84692554       0.60000000       0.49399284       0.74563119       2.57458566       0.00055135       0.00245016      -0.00020430      -5.72597975
Ni       5.29275905      12.39247453      21.09725830       0.60000000      -0.66719296      -0.54273290      -1.54503675       0.00318955       0.00358771       0.00046010      -5.73736805
Ni       3.50589495      10.61321088      24.60560691       0.60000000      -0.36923896       0.22946004      -0.22123190       0.00013740       0.00119095       0.00008500      -5.72962832
Ni       3.50320521      12.36714690      26.36502617       0.60000000      -1.16546646       0.23158704       1.00283945       0.00120668      -0.00012318       0.00002873      -5.72941756
Ni       5.27216859      10.61528185      26.36311045       0.60000000       1.22912058      -1.19297452      -1.24419270      -0.00038849      -0.00075937      -0.00185492      -5.72884357
Ni       5.27858089      12.37807008      24.60217170       0.60000000      -0.36018688       2.66943795      -0.63335583       0.00185128       0.00252171      -0.00295085      -5.72826487
Ni       3.50218291      10.60805836      28.12787531       0.60000000      -0.48084765       0.36235928      -1.44058632      -0.00133730       0.00005247       0.00026683      -5.73052883
Ni       3.50306022      12.36413113      29.89084166       0.60000000       0.78737362      -0.06798960      -0.64025160      -0.00021366       0.00036494       0.00087969      -5.73039019
Ni       5.26881128      10.60962857      29.89028129       0.60000000      -0.96160605       1.26263460       2.54960451       0.00055994       0.00040793       0.00039453      -5.73017943
Ni       5.27100309      12.36863692      28.12329528       0.60000000      -1.03156443      -1.23010855       1.14336675      -0.00052863       0.00094804       0.00223722      -5.72903079
Ni       3.50357955      10.60634148      31.65836937       0.60000000       0.05390651       0.07837618      -1.19541804       0.00020927       0.00088652      -0.00041743      -5.73032790
Ni       3.50611459      12.36415637      33.42517367       0.60000000      -1.19585144       0.09572775       0.33211489      -0.00042245       0.00032524       0.00046978      -5.73016566
Ni       5.27115309      10.60940401      33.42640137       0.60000000      -0.97988457       1.14773860      -0.01086058       0.00017274      -0.00021516       0.00034191      -5.73017716
Ni       5.27012332      12.36571068      31.65608181       0.60000000      -0.74434178      -2.10198037       2.07995742      -0.00039897       0.00074109      -0.00018729      -5.73025292
Ni       3.50851751      14.12122325      -0.00674791       0.60000000      -0.52283987      -0.16483392       0.99531890      -0.00069968       0.00000961      -0.00049215      -5.73012698
Ni       3.50998940      15.87730631       1.76098696       0.60000000       0.15248544       0.18941972      -1.70960002      -0.00043304      -0.00003292       0.00021012      -5.73017967
Ni       5.27893942      14.12522126       1.76615457       0.60000000      -0.40850967      -1.79860377      -0.80302344       0.00046696      -0.00042678      -0.00023540      -5.73007435
Ni       5.27397718      15.87736379      -0.00689060       0.60000000      -0.18328852      -1.06848401       0.21476543      -0.00077433      -0.00008056       0.00015216      -5.73019129
Ni       3.51518750      14.12512008       3.53078922       0.60000000      -0.14642905      -0.42775204      -0.10031842      -0.00000864      -0.00050617       0.00007026      -5.73010129
Ni       3.51629957      15.88062627       5.29559974       0.60000000       0.26890719       1.56886002       0.33998402      -0.00057318      -0.00047510       0.00077500      -5.73018241
Ni       5.29252495      14.13282767       5.30490112       0.60000000       0.83060990       1.43415000       0.67136442       0.00072247       0.00021755       0.00094294      -5.72976190
Ni       5.28270856      15.88120067       3.53430500       0.60000000      -1.73705508      -0.79579692       1.05326663       0.00119769      -0.00017011       0.00103191      -5.73004788
Ni       3.52397344      14.13113808       7.06183567       0.60000000       0.64269344       0.86396122       1.15335412      -0.00037031      -0.00064187      -0.00007434      -5.73001230
Ni       3.52330659      15.88467917       8.82173280       0.60000000       0.21947308       0.73864894      -0.31888546       0.00063640      -0.00045584       0.00013365      -5.73015100
Ni       5.30806844      14.14342775       8.83513183       0.60000000      -1.99142796       0.28768480       1.83174944       0.00062175      -0.00013231       0.00000385      -5.72934669
Ni       5.29626029      15.88750416       7.06826058       0.60000000       1.73783631      -1.78867025      -2.29734557       0.00000230      -0.00004218       0.00073154      -5.72983080
Ni       3.53177802      14.13728119      10.58342800       0.60000000       0.00961830      -2.10765357      -1.59097118       0.00031454      -0.00004589      -0.00044653      -5.72983897
Ni       3.52868327      15.88790591      12.33864945       0.60000000       0.69587825       0.57761250      -1.33992512       0.00059009       0.00012783       0.00020883      -5.73015910
Ni       5.32095478      14.15437734      12.35578073       0.60000000       1.29830805       0.23788680      -0.62965998      -0.00074818       0.00104832      -0.00132882      -5.72871280
Ni       5.30931845      15.89476802      10.59287958       0.60000000      -0.11467539      -2.15259118       2.02526039      -0.00016473       0.00010978      -0.00009793      -5.72960055
Ni       3.53496424      14.14108924      14.09484938       0.60000000      -1.52579004       0.07255540      -1.22672056       0.00015499       0.00064106       0.00103136      -5.72968960
Ni       3.52610155      15.88907721      15.84494034       0.60000000      -2.43426442       0.93832889       1.00180518       0.00080679      -0.00081503       0.00167190      -5.72938883
Ni       5.32566447      14.16097298      15.86479897       0.60000000       1.69634723      -0.29331064       0.91554833      -0.00166332       0.00147373       0.00056238      -5.72543854
Ni       5.31748837      15.90077817      14.10924597       0.60000000       0.89354732       0.25963723       0.38345963       0.00075418       0.00132833      -0.00062994      -5.72794855
Ni       3.52589068      14.13924622      17.59538822       0.60000000       0.33102762       0.42329437       0.46196877      -0.00082601       0.00111835       0.00011524      -5.72850138
Ni       3.51393695      15.88532976      19.34551938       0.60000000       1.46806328      -1.41107076       1.05153342       0.00097487      -0.00047798       0.00097495      -5.73065686
Ni       5.30650046      14.15379711      19.35491495       0.60000000      -0.97643528       1.48897410       0.58827936       0.00161581      -0.00110331       0.00025603      -5.74565601
Ni       5.31009621      15.90151153      17.60907971       0.60000000       0.14646602       1.65701876      -0.05550271       0.00422328       0.00108088       0.00168316      -5.73685116
Ni       3.51042936      14.13099219      21.09541039       0.60000000       0.80474352      -0.82074709      -0.04482500       0.00180840       0.00280066      -0.00010137      -5.73060614
Ni       3.50489604      15.87933091      22.84911642       0.60000000      -1.15896338      -1.52625194       3.01123435       0.00249319      -0.00022380      -0.00357695      -5.73084688
Ni       5.28249685      14.13627713      22.84770863       0.60000000       1.53776817      -2.98982146      -1.29683372       0.00435057      -0.00018306       0.00026610      -5.75138181
Ni       5.29416128      15.88847520      21.09885338       0.60000000      -0.85888828      -0.66144343      -1.42772710       0.00183801      -0.00112465      -0.00147997      -5.74439675
Ni       3.50361037      14.12383043      24.60600815       0.60000000       0.96080841       1.59152424      -1.37338980      -0.00055293       0.00207601      -0.00129339      -5.72804826
Ni       3.50602416      15.87729665      26.36196361       0.60000000       0.43597298       0.83511091       0.65051356       0.00274543       0.00048572      -0.00230366      -5.72869843
Ni       5.27724766      14.12716581      26.35813554       0.60000000       0.03169669       0.94977083       0.44366109      -0.00107483       0.00156674      -0.00318209      -5.72875798
Ni       5.28163425      15.87961735      24.59724970       0.60000000      -0.25936232       3.02333416       0.05588222       0.00418125      -0.00011930      -0.00286612      -5.74264872
Ni       3.50459930      14.12175460      28.12493935       0.60000000      -0.06531138      -0.39237008       1.19499527      -0.00063116       0.00018802      -0.00070954      -5.72980440
Ni       3.50720973      15.87652248      29.88566721       0.60000000      -1.24532912      -0.19073855       1.58077452      -0.00018289       0.00007865       0.00069111      -5.73009956
Ni       5.27147614      14.12289383      29.88613649       0.60000000       0.17995140       0.49497212       0.35197851       0.00206302       0.00104903      -0.00189379      -5.72951078
Ni       5.27916469      15.87910626      28.11425140       0.60000000      -0.42748623       2.02680922       0.48410499       0.00224629      -0.00190996      -0.00099882      -5.72741663
Ni       3.50504145      14.12027391      31.65554307       0.60000000       2.46760354       0.64756466      -0.49835291       0.00005698       0.00069400      -0.00016793      -5.73025346
Ni       3.50674438      15.87582935      33.42199822       0.60000000       0.33346897      -0.37231639       0.57735519       0.00022968       0.00031577      -0.00043279      -5.73013848
Ni       5.27185070      14.12184565      33.42393475       0.60000000       0.56158208      -0.22020718      -0.39393752       0.00059250      -0.00003624      -0.00088076      -5.73021847
Ni       5.27320230      15.87686091      31.65048622       0.60000000       1.44555441       0.52483027       2.20349170      -0.00130494       0.00024972       0.00035871      -5.73007250
Ni       3.50724693      17.63103077      -0.01027159       0.60000000       2.08267028       1.34062656      -0.27035773      -0.00003909       0.00030359      -0.00046152      -5.73016644
Ni       3.50668364      19.38632225       1.75693931       0.60000000       1.11170887       1.18990179      -0.88309747      -0.00047342      -0.00035572      -0.00049462      -5.73023969
Ni       5.27556464      17.63243707       1.76179829       0.60000000      -0.15237744      -0.47083357      -0.11361488       0.00019498      -0.00022298       0.00058420      -5.73019838
Ni       5.27207635      19.38553588      -0.01214294       0.60000000       1.77151887      -0.25759236      -1.65574318       0.00059777       0.00009977      -0.00064846      -5.73024744
Ni       3.51019244      17.63239440       3.52713091       0.60000000      -0.76093204       2.94214956      -0.06033591      -0.00054594      -0.00018626       0.00042011      -5.73025423
Ni       3.50880222      19.38663271       5.29047086       0.60000000       1.80719461      -1.90242827      -0.10688282       0.00022966      -0.00019165       0.00072923      -5.73032939
Ni       5.28503236      17.63541438       5.29911151       0.60000000       0.67579092       0.07131092      -1.24833902      -0.00004698      -0.00087619       0.00108901      -5.73008704
Ni       5.27641706      19.38698124       3.52818202       0.60000000       1.35242804       1.43399974      -0.34738019      -0.00027316      -0.00081484       0.00037674      -5.73024726
Ni       3.51512458      17.63424715       7.05704229       0.60000000      -1.08643391      -2.68851288      -0.96935536       0.00035022      -0.00077137       0.00105193      -5.73028773
Ni       3.51263542      19.38675247       8.81551869       0.60000000      -0.11356418       1.04838708      -1.10815131      -0.00060804      -0.00119792      -0.00062215      -5.73039651
Ni       5.29605303      17.63889723       8.82693149       0.60000000       1.95094756       0.40654383       0.50984026       0.00005038      -0.00035310       0.00109935      -5.73013180
Ni       5.28447607      19.38807809       7.05969451       0.60000000       1.98851282      -0.86634609       0.60890182       0.00010685      -0.00072335       0.00106796      -5.73027861
Ni       3.52023519      17.63576888      10.57825280       0.60000000      -0.42075131       1.04500737      -1.91311798       0.00092514      -0.00056226      -0.00047074      -5.73034072
Ni       3.51574881      19.38598345      12.33211284       0.60000000      -1.31046455       2.90056361       1.91744796      -0.00037825      -0.00037781      -0.00183020      -5.73039907
Ni       5.30500515      17.64146743      12.34627641       0.60000000       2.31287663       0.14622252      -0.02053702       0.00045839      -0.00006347       0.00130784      -5.72947228
Ni       5.29241030      19.38797766      10.58186596       0.60000000      -1.44411783       0.66509458       0.12064224      -0.00136674       0.00021234      -0.00002189      -5.73034108
Ni       3.52276905      17.63641474      14.09082744       0.60000000       0.19557986      -0.13082264      -0.37688574      -0.00222851       0.00041821      -0.00035767      -5.73012859
Ni       3.51488683      19.38529263      15.84095309       0.60000000       1.15862860      -0.89745390      -0.03193952       0.00063114      -0.00017003       0.00040520      -5.72907156
Ni       5.30852143      17.64325878      15.85803442       0.60000000       1.50093828       0.01626574       0.50072359      -0.00086119      -0.00081872       0.00183246      -5.72560424
Ni       5.29751191      19.38659264      14.09729506       0.60000000       1.11622304       0.57216707      -1.47746775       0.00117204       0.00039293      -0.00039451      -5.72774971
Ni       3.51529159      17.63607679      17.59433578       0.60000000      -1.15604864      -0.71997534       0.10775769       0.00054342      -0.00009818       0.00080983      -5.72803319
Ni       3.51012779      19.38402367      19.34444983       0.60000000      -0.68455658       0.37876840      -2.68432387       0.00087485      -0.00086329       0.00172277      -5.72779840
Ni       5.29695721      17.63776970      19.35326095       0.60000000      -2.40423613      -1.15285725       0.24894671       0.00404793      -0.00165615      -0.00048340      -5.75024515
Ni       5.29703557      19.38408908      17.60324416       0.60000000       0.18635395       1.50131718      -0.94205077       0.00147312       0.00000963      -0.00088652      -5.72879541
Ni       3.50807153      17.63190267      21.09632398       0.60000000      -0.45630599       0.84985729       3.10551095       0.00156763      -0.00216237      -0.00068328      -5.73059440
Ni       3.51210935      19.37982574      22.84699872       0.60000000      -1.96235634       0.40140341       0.29036227       0.00106075      -0.00076253      -0.00178369      -5.72858393
Ni       5.29205144      17.62499302      22.84057659       0.60000000       0.11660250      -1.16056058      -0.28005407       0.00298637      -0.00013841       0.00032176      -5.74804753
Ni       5.29586854      19.37520730      21.09470855       0.60000000       1.76457494       0.81007447      -1.35380690       0.00465171      -0.00243623      -0.00110167      -5.74181032
Ni       3.50872012      17.62974806      24.60162652       0.60000000       0.35622109       0.74510394       0.12564916       0.00174054      -0.00185724      -0.00262017      -5.72855115
Ni       3.51793177      19.37960081      26.35279503       0.60000000       1.66481914       0.04630377      -2.65303095      -0.00024483       0.00003373       0.00002182      -5.72970766
Ni       5.29370155      17.62679236      26.34261849       0.60000000       2.28178310      -0.02327733      -0.16466947      -0.00097578      -0.00247520      -0.00367371      -5.72592437
Ni       5.30595760      19.36570173      24.58145055       0.60000000       0.20098608       1.30298114      -0.97166033       0.00153881      -0.00083648      -0.00215458      -5.72470927
Ni       3.51233184      17.63025836      28.11710989       0.60000000       0.13344828       0.46125553      -0.68665417      -0.00057947       0.00085619      -0.00041914      -5.72978330
Ni       3.51403929      19.38324707      29.87839385       0.60000000       0.22744008      -2.51207170       0.21569257       0.00032078       0.00088676      -0.00041827      -5.72984499
Ni       5.28013177      17.63036580      29.87571536       0.60000000      -0.20221546       0.02619356       1.08081996       0.00044519      -0.00055654      -0.00124397      -5.72937280
Ni       5.29383800      19.37666146      28.09933340       0.60000000      -0.74725477      -0.60493028      -0.15593857       0.00039870      -0.00179514       0.00085470      -5.72808450
Ni       3.50870950      17.63059397      31.64998121       0.60000000      -1.46029023       0.29535664       0.49780770      -0.00020731       0.00009576       0.00002308      -5.73006922
Ni       3.50817964      19.38518806      33.41703333       0.60000000      -0.30726858      -0.46812252       1.24117517      -0.00062165       0.00095214       0.00027170      -5.73008126
Ni       5.27281050      17.63073033      33.41872986       0.60000000       0.52741586      -0.11626503      -0.09451081       0.00061471       0.00071837      -0.00060520      -5.73023021
Ni       5.27778655      19.38314186      31.64252033       0.60000000      -0.45781888      -3.22990525      -1.80356160      -0.00074331       0.00028903      -0.00003035      -5.72998017
Ni       3.50634078      21.14109045      -0.01488545       0.60000000      -1.41443416       0.82074661       0.80679619      -0.00066324       0.00029948      -0.00019190      -5.73016661
Ni       3.50395119      22.89805531       1.75212344       0.60000000       1.42010690       0.32969066      -0.32941517      -0.00062061      -0.00002240       0.00037284      -5.73028970
Ni       5.27119463      21.14118388       1.75574057       0.60000000      -0.76137296      -0.32515364      -0.91117850      -0.00022647      -0.00082084      -0.00054815      -5.73034126
Ni       5.27004318      22.89597948      -0.01796198       0.60000000      -0.40820924      -0.83171124      -0.86332422      -0.00016407       0.00054681      -0.00021538      -5.73028338
Ni       3.50505054      21.14159007       3.52203941       0.60000000      -0.45542882      -1.01583553       1.95895378      -0.00012397       0.00000402       0.00068228      -5.73033947
Ni       3.50340485      22.89748052       5.28493040       0.60000000       0.67067775       1.11964094       0.07497718      -0.00088106      -0.00030712       0.00048628      -5.73036391
Ni       5.27572305      21.14131780       5.29093484       0.60000000       1.10075776      -0.03959906       1.23967561       0.00014689      -0.00114312       0.00168754      -5.73034090
Ni       5.26987859      22.89746775       3.52085146       0.60000000      -1.72474094      -2.07898522       0.23238193      -0.00014734      -0.00046474       0.00117123      -5.73040891
Ni       3.50678995      21.14080927       7.05107330       0.60000000      -0.66017337      -0.04266309       0.44755689      -0.00028197      -0.00062235       0.00009793      -5.73039347
Ni       3.50485943      22.89562973       8.80914959       0.60000000       0.23512648      -0.93718973      -0.18049418      -0.00001884      -0.00146990       0.00011633      -5.73045278
Ni       5.28196688      21.14030834       8.81695241       0.60000000       1.15593723      -1.51277174      -1.18254625      -0.00020381      -0.00093838       0.00110694      -5.73053300
Ni       5.27441840      22.89611654       7.05103746       0.60000000      -0.97279633       1.47722459       0.05302639      -0.00074144      -0.00065098       0.00063080      -5.73042846
Ni       3.50934214      21.13930160      10.57100580       0.60000000      -0.03432241      -0.07764621      -0.06846935      -0.00065419      -0.00129969      -0.00020472      -5.73053688
Ni       3.50677659      22.89266534      12.32534179       0.60000000       1.56350750      -0.44002213       0.00030557      -0.00050829       0.00014121      -0.00096396      -5.73060262
Ni       5.28651316      21.13740298      12.33390020       0.60000000       0.02893950      -1.09212649      -2.35547153       0.00042312      -0.00066206       0.00138322      -5.72977751
Ni       5.27965664      22.89304595      10.57254805       0.60000000       1.64692996      -0.78711787      -1.83368598      -0.00162565      -0.00104610       0.00072978      -5.73057061
Ni       3.51110723      21.13710119      14.08402826       0.60000000      -0.00519514       0.64527501       2.38588672      -0.00008199       0.00024311       0.00007607      -5.73010123
Ni       3.50896136      22.88999782      15.83627988       0.60000000      -1.06115767      -1.13988431       1.26550091       0.00054413       0.00035897      -0.00076395      -5.72992545
Ni       5.29064838      21.13321672      15.84584381       0.60000000       1.49220555       1.03044748      -0.25314968       0.00093479      -0.00184100       0.00019735      -5.72962350
Ni       5.28251954      22.88819439      14.08599499       0.60000000      -1.21685675      -0.28421034       1.16915804      -0.00023201      -0.00153564      -0.00083828      -5.72946006
Ni       3.51124236      21.13569981      17.59153438       0.60000000      -1.05127794      -1.44132618       2.51832691      -0.00051652      -0.00068123       0.00097327      -5.72897059
Ni       3.51310018      22.88666680      19.34277641       0.60000000      -0.91176553       0.46718711      -2.21865343       0.00003335      -0.00016080      -0.00056310      -5.72951871
Ni       5.29527648      21.12621277      19.34641969       0.60000000       0.14922527      -1.14884613      -0.55410316      -0.00126168      -0.00136761      -0.00038896      -5.72969651
Ni       5.28950573      22.88101847      17.59382187       0.60000000       1.37250174       0.16397849       0.13611673       0.00019279       0.00000253      -0.00104269      -5.73010796
Ni       3.51354918      21.13249301      21.09532677       0.60000000       0.44075607      -0.78311032      -0.96245064       0.00269229      -0.00256263       0.00025321      -5.72880387
Ni       3.52154502      22.88127797      22.84503997       0.60000000      -0.50898920      -0.50671361       0.22996577       0.00012114      -0.00062965       0.00049012      -5.72993970
Ni       5.30933803      21.11332522      22.83566667       0.60000000      -0.12369872      -1.61928013      -0.83673250      -0.00036381      -0.00257237      -0.00375522      -5.72561812
Ni       5.30107321      22.87114901      21.09055770       0.60000000      -0.03652941       0.72608217      -0.83414999       0.00054317      -0.00053669      -0.00165351      -5.72707242
Ni       3.52173248      21.12804735      24.59627822       0.60000000      -0.26401553       0.54930292      -1.14751544       0.00027062       0.00008614      -0.00116994      -5.72965890
Ni       3.52531879      22.88172263      26.35040623       0.60000000      -1.69458791      -0.92492431       2.28176150       0.00019238      -0.00029257      -0.00044967      -5.72957653
Ni       5.30791817      21.11604347      26.33196200       0.60000000      -1.94569157       1.62191918      -0.04976813      -0.00157597       0.00077517      -0.00041232      -5.72685897
Ni       5.31119988      22.86340730      24.58121718       0.60000000      -1.02785040      -1.75296231       0.34418804       0.00021396       0.00065240      -0.00022769      -5.72727877
Ni       3.52081960      21.13255220      28.11027422       0.60000000      -1.53109742       1.49865373      -1.70220491       0.00055731      -0.00025231       0.00091763      -5.72966999
Ni       3.51830637      22.88922861      29.87481211       0.60000000       0.58876905       0.17013673      -1.39548963       0.00011746       0.00029776      -0.00037223      -5.72948283
Ni       5.28800190      21.13046821      29.86573577       0.60000000       0.13856595       1.84254112      -0.26976724      -0.00056793       0.00141882       0.00039682      -5.72911197
Ni       5.29897125      22.87446741      28.09544705       0.60000000       0.73379117       0.85108447      -0.30393973       0.00018018      -0.00003962       0.00010947      -5.72812623
Ni       3.51234533      21.13831939      31.64460365       0.60000000       0.58298678      -0.90581032       2.15444864       0.00031547       0.00020788      -0.00067495      -5.72980779
Ni       3.50877238      22.89573847      33.41325837       0.60000000       1.90907404      -0.55844021       1.67365967       0.00041566       0.00007411      -0.00121152      -5.72996879
Ni       5.27364028      21.13840739      33.41221991       0.60000000      -0.85931627       0.12653454      -1.96896206       0.00042584       0.00130096       0.00017334      -5.73010147
Ni       5.27961837      22.88916947      31.63692193       0.60000000      -0.86296490      -1.63287849      -0.72991236       0.00097213      -0.00059413      -0.00055574      -5.72951823
Ni       3.50512114      24.65496548      -0.01817390       0.60000000       2.12813608       0.31544540       3.17246125      -0.00074182       0.00049281      -0.00047445      -5.73013520
Ni       3.50223337      26.41558431       1.74912143       0.60000000       0.72970168       1.05742710       0.11175842      -0.00094304       0.00038877      -0.00018325      -5.73021996
Ni       5.26713732      24.65510334       1.74985668       0.60000000       1.46396143       0.03159686      -0.63656965      -0.00030832       0.00018468       0.00005414      -5.73040402
Ni       5.26723159      26.41304453      -0.02068444       0.60000000       0.09147098      -0.02712729      -1.31354892      -0.00006082       0.00054741      -0.00055718      -5.73018491
Ni       3.50193902      24.65605019       3.51736180       0.60000000      -1.16831885      -0.21957975      -0.21677120      -0.00083025      -0.00026669       0.00019026      -5.73034030
Ni       3.50091224      26.41506777       5.28048852       0.60000000      -0.81364782       1.18415013       0.75702886      -0.00067707      -0.00060878       0.00051812      -5.73036021
Ni       5.26878507      24.65488295       5.28360133       0.60000000       0.61739266       0.34008837      -0.57337512       0.00033381      -0.00079502       0.00188255      -5.73046035
Ni       5.26555344      26.41544261       3.51555845       0.60000000      -1.26178417       1.47313532       0.25243099      -0.00091875      -0.00035289       0.00006358      -5.73044705
Ni       3.50226540      24.65424413       7.04555226       0.60000000       1.21815434      -1.25705748      -2.60980265      -0.00075247      -0.00035756       0.00024002      -5.73036599
Ni       3.50249927      26.41194062       8.80451365       0.60000000      -1.09505340      -0.33928818      -0.27740952      -0.00124353      -0.00048062       0.00019484      -5.73036629
Ni       5.27365845      24.65173657       8.80944500       0.60000000       0.75435487      -1.11277905      -0.10555046      -0.00086263      -0.00124180       0.00090428      -5.73048460
Ni       5.26886819      26.41319216       7.04498210       0.60000000       0.03724992      -2.21610703      -0.63460005      -0.00012740      -0.00173164       0.00079572      -5.73042357
Ni       3.50416391      24.65098648      10.56577013       0.60000000       0.20258591      -1.04183770      -0.77835433      -0.00048605       0.00000168      -0.00037938      -5.73055011
Ni       3.50498106      26.40765572      12.32101145       0.60000000      -1.68872577      -0.52438746      -1.83169659      -0.00143403       0.00119911      -0.00005340      -5.73065460
Ni       5.27856695      24.64591747      12.32742872       0.60000000      -2.46650204      -0.17257497       1.28664067      -0.00093151      -0.00032886      -0.00076983      -5.73047030
Ni       5.27453454      26.40718990      10.56733682       0.60000000       0.33311155      -0.97777215       0.17865359      -0.00230263       0.00060563      -0.00159385      -5.73058236
Ni       3.50631947      24.64772324      14.07886419       0.60000000       0.85656783       0.83933205      -3.25829824      -0.00093255      -0.00024220       0.00009592      -5.73066908
Ni       3.50820722      26.40421871      15.83191397       0.60000000      -1.65680840      -1.50879152       0.18125806      -0.00071212       0.00058238       0.00120383      -5.73063040
Ni       5.28257222      24.63999821      15.83719443       0.60000000       0.83654333      -0.35918377       0.48539686       0.00098225       0.00030303      -0.00101045      -5.72951305
Ni       5.27959688      26.40045004      14.08054466       0.60000000      -1.08098516       1.92449888       0.08353346      -0.00073852      -0.00098086      -0.00071425      -5.73038441
Ni       3.51070921      24.64426089      17.58832017       0.60000000       0.47947213      -1.31528913      -0.73227374       0.00065789      -0.00112033       0.00004818      -5.73012668
Ni       3.51416029      26.39974949      19.34017590       0.60000000      -2.08733318       1.29008298       1.82821148       0.00032426       0.00143419       0.00009972      -5.73030514
Ni       5.29330121      24.63116184      19.34122395       0.60000000       1.56315084      -1.15433111      -1.04959856       0.00153432      -0.00176925      -0.00251742      -5.72806793
Ni       5.28569820      26.39440555      17.58735135       0.60000000       1.77669381      -0.81422051       0.02238716       0.00130332      -0.00290243      -0.00097065      -5.72954571
Ni       3.51785504      24.63928050      21.09357597       0.60000000       0.17686883       1.63586458      -1.44304971       0.00068502      -0.00012893      -0.00004284      -5.73019385
Ni       3.52045524      26.39647105      22.84573581       0.60000000       0.59226676       1.85687079       0.19974086       0.00084905       0.00026958       0.00010587      -5.73008817
Ni       5.30367920      24.62326126      22.83663921       0.60000000       0.13403639      -0.75912872      -0.25295774       0.00110107      -0.00049719      -0.00064987      -5.72856194
Ni       5.29496067      26.38674358      21.08902211       0.60000000       0.93147054       0.94992283      -0.40498994       0.00047422      -0.00068440      -0.00077412      -5.72918618
Ni       3.52456244      24.63649238      24.59753353       0.60000000       1.37692290      -1.03744760       0.45190582       0.00149375      -0.00129777      -0.00104874      -5.72977966
Ni       3.52233636      26.39777011      26.35556851       0.60000000      -0.41751635       2.85241405      -0.15410391       0.00100547      -0.00166708      -0.00102812      -5.72959352
Ni       5.30290526      24.62435357      26.33868409       0.60000000       2.08384277      -0.68280877      -1.54947237       0.00092163      -0.00036452      -0.00003445      -5.72814775
Ni       5.29860580      26.38411933      24.58997708       0.60000000       0.93573341      -0.71485972      -0.93902726       0.00042848       0.00067751       0.00054124      -5.72898799
Ni       3.52237226      24.64105223      28.11174975       0.60000000      -0.64169978      -0.02115809       1.11054639       0.00095448      -0.00056869      -0.00052803      -5.72939992
Ni       3.51620852      26.40446719      29.87815931       0.60000000       0.30518453      -0.86713001       1.24258901       0.00115964      -0.00010898      -0.00074083      -5.72954375
Ni       5.28700101      24.63801110      29.86605789       0.60000000      -0.69012836       0.41465201       0.13850676       0.00065456       0.00054401       0.00022264      -5.72881240
Ni       5.29051161      26.39161851      28.10515087       0.60000000       0.82096649      -0.72538579      -1.76310681       0.00111735      -0.00117199      -0.00095760      -5.72874546
Ni       3.51296698      24.64960193      31.64322411       0.60000000      -0.72607448       1.19893318       2.55954891       0.00062638      -0.00025714      -0.00089927      -5.72968787
Ni       3.50767521      26.41209688      33.41272776       0.60000000       0.75662884      -0.33717012      -1.06594321      -0.00044466       0.00018679      -0.00075309      -5.72990119
Ni       5.27244338      24.65032281      33.40905085       0.60000000      -0.44878205      -0.79201851      -1.55429105       0.00009035       0.00010675      -0.00172131      -5.72994071
Ni       5.27629742      26.40431071      31.63901145       0.60000000      -1.15036678       0.45983279       0.02467605       0.00098004       0.00018404      -0.00085717      -5.72949779
Ni       3.50368490      28.17584725      -0.01845572       0.60000000       1.92184773      -1.33291524       0.35259982      -0.00107659      -0.00001142      -0.00115009      -5.73005265
Ni       3.50164528      29.94024549       1.74872284       0.60000000       0.48155795       0.84727437       0.98505808      -0.00085320      -0.00000220      -0.00054361      -5.73016638
Ni       5.26435225      28.17675365       1.74755134       0.60000000      -2.13692348      -2.00230711       0.74114153      -0.00010909      -0.00008347      -0.00039229      -5.73030633
Ni       5.26476858      29.93843070      -0.01914211       0.60000000       0.78431660       0.84107884       0.72642840      -0.00020138       0.00028040      -0.00122708      -5.73012501
Ni       3.50078934      28.17722811       3.51456748       0.60000000       1.48377129       0.18296166      -0.59277177      -0.00067535      -0.00004809      -0.00011104      -5.73027909
Ni       3.50121891      29.93985148       5.27809016       0.60000000       1.58884299      -2.67848916      -1.56474389      -0.00052752      -0.00050470       0.00069426      -5.73028290
Ni       5.26543645      28.17646053       5.27947904       0.60000000      -0.02292171       0.73986361      -0.31880189      -0.00020472      -0.00006307       0.00037457      -5.73044914
Ni       5.26381042      29.94088479       3.51394039       0.60000000      -0.60665646      -1.57320128      -0.32411838       0.00041790      -0.00061570      -0.00033789      -5.73032027
Ni       3.50137925      28.17514667       7.04172386       0.60000000      -1.60404782       0.68686459       2.28886700      -0.00044132      -0.00094346       0.00097376      -5.73034167
Ni       3.50314318      29.93651824       8.80104188       0.60000000      -1.27567326      -0.91390651      -0.55133088      -0.00007695      -0.00103103       0.00201258      -5.73028994
Ni       5.27032360      28.17156368       8.80510290       0.60000000      -1.48522752      -3.10884624      -0.12400890      -0.00048822       0.00004566       0.00052967      -5.73034894
Ni       5.26707743      29.93812941       7.04190770       0.60000000       0.84875528       1.50008155      -1.46843821      -0.00015045      -0.00032831       0.00044463      -5.73035318
Ni       3.50384035      28.17078824      10.56164289       0.60000000      -0.57246471      -0.66663829      -0.59717546      -0.00062177       0.00049997       0.00095565      -5.73033959
Ni       3.50600033      29.93196314      12.31735620       0.60000000      -0.46619641      -0.80091207       1.78057263      -0.00080360       0.00013745       0.00160363      -5.73029441
Ni       5.27604810      28.16442983      12.32248287       0.60000000       0.09474595       0.78141437       2.31584498      -0.00214265       0.00077709      -0.00042829      -5.73046994
Ni       5.27222491      29.93194120      10.56267488       0.60000000      -0.57577796       0.55315341       1.21927006       0.00001334      -0.00041324       0.00119424      -5.73022145
Ni       3.50679757      28.16663169      14.07502048       0.60000000       1.02093370       0.78295608       0.52699092      -0.00025842      -0.00000915       0.00148113      -5.73053342
Ni       3.50871351      29.92810878      15.82897798       0.60000000      -0.36571164       0.52751557      -0.95854417      -0.00023727       0.00033451       0.00105038      -5.73031420
Ni       5.28114511      28.15786415      15.83198876       0.60000000      -0.69993007      -0.09422898      -1.10618623      -0.00067834       0.00016274      -0.00037261      -5.73022366
Ni       5.27686203      29.92534719      14.07558581       0.60000000      -0.72602648      -0.48777097      -1.13457880      -0.00069592      -0.00032294       0.00112609      -5.73021036
Ni       3.51074595      28.16294891      17.58486559       0.60000000       0.08532632      -0.67607591       0.08613624      -0.00009775       0.00070619       0.00144388      -5.73045200
Ni       3.51187616      29.92533685      19.33849920       0.60000000      -0.40882645      -0.88910471      -0.77634467      -0.00028325       0.00060038       0.00108231      -5.73021686
Ni       5.28661348      28.15276691      19.33761069       0.60000000      -0.87489042       2.20173762       1.08997326       0.00012507      -0.00039394      -0.00006250      -5.72988576
Ni       5.28038725      29.92041413      17.58366379       0.60000000       1.08055249       1.93436890      -0.50570866       0.00024343      -0.00072377       0.00114584      -5.73009211
Ni       3.51584568      28.15968770      21.09285079       0.60000000       0.36154467      -1.32459944      -0.59392899       0.00038910       0.00064572       0.00083421      -5.73019063
Ni       3.51456812      29.92413065      22.84837510       0.60000000      -0.15333311       0.19137648      -0.45527610      -0.00034495       0.00061887       0.00075164      -5.73002511
Ni       5.29091776      28.14933627      22.84147574       0.60000000       0.81091887      -0.88568047      -0.81751710       0.00046192       0.00051811       0.00018139      -5.72961581
Ni       5.28321029      29.91750547      21.09040216       0.60000000      -1.23101626      -1.25461467      -0.61143505       0.00063423       0.00024179       0.00081492      -5.72992676
Ni       3.51897674      28.15908958      24.60187362       0.60000000       0.51385325       0.76890789       0.67004521       0.00027374       0.00064864       0.00078080      -5.72987121
Ni       3.51437708      29.92607231      26.36235181       0.60000000      -3.09190000      -0.82813346      -0.97343768       0.00050726      -0.00025286       0.00030700      -5.72981519
Ni       5.28853914      28.15185050      26.35122357       0.60000000      -2.40778776      -1.76959114       1.33684934       0.00138065       0.00073984       0.00020192      -5.72919905
Ni       5.28336233      29.91760908      24.59952465       0.60000000       1.04896303      -0.49301136       1.84827823       0.00065772       0.00069727       0.00067785      -5.72966433
Ni       3.51660222      28.16330640      28.11869629       0.60000000      -0.43053590       0.03197353       0.43490122       0.00118827      -0.00084692      -0.00041976      -5.72964573
Ni       3.51040027      29.93120480      29.88490962       0.60000000      -0.80763240      -0.71223212       0.13852909       0.00037249       0.00019031       0.00005258      -5.72972941
Ni       5.27875532      28.16148919      29.87547619       0.60000000       1.20047483      -0.85986786       1.20338690       0.00109879      -0.00113855      -0.00113601      -5.72934240
Ni       5.27826007      29.92306861      28.11722381       0.60000000      -1.15109837       0.64222475      -0.38532956       0.00050798      -0.00029307       0.00021832      -5.72952533
Ni       3.50986114      28.17028185      31.64685739       0.60000000       1.46520363       1.12860921       0.60237389       0.00016359       0.00027624      -0.00075883      -5.72973156
Ni       3.50503541      29.93697401      33.41577682       0.60000000       0.33403329       0.23926866      -1.80458107      -0.00032901       0.00016541      -0.00117288      -5.72988421
Ni       5.26889807      28.17136334      33.41088687       0.60000000       0.47644907       0.96573176      -0.28275931      -0.00014395       0.00023506      -0.00097109      -5.72990799
Ni       5.27023006      29.93162194      31.64629089       0.60000000      -0.52461448      -1.37291973      -0.08542697       0.00018048       0.00000050      -0.00110361      -5.72974026
Ni       3.50253662      31.70378279      -0.01626212       0.60000000       1.65148051       0.97856722       0.38523874      -0.00010928       0.00014156      -0.00093806      -5.73002034
Ni       3.50268961      33.47057605       1.75071787       0.60000000      -1.27865883      -0.56184300      -1.76481278       0.00005836       0.00038719      -0.00044783      -5.73006463
Ni       5.26367867      31.70540063       1.74892930       0.60000000      -2.14051948      -1.17756167       1.20820142       0.00039897      -0.00017038      -0.00027614      -5.73019302
Ni       5.26410073      33.46995668      -0.01511359       0.60000000       0.10603218       0.31555825      -0.69721105       0.00026264       0.00023245      -0.00075900      -5.73003680
Ni       3.50191124      31.70526965       3.51426184       0.60000000      -1.01222595      -1.60681268      -0.42848684      -0.00069245      -0.00027974       0.00044749      -5.73019683
Ni       3.50431311      33.47110564       5.27858033       0.60000000       0.13980552      -0.63669016       0.29732431      -0.00035011      -0.00024658       0.00049318      -5.73012888
Ni       5.26552392      31.70545674       5.27862313       0.60000000      -0.34531584       1.00945341      -0.62146363       0.00054712      -0.00009627       0.00089845      -5.73025101
Ni       5.26541565      33.47246975       3.51579778       0.60000000      -1.27984588       0.01925427       0.73377965       0.00081410      -0.00032539       0.00044660      -5.73013812
Ni       3.50330239      31.70367585       7.03990982       0.60000000      -1.61094956      -0.08357287      -0.23920086      -0.00005649      -0.00074781       0.00124859      -5.73023248
Ni       3.50665177      33.46907371       8.80055491       0.60000000      -0.40626063      -0.59155198      -2.50676882      -0.00026442      -0.00001967       0.00030066      -5.73014748
Ni       5.26971646      31.70143156       8.80212093       0.60000000       0.17313928      -0.91793945       0.62438255      -0.00033095       0.00035684       0.00172588      -5.73021829
Ni       5.26898746      33.47147626       7.04190896       0.60000000      -0.96813117       1.59945896       0.18752620       0.00010705       0.00037253       0.00089235      -5.73014659
Ni       3.50577423      31.69980046      10.55907403       0.60000000       0.47877480       0.56589006       1.24061321      -0.00028413       0.00017453       0.00126642      -5.73022646
Ni       3.50821971      33.46581862      12.31621788       0.60000000       0.50216650      -1.61517024      -1.14913606       0.00041271      -0.00065523       0.00031321      -5.73015475
Ni       5.27367854      31.69573112      12.31828914       0.60000000      -1.04952515      -0.71276254      -0.76599577       0.00017204      -0.00082619       0.00145838      -5.73012006
Ni       5.27239221      33.46784413      10.56084775       0.60000000       1.69010737       0.79498403       1.63550263       0.00069020      -0.00068005       0.00102085      -5.73014581
Ni       3.50773871      31.69597879      14.07271824       0.60000000      -1.61899409      -1.28267934       0.21939199       0.00026739      -0.00053776       0.00038042      -5.73021841
Ni       3.50884527      33.46249220      15.82794597       0.60000000       2.46197766      -0.59019474      -0.77343354      -0.00044570      -0.00026754      -0.00026764      -5.73017901
Ni       5.27636727      31.69034871      15.82878286       0.60000000       0.70573805      -1.22336987      -0.83133439      -0.00065900       0.00063025       0.00113261      -5.73011214
Ni       5.27448621      33.46278919      14.07351089       0.60000000       1.22084984      -0.06540506       0.81691828      -0.00043919       0.00010778       0.00025677      -5.73015189
Ni       3.50945320      31.69290353      17.58338899       0.60000000      -0.08321330      -0.10439808      -0.73548064      -0.00069661       0.00021404       0.00031464      -5.73019969
Ni       3.50851331      33.46038635      19.33870848       0.60000000      -0.03678592      -0.34903389       0.23479214      -0.00010638      -0.00011971       0.00004274      -5.73018205
Ni       5.27772400      31.68722470      19.33729896       0.60000000       0.98261001      -2.21753669      -0.33193675      -0.00033349      -0.00017707       0.00032460      -5.73005533
Ni       5.27460037      33.45884527      17.58300966       0.60000000      -1.36677338       1.98829354       0.17999857       0.00047050      -0.00061052       0.00030028      -5.73015696
Ni       3.51065791      31.69149594      21.09391947       0.60000000      -0.11515616       2.42549204      -0.37316784      -0.00026291       0.00006188       0.00047225      -5.73012131
Ni       3.50794309      33.46000558      22.85115723       0.60000000      -0.86976610      -0.69286368       2.50477857      -0.00027637      -0.00049489       0.00030369      -5.73011142
Ni       5.27772977      31.68652513      22.84703221       0.60000000       0.79277926      -2.03099403       0.16598604       0.00018086      -0.00018537       0.00046990      -5.72998166
Ni       5.27381334      33.45681823      21.09303149       0.60000000       1.56458104       2.13228187      -1.32728286      -0.00022447      -0.00025483       0.00038679      -5.73016977
Ni       3.51099293      31.69195588      24.60693397       0.60000000      -0.60983657       0.18569365      -1.27307536      -0.00030079       0.00045410       0.00038910      -5.72996718
Ni       3.50681196      33.46134913      26.36777843       0.60000000      -1.87267274       0.19738708      -0.56462764      -0.00023746      -0.00011535       0.00058588      -5.72996956
Ni       5.27543119      31.68880066      26.36172791       0.60000000      -2.03033922      -1.06527631      -1.37162886      -0.00018853       0.00043915       0.00069767      -5.72981864
Ni       5.27209035      33.45741052      24.60649567       0.60000000       2.55922312       0.29885741      -0.79544258      -0.00038755      -0.00052384       0.00055725      -5.73009002
Ni       3.50908276      31.69517746      28.12582224       0.60000000      -0.15532463      -0.08903923       0.75624830       0.00024008      -0.00039449       0.00019978      -5.72982341
Ni       3.50476222      33.46457030      29.89099113       0.60000000       0.09060384       0.14205368       0.87908305       0.00024418      -0.00078314      -0.00031467      -5.72986311
Ni       5.27027348      31.69470726      29.88523798       0.60000000      -0.50890508       1.16375228      -1.18187806       0.00010145      -0.00048560      -0.00029037      -5.72974497
Ni       5.26900059      33.46041258      28.12628364       0.60000000      -2.12092426      -0.42264932      -1.08694376      -0.00018013      -0.00045852       0.00054030      -5.72993755
Ni       3.50549197      31.69981698      31.65243385       0.60000000      -1.57476655       0.20040902      -0.10296796       0.00004735      -0.00000462      -0.00068955      -5.72980541
Ni       3.50297568      33.46805560      33.41993543       0.60000000       0.34911599      -1.23051039       0.21905634       0.00000728      -0.00031704      -0.00088374      -5.72990745
Ni       5.26542358      31.70113068      33.41619121       0.60000000      -0.05465173      -0.35464007      -1.16478783       0.00001397       0.00048258      -0.00137364      -5.72995150
Ni       5.26567276      33.46535946      31.65347721       0.60000000       0.11309350      -1.32371826      -1.76121570       0.00009500      -0.00042681      -0.00078931      -5.72988051
Ni       7.02523772       0.03744589      -0.01285284       0.60000000      -0.40969565      -1.09439006       2.24301507       0.00028883      -0.00026857      -0.00050074      -5.73002207
Ni       7.02907940       1.80661205       1.75663489       0.60000000      -0.14431513      -1.80521061      -1.72294873       0.00010203       0.00034035      -0.00013446      -5.72993535
Ni       8.78543304       0.04007150       1.75353895       0.60000000      -1.01497562       1.21769897       2.54448442       0.00046417       0.00051491      -0.00008869      -5.73005086
Ni       8.78628133       1.80522884      -0.01058150       0.60000000      -1.83249562      -1.80094619      -1.67517321       0.00008666      -0.00002896      -0.00016380      -5.73002142
Ni       7.02826272       0.04098732       3.51908787       0.60000000      -0.72893400      -2.25297186       0.27260013       0.00093813       0.00059167       0.00030710      -5.73001337
Ni       7.03466133       1.81148455       5.28749395       0.60000000       1.53411784      -0.41168539       0.56543236       0.00084212       0.00023481       0.00046725      -5.72982711
Ni       8.78978480       0.04296968       5.28440779       0.60000000       0.18580504      -0.75007477       0.07673300       0.00099247      -0.00030308       0.00071992      -5.73001552
Ni       8.79084660       1.81062344       3.52364212       0.60000000       2.20511560       0.10140085       1.07193786       0.00044552       0.00009560       0.00067782      -5.72990030
Ni       7.03310846       0.04226566       7.04587308       0.60000000       3.02665213       1.46726564       0.46398117       0.00086804      -0.00015734       0.00043439      -5.73001260
Ni       7.04020980       1.81399214       8.81036964       0.60000000       1.54200717      -1.15354045       0.16609603       0.00031779       0.00055079      -0.00019917      -5.72985518
Ni       8.79518394       0.04237636       8.80791511       0.60000000      -0.34943907       1.74688276       0.54431381      -0.00050367       0.00048245       0.00047039      -5.73012257
Ni       8.79740392       1.81535433       7.05240286       0.60000000      -0.07627091      -0.50966937      -1.08899229       0.00021585       0.00047753       0.00030642      -5.72984499
Ni       7.03717965       0.03988362      10.56426420       0.60000000       0.17237960      -0.13042386       0.83310295      -0.00021228       0.00019605       0.00027445      -5.73012322
Ni       7.04224833       1.81221776      12.32352702       0.60000000       0.49057508       0.63827981       1.18173527       0.00011807       0.00006149      -0.00075251      -5.73006874
Ni       8.79819638       0.03829554      12.32202082       0.60000000       0.31485452      -0.34540945      -1.30289013       0.00020033       0.00050216       0.00029620      -5.73030829
Ni       8.80205635       1.81653600      10.57066716       0.60000000       0.65740908       0.68101218       1.03295970       0.00090488       0.00026854       0.00012003      -5.72998309
Ni       7.03825452       0.03492594      14.07527823       0.60000000      -0.41251818      -0.05395562       1.32324540       0.00026294      -0.00011367      -0.00012983      -5.73024398
Ni       7.04010861       1.80662761      15.83079219       0.60000000       3.27344135      -0.29633948      -0.26222981       0.00041715       0.00013852      -0.00067514      -5.73030114
Ni       8.79842857       0.03198978      15.82990152       0.60000000       2.15242576       0.24723174       0.76333450      -0.00035072      -0.00004587      -0.00016168      -5.73041993
Ni       8.80248352       1.81207464      14.07931473       0.60000000      -0.04020658      -0.17388206      -1.58998965       0.00013881       0.00123868      -0.00041917      -5.73024809
Ni       7.03691022       0.02956207      17.58321367       0.60000000      -0.91706025       2.03501750       2.01322939      -0.00032665      -0.00014441      -0.00012055      -5.73031861
Ni       7.03595862       1.80067628      19.33824645       0.60000000      -0.33475778      -1.58887780       1.11290299      -0.00023531       0.00025613      -0.00012706      -5.73042125
Ni       8.79618810       0.02641556      19.33674892       0.60000000      -1.29108735       0.51995350       0.10777231       0.00017263       0.00084541       0.00029306      -5.73047686
Ni       8.79904580       1.80497473      17.58458489       0.60000000      -0.71604120       1.90469266      -1.57125969      -0.00039082      -0.00031922      -0.00092488      -5.73045444
Ni       7.03410070       0.02618860      21.09263651       0.60000000      -0.72080674      -2.20447380       0.43586698       0.00034984      -0.00012682       0.00040153      -5.73037463
Ni       7.03149223       1.79721351      22.85014443       0.60000000      -0.15870445       0.32495401       1.19470700       0.00048977       0.00010414       0.00035411      -5.73040235
Ni       8.79288179       0.02456285      22.84753198       0.60000000      -0.42151676      -1.95470810       0.11272640      -0.00006216      -0.00019938       0.00060359      -5.73047858
Ni       8.79417434       1.79881110      21.09276928       0.60000000       1.12776888      -1.94538130      -0.43165589       0.00025657       0.00114206       0.00009453      -5.73051363
Ni       7.03097432       0.02602371      24.60678643       0.60000000       1.12290463      -0.15215190       0.89794029      -0.00025173      -0.00049287       0.00083120      -5.73032755
Ni       7.02793918       1.79681884      26.36808791       0.60000000      -0.97172397      -1.93031253      -0.06563085       0.00099246       0.00012764      -0.00058925      -5.73034811
Ni       8.78876139       0.02623596      26.36481784       0.60000000       0.58805791      -2.74248821       0.88373373       0.00039884      -0.00045641       0.00076522      -5.73038626
Ni       8.78991192       1.79691957      24.60712554       0.60000000       0.84822208       0.08299290      -2.29240129       0.00009710       0.00004872       0.00006429      -5.73044944
Ni       7.02741153       0.02838038      28.12760034       0.60000000       1.05686513      -1.25994170      -0.77847910       0.00047790      -0.00031125       0.00039004      -5.73022044
Ni       7.02566415       1.79868374      29.89247989       0.60000000      -0.70473230      -0.00774949       0.31116326       0.00084308      -0.00079287      -0.00013752      -5.73024207
Ni       8.78530356       0.03023576      29.88939137       0.60000000       1.18901930      -0.64054682      -1.17133910      -0.00001741      -0.00019067      -0.00016495      -5.73020446
Ni       8.78635951       1.79793558      28.12818145       0.60000000      -0.74210860       2.74864483       0.17488158       0.00175034       0.00058001      -0.00138114      -5.73034042
Ni       7.02520624       0.03269344      31.65511926       0.60000000       1.12377906       1.40479576       1.54703310      -0.00011124      -0.00077746      -0.00034469      -5.73003471
Ni       7.02582476       1.80205264      33.42312442       0.60000000      -0.87361489       1.17777560       1.44454446       0.00034459      -0.00046301      -0.00051732      -5.73004764
Ni       8.78388807       0.03548983      33.42008921       0.60000000       2.64550345       2.03220045      -0.94088445      -0.00002748      -0.00037763      -0.00090414      -5.73006618
Ni       8.78487676       1.80102324      31.65592752       0.60000000      -2.69416352      -0.26876980       0.49759631       0.00046524      -0.00064750      -0.00033129      -5.73018146
Ni       7.02945970       3.57011242      -0.00777503       0.60000000       0.42530453       0.31558168       0.06695354       0.00018233      -0.00036053       0.00021613      -5.72998881
Ni       7.03590062       5.33773583       1.76357998       0.60000000      -0.43862294       1.03749074      -0.49306137       0.00042711       0.00077450       0.00011214      -5.72981811
Ni       8.79173279       3.57472657       1.76056605       0.60000000       0.04313627       0.67376148      -0.12339256      -0.00007498       0.00052414       0.00016443      -5.72989941
Ni       8.79183902       5.33628268      -0.00599688       0.60000000       0.46954739       0.69005320       0.97250567       0.00024086       0.00067045      -0.00013389      -5.73002094
Ni       7.03600910       3.57655323       3.52724227       0.60000000      -0.16793289      -1.90521971       0.28450542       0.00036547       0.00069024       0.00043939      -5.72973228
Ni       7.04660676       5.34814246       5.29916024       0.60000000      -0.76490290      -0.48801263      -0.08154400       0.00056931       0.00070981       0.00061403      -5.72929716
Ni       8.80005807       3.58328771       5.29556240       0.60000000      -1.48082008       1.99544414       0.08880839       0.00026847       0.00076372       0.00052173      -5.72956753
Ni       8.80098511       5.34551026       3.53447633       0.60000000       0.53596992      -0.10853074      -0.69974814       0.00039665       0.00070584       0.00036718      -5.72954929
Ni       7.04417708       3.58408014       7.05630742       0.60000000      -1.30589509      -0.93891380      -0.81150816       0.00056904       0.00070627       0.00012013      -5.72949022
Ni       7.05660612       5.35868119       8.82501918       0.60000000      -0.95424144      -0.36764703       0.90961722       0.00045477       0.00064429       0.00008458      -5.72897083
Ni       8.80849302       3.59129668       8.82103559       0.60000000      -2.83560729       0.94082104       1.91786471       0.00070090       0.00077140       0.00036647      -5.72940159
Ni       8.81418056       5.35932159       7.06943610       0.60000000       0.70650204       1.30073046       0.88478646      -0.00008517       0.00077101       0.00016959      -5.72886032
Ni       7.04914855       3.58799065      10.57410690       0.60000000      -1.10855362       0.27339424      -2.11556078       0.00099436       0.00033673      -0.00028289      -5.72958499
Ni       7.05961269       5.36267824      12.33645870       0.60000000      -2.94524176      -1.62169149      -1.63280963       0.00003073       0.00035789       0.00040923      -5.72923803
Ni       8.81164075       3.59280444      12.33289442       0.60000000      -2.17131142       0.78072053       0.19765517       0.00013471       0.00009011      -0.00023444      -5.72965753
Ni       8.82357784       5.37004027      10.58983313       0.60000000       2.26032564       0.22700750       1.52737177      -0.00064417       0.00058224       0.00007588      -5.72867966
Ni       7.04822516       3.58511234      14.08143860       0.60000000      -1.26278194       0.33852268      -0.53726937      -0.00030436      -0.00000191      -0.00018620      -5.72998077
Ni       7.05418315       5.35716102      15.83783307       0.60000000      -0.34798541       0.50583789      -1.24627506       0.00083855       0.00000867       0.00046469      -5.72977829
Ni       8.80769508       3.58585727      15.83535168       0.60000000      -0.93175534       0.13876644      -0.37639065       0.00006032       0.00101576       0.00025716      -5.73011965
Ni       8.82213049       5.36956987      14.09344052       0.60000000      -2.74744198      -1.00946764      -0.44606376       0.00018780       0.00015249      -0.00014493      -5.72927064
Ni       7.04234403       3.57747498      17.58558085       0.60000000       0.62761486      -0.38420642      -1.96823841       0.00098063       0.00049052      -0.00043620      -5.73028463
Ni       7.04486150       5.34641986      19.33973766       0.60000000      -0.41729041      -0.33921810       0.76145837       0.00097405       0.00028115      -0.00008245      -5.73029524
Ni       8.80049317       3.57627334      19.33890298       0.60000000       0.49013993       0.62544821       0.52232255      -0.00046915      -0.00034368      -0.00065519      -5.73041147
Ni       8.81275001       5.35816546      17.58999334       0.60000000       0.88161363      -2.57638863       0.27562917       0.00094314       0.00007603       0.00006930      -5.73010051
Ni       7.03579285       3.57028538      21.09370585       0.60000000       0.56368015      -0.45877003      -0.49227968       0.00030770      -0.00012928      -0.00052462      -5.73041523
Ni       7.03645417       5.33784906      22.84889248       0.60000000      -0.59356534      -2.01182871       0.83669638      -0.00034628      -0.00128542       0.00028282      -5.73048699
Ni       8.79398386       3.56941131      22.84920651       0.60000000       0.23583506      -0.75221108       0.19834077      -0.00024478       0.00006177      -0.00110749      -5.73046690
Ni       8.80224568       5.34522471      21.09273714       0.60000000      -0.42056640      -0.01108513       0.37503758       0.00087684      -0.00046221      -0.00062438      -5.73063725
Ni       7.03060706       3.56645689      24.60826809       0.60000000       2.25590756       0.83324427       1.10592366       0.00034693      -0.00025245      -0.00067416      -5.73035938
Ni       7.03110738       5.33337776      26.36630300       0.60000000       0.93188941      -0.30137220      -0.65623617       0.00056895      -0.00047691      -0.00047519      -5.73037583
Ni       8.78966224       3.56740727      26.36626444       0.60000000      -0.20355920      -0.03080830       0.04488641       0.00024835      -0.00086921      -0.00057475      -5.73035091
Ni       8.79523926       5.33833259      24.60451011       0.60000000      -0.48062479      -0.16717208       0.50411290      -0.00006932      -0.00157462       0.00065790      -5.73051721
Ni       7.02750618       3.56563606      28.12948004       0.60000000      -1.08461498       1.51999624      -0.26617314       0.00072139      -0.00053135      -0.00073363      -5.73032862
Ni       7.02865277       5.33137018      29.89183074       0.60000000      -0.46904145       0.02101467      -0.17156957       0.00042244      -0.00024295      -0.00010592      -5.73029768
Ni       8.78677494       3.56755158      29.89087439       0.60000000      -1.66867356      -0.28189468       0.49680293       0.00216781      -0.00055229      -0.00028930      -5.73026115
Ni       8.79121237       5.33537654      28.12483642       0.60000000       0.41490789       0.05344845       0.68160899       0.00072510      -0.00068848       0.00084026      -5.73025692
Ni       7.02651512       3.56648581      31.65804515       0.60000000      -1.26176132       0.00614195       0.13823174       0.00123104       0.00007569      -0.00056909      -5.73019969
Ni       7.02952671       5.33214909      33.42550825       0.60000000       0.35291678      -1.15706199       1.08812869       0.00097170       0.00003504       0.00031370      -5.73011565
Ni       8.78714600       3.56943172      33.42348684       0.60000000      -0.03686676       2.67201472       1.79958916       0.00047680      -0.00016723       0.00008375      -5.73012131
Ni       8.78885737       5.33374817      31.65547930       0.60000000      -0.69006829       2.71326201       1.29167591       0.00198445      -0.00017301       0.00012815      -5.73017198
Ni       7.03454197       7.09633773      -0.00381478       0.60000000       0.43311667       0.07047758       1.15955308       0.00094570       0.00103895      -0.00029853      -5.72998095
Ni       7.04229337       8.86082700       1.76908677       0.60000000      -1.31923358       0.80422205      -1.54260595       0.00078070       0.00006897       0.00020283      -5.72974396
Ni       8.79965380       7.10331764       1.76794437       0.60000000      -1.14373330      -0.98460561       0.73652457       0.00056347       0.00056598       0.00026047      -5.72977698
Ni       8.79732496       8.85913754      -0.00293221       0.60000000      -0.17375355      -2.43374590      -1.41275021       0.00119414       0.00042038       0.00002215      -5.73000962
Ni       7.04587048       7.10636542       3.53677867       0.60000000       0.83672527       0.28657239       0.92505040       0.00031290       0.00019609       0.00048619      -5.72943586
Ni       7.05925504       8.87543992       5.31088475       0.60000000       1.42058103      -1.43854473      -0.36792994      -0.00015911      -0.00057986      -0.00001034      -5.72891915
Ni       8.81571313       7.11885921       5.31122401       0.60000000      -0.48578551       0.49106504       0.45807981      -0.00038789       0.00012211      -0.00002479      -5.72883081
Ni       8.81233460       8.87178646       3.54500640       0.60000000      -0.52580749      -0.11793060       0.21428026      -0.00022062      -0.00008609       0.00031205      -5.72927493
Ni       7.06074129       7.12110191       7.07164811       0.60000000       1.84087991       1.17378798      -0.51927846      -0.00000561       0.00007417       0.00015603      -5.72867393
Ni       7.07708656       8.89397427       8.84311497       0.60000000       0.55116887       1.35343826      -0.06366509      -0.00040116      -0.00052522      -0.00060325      -5.72807175
Ni       8.83324503       7.13825494       8.84442640       0.60000000      -1.04546909      -0.27021983       0.12137676      -0.00035631       0.00012449      -0.00043194      -5.72785491
Ni       8.83575578       8.89419198       7.08942509       0.60000000       0.08478565      -0.10285809       0.13342000      -0.00048590      -0.00056784      -0.00028603      -5.72785914
Ni       7.07104967       7.13398374      10.59276687       0.60000000       1.26270496       0.55479365      -0.80763326      -0.00031981       0.00031601      -0.00048740      -5.72838414
Ni       7.08619327       8.90870003      12.35865091       0.60000000      -0.90746235       0.76706290       0.57567175       0.00029602      -0.00030311      -0.00034716      -5.72753942
Ni       8.84039193       7.15029453      12.35741515       0.60000000       0.43541804      -1.34080213      -0.85501342      -0.00085611      -0.00046936       0.00038855      -5.72785878
Ni       8.85552067       8.91854623      10.61867373       0.60000000       0.83926177       1.66311718      -0.07337897      -0.00073185       0.00003441      -0.00024571      -5.72668070
Ni       7.07024878       7.13700147      14.09718174       0.60000000      -1.20814843      -0.66223768      -0.78725854       0.00152049      -0.00078668       0.00068754      -5.72868937
Ni       7.08223691       8.90985975      15.85701997       0.60000000       0.24174762       0.20217817      -1.29864980      -0.00225651      -0.00114552      -0.00304338      -5.72780162
Ni       8.83252379       7.14578509      15.85216245       0.60000000      -0.51492004      -0.43807620       1.91695024       0.00142773      -0.00116331       0.00001856      -5.72892809
Ni       8.85816179       8.93112409      14.12383527       0.60000000       0.77776409      -1.83042429       0.23048292      -0.00121253      -0.00064753       0.00048506      -5.72666484
Ni       7.06048953       7.12738731      17.59311240       0.60000000       1.43624276       0.17063293       0.13107508       0.00110378      -0.00075737       0.00007426      -5.72963750
Ni       7.06681161       8.89468622      19.34670571       0.60000000      -1.20101549       1.51939485      -0.66695342      -0.00126630       0.00037619      -0.00117122      -5.72757626
Ni       8.81767118       7.12797495      19.34358754       0.60000000       0.27010900       1.46188526       2.59812724      -0.00036817      -0.00103744      -0.00071153      -5.73016500
Ni       8.84337027       8.92083686      17.60992846       0.60000000      -0.86696777      -2.13608967      -0.75940240      -0.00175480      -0.00156613      -0.00187668      -5.72727841
Ni       7.04738471       7.11286777      21.09302902       0.60000000      -1.96491102      -0.86327399      -1.56158915       0.00013929      -0.00010055      -0.00027256      -5.73000991
Ni       7.04891520       8.87547793      22.84509964       0.60000000       0.09067170       1.79841162      -1.73517099      -0.00017209       0.00256458       0.00076880      -5.72705626
Ni       8.80459770       7.11206429      22.84530825       0.60000000      -1.11537746      -1.96625205       0.33677433      -0.00072227      -0.00047954      -0.00090381      -5.72978759
Ni       8.82165382       8.89600680      21.09530734       0.60000000       0.21030181       0.57358432      -0.00848948      -0.00005445       0.00064086       0.00163532      -5.72714955
Ni       7.03723144       7.10249098      24.60391511       0.60000000      -1.53889865      -1.45702761      -0.21542745       0.00086911      -0.00101625       0.00041884      -5.72992277
Ni       7.03778198       8.86235579      26.36020079       0.60000000      -0.54174041       1.09706964      -0.32209710      -0.00117447       0.00180311      -0.00102079      -5.72888178
Ni       8.79775280       7.10426263      26.35922250       0.60000000      -0.74896654      -1.81720611       1.37059732      -0.00079622      -0.00026008      -0.00032082      -5.72947299
Ni       8.80689648       8.87686226      24.59579717       0.60000000       1.53607694       0.77067692      -0.00442210      -0.00100387       0.00075486      -0.00061263      -5.72972471
Ni       7.03208683       7.09656372      28.12557173       0.60000000      -1.23129093       0.70999451      -0.43271605       0.00099999      -0.00096408      -0.00048362      -5.73017246
Ni       7.03305245       8.85543468      29.88788793       0.60000000      -1.54533267      -0.47028330       1.28312802      -0.00013825      -0.00031016       0.00076165      -5.72999287
Ni       8.79322777       7.09892167      29.88560830       0.60000000       1.77472874       0.18284480      -0.26506489      -0.00022902      -0.00009554       0.00119495      -5.73004824
Ni       8.79903767       8.86507763      28.11523486       0.60000000      -0.16453588      -2.19496985       0.58782550       0.00152270       0.00134964       0.00120975      -5.72857779
Ni       7.03066993       7.09381559      31.65691340       0.60000000      -0.10947896       0.53245581      -2.72626280       0.00054131       0.00038384       0.00054339      -5.73024827
Ni       7.03350436       8.85412352      33.42594444       0.60000000       1.10810522      -0.87695423       0.32024322       0.00056807       0.00048838       0.00023056      -5.73015141
Ni       8.79207757       7.09692482      33.42408205       0.60000000       0.20358199       0.02145210      -0.18803723       0.00167619       0.00042661       0.00043849      -5.73011029
Ni       8.79441880       8.85785661      31.65178255       0.60000000       1.15644480       1.41284027      -1.09591197       0.00053888      -0.00111349       0.00109279      -5.73010063
Ni       7.03812887      10.61421354      -0.00226495       0.60000000       0.37314310      -0.30967874       0.70755624       0.00085774       0.00012453       0.00003968      -5.73000836
Ni       7.04494779      12.37410578       1.77083414       0.60000000       0.83853727      -0.98724346       1.09112082       0.00153261       0.00004285      -0.00000398      -5.72988003
Ni       8.80613131      10.62213213       1.77311656       0.60000000       0.40592930       1.36007850      -0.89220668       0.00059042      -0.00039023      -0.00019926      -5.72977036
Ni       8.80024534      12.37265055      -0.00223354       0.60000000       0.33568047       1.29846509      -0.38047127       0.00041460      -0.00057385       0.00058596      -5.73015130
Ni       7.05296480      10.62513577       3.54307684       0.60000000       1.30260496      -0.88542719       0.05202086       0.00053805      -0.00049483       0.00003715      -5.72944343
Ni       7.06569588      12.38813137       5.31554410       0.60000000      -0.16551928       0.30534229       1.31875372      -0.00031936      -0.00057372       0.00100937      -5.72909182
Ni       8.82999024      10.64120753       5.32339559       0.60000000      -0.69352317      -0.41397044       0.06058683       0.00017236      -0.00016546       0.00070896      -5.72851849
Ni       8.81930645      12.38550983       3.55030088       0.60000000       0.52927944       0.92234233      -0.53340317       0.00071890      -0.00003735       0.00080753      -5.72927129
Ni       7.07473670      10.64351642       7.08359293       0.60000000       0.33947090       0.03687208       1.23167294      -0.00036920      -0.00104218      -0.00072617      -5.72845876
Ni       7.08998157      12.40806502       8.85220415       0.60000000      -0.51177317       0.58648269       0.13301877      -0.00067632       0.00053085      -0.00050221      -5.72801489
Ni       8.85951595      10.66943423       8.86642945       0.60000000       1.20500774      -0.98370872       1.85316894      -0.00103117       0.00045696      -0.00017667      -5.72677100
Ni       8.85128281      12.40967557       7.10011291       0.60000000       2.13887101       0.42515840      -1.44372690      -0.00023270       0.00046623       0.00025530      -5.72761190
Ni       7.09396537      10.66472544      10.61173574       0.60000000       0.51984355      -0.96671813      -1.31412586      -0.00089013       0.00018811      -0.00057137      -5.72736371
Ni       7.10928607      12.43094658      12.37627905       0.60000000      -0.21680462       0.55016871      -0.56538243      -0.00015992       0.00037939      -0.00061795      -5.72648287
Ni       8.87936717      10.69880693      12.39095137       0.60000000      -0.80210360       0.48012623       0.10864550       0.00025359       0.00079131       0.00045247      -5.72496849
Ni       8.88402369      12.44222610      10.63906665       0.60000000       0.09593883      -3.21051879      -0.42622400      -0.00048832       0.00212229       0.00083203      -5.72534645
Ni       7.10231427      10.68150150      14.12272553       0.60000000       1.27316798       1.89000108      -0.84876756      -0.00186458      -0.00139083      -0.00031779      -5.72613519
Ni       7.11881809      12.44883752      15.88591827       0.60000000       0.06726941      -0.27097180      -1.54084102      -0.00278387      -0.00067293      -0.00058166      -5.72198641
Ni       8.87689324      10.71346154      15.89055163       0.60000000      -0.86412751      -0.00392983      -1.56829930      -0.00189848       0.00077727       0.00420226      -5.72330612
Ni       8.90485738      12.47817441      14.16140274       0.60000000      -1.74339472      -2.46373531       1.38113921      -0.00414493      -0.00275027      -0.00271519      -5.72192818
Ni       7.09419238      10.68003735      17.61482716       0.60000000      -2.17877165       1.39339466      -0.98896328      -0.00213253      -0.00135004      -0.00268973      -5.72380424
Ni       7.10346247      12.44360682      19.36977938       0.60000000      -1.20009460      -0.78110333       0.12604628      -0.00334176       0.00153216      -0.00012516      -5.73560441
Ni       8.85529651      10.69726635      19.36740017       0.60000000       0.25595491       0.00362841      -1.11944038      -0.00161671      -0.00131631       0.00157799      -5.72284740
Ni       8.90344276      12.50289122      17.66936952       0.60000000      -0.93992241       0.87191164      -1.11586761      -0.00200245       0.00379750       0.00357844      -5.71978962
Ni       7.07019900      10.65830290      21.09746615       0.60000000       1.04530003       0.12526086       0.06707980       0.00107271       0.00065992       0.00034815      -5.72749621
Ni       7.07053072      12.41362878      22.84427629       0.60000000      -0.76677638      -1.15603220       3.08908904      -0.00251226       0.00180807      -0.00180399      -5.75793654
Ni       8.82504468      10.66431660      22.84403054       0.60000000      -0.49718993      -0.33879235       0.30319439       0.00167186       0.00262455      -0.00078834      -5.74396968
Ni       8.86786159      12.47554567      21.12169087       0.60000000      -0.53932106      -1.22592507       2.07466738       0.00018600      -0.00269828      -0.00254880      -5.73331839
Ni       7.04616614      10.63178256      24.59754078       0.60000000       0.14796823       1.49105145       0.99137487       0.00376157       0.00479995      -0.00127904      -5.73297781
Ni       7.04288023      12.38036868      26.35297228       0.60000000       1.57786312      -0.52239681       0.12076239       0.00271744       0.00064433       0.00015581      -5.74060667
Ni       8.80710425      10.63562652      26.34560296       0.60000000       2.26930471       0.15741893      -0.99912093       0.00022637       0.00581867      -0.00225985      -5.74032867
Ni       8.82249610      12.42044026      24.58588608       0.60000000       1.79149061       1.09610345       1.17042272       0.00022924       0.00465859       0.00050722      -5.65237021
Ni       7.03648607      10.61710916      28.11993324       0.60000000      -0.14907086       0.98005445      -1.53689354      -0.00022054      -0.00040111      -0.00041877      -5.72892165
Ni       7.03580877      12.36959866      29.88382157       0.60000000      -0.79425000      -1.26689612      -0.61831866       0.00020753       0.00185699      -0.00066643      -5.72903466
Ni       8.79851729      10.61883255      29.87894228       0.60000000      -0.81623197      -0.42443126      -1.30469085       0.00150016      -0.00021187      -0.00023048      -5.72873431
Ni       8.80514326      12.37987396      28.10503137       0.60000000      -0.05097345      -0.18718877      -0.47107361      -0.00013037       0.00173150      -0.00302765      -5.74115723
Ni       7.03360899      10.61174650      31.65461349       0.60000000       1.84144329       0.19536980      -0.10457045       0.00069364       0.00084383       0.00102422      -5.73017585
Ni       7.03539906      12.36816719      33.42458322       0.60000000       2.02421820       0.38957958       1.76812625      -0.00015268       0.00044660      -0.00021942      -5.73025030
Ni       8.79611767      10.61473262      33.42324813       0.60000000       1.53036050       0.86212998       0.77384127       0.00055840       0.00017937       0.00036687      -5.73025608
Ni       8.79701382      12.37077242      31.64848516       0.60000000       0.45168200      -2.88874082       0.57902793       0.00044894       0.00050780      -0.00049820      -5.72946769
Ni       7.03867136      14.12481222      -0.00375559       0.60000000      -1.74163523      -0.02892543       0.97822611      -0.00009879      -0.00050782       0.00065621      -5.73015994
Ni       7.04327701      15.88083928       1.76805709       0.60000000       1.90921167       1.68163460       1.44224479       0.00129916       0.00021113       0.00018472      -5.73004472
Ni       8.80772113      14.13097344       1.77341800       0.60000000       2.07292310       0.59583671       0.81785224       0.00198477       0.00050980       0.00030433      -5.72986007
Ni       8.79949955      15.87952433      -0.00511915       0.60000000      -0.48956423      -0.21033368      -0.25642469       0.00027228       0.00026685       0.00097640      -5.73031348
Ni       7.05376211      14.13297097       3.54302711       0.60000000      -0.92774442       1.82786940      -1.90924536       0.00106822       0.00023886       0.00106668      -5.72965145
Ni       7.06238041      15.88936371       5.31185142       0.60000000      -1.29840841      -0.92224079      -1.54804622       0.00021262       0.00071026       0.00172647      -5.72938621
Ni       8.83599264      14.14804383       5.32610158       0.60000000      -0.11455112      -0.83865434       0.48910127      -0.00046563      -0.00054955       0.00081126      -5.72844321
Ni       8.81845236      15.88889065       3.54802884       0.60000000      -0.42232907       0.27081934       0.87691485       0.00154490      -0.00034972       0.00022432      -5.72932690
Ni       7.07771070      14.14756259       7.08390713       0.60000000      -0.57733877       0.00639919      -0.98080615      -0.00032371       0.00111853       0.00168830      -5.72875768
Ni       7.08516347      15.90170316       8.84575440       0.60000000      -1.17588409      -1.91711336      -1.49609065      -0.00097133      -0.00016941       0.00212805      -5.72887856
Ni       8.87260735      14.17431182       8.87089409       0.60000000      -0.27445140       0.28107092       3.59705071      -0.00050616       0.00167117      -0.00098665      -5.72672802
Ni       8.85240101      15.90700009       7.09674471       0.60000000       0.51130334       2.57942024      -0.13838574      -0.00123700      -0.00152524      -0.00138178      -5.72779632
Ni       7.10134806      14.16640739      10.61445656       0.60000000      -0.06906412      -0.06743443      -1.01729594      -0.00009742       0.00127755       0.00166136      -5.72776324
Ni       7.10532279      15.91510931      12.37099515       0.60000000      -1.72193186       0.02034675       0.70433234      -0.00137352       0.00322549      -0.00035915      -5.72734749
Ni       8.90547364      14.20849159      12.40553278       0.60000000       2.17051497       0.33063323      -1.73207900      -0.00154293       0.00140319      -0.00070324      -5.72355604
Ni       8.88675174      15.92983799      10.63167435       0.60000000      -0.32250141       1.21451398      -0.76227870      -0.00052106       0.00100019      -0.00078945      -5.72624832
Ni       7.12044450      14.18777543      14.13641870       0.60000000       0.42668323      -0.33539520      -0.12798809      -0.00245604      -0.00158465      -0.00090869      -5.72416341
Ni       7.11954658      15.92754060      15.89122402       0.60000000       1.37429319       0.17313882      -1.48744134      -0.00423780       0.00033626      -0.00185857      -5.72449672
Ni       8.93352172      14.24952759      15.93364095       0.60000000      -0.86170966       0.61686630       1.26961451      -0.00371415      -0.00033194      -0.00190643      -5.71376789
Ni       8.91693174      15.96003543      14.16578340       0.60000000       0.23845275       0.34661195       0.77793057      -0.00058186       0.00255288       0.00015295      -5.71780336
Ni       7.13024662      14.20027914      17.64760516       0.60000000       0.33470558       0.83912095      -0.23634324      -0.00095858      -0.00146079       0.00236130      -5.73352462
Ni       7.09788837      15.91716529      19.38010633       0.60000000      -0.01489669      -0.70729440      -0.06574493      -0.00112523      -0.00110071      -0.00355701      -5.62183577
Ni       8.94301474      14.30756704      19.48983565       0.60000000      -0.97717473       2.19064221      -0.43995350       0.01004451       0.01076359       0.01501173      -5.56757289
Ni       8.94670447      15.98701539      17.70082554       0.60000000      -2.10001230       1.37813027       0.31325950      -0.00035144      -0.00252807      -0.00556087      -5.71585971
Ni       7.08065883      14.17309042      21.11152927       0.60000000       0.18815604      -0.82244940       1.18736712       0.00233480      -0.00142798      -0.00167705      -5.62393957
Ni       7.07088147      15.88132833      22.83057140       0.60000000      -0.14937219      -0.45685893       1.22239210       0.00441611       0.00124720       0.00329676      -5.62736744
Ni       8.88158851      14.22498288      22.84172620       0.60000000       0.35166469       1.11171440      -1.67601861      -0.00191533       0.00064049      -0.00023578      -5.48568100
Ni       8.97166159      17.44500152      22.66571368       0.60000000       0.84232053      -0.20847832       1.22946391       0.00078567       0.00068841       0.00532315      -5.43017828
Ni       7.06231991      14.14398673      24.58744703       0.60000000       1.75340413      -0.67470876      -0.81993010      -0.00308705       0.00053950      -0.00158189      -5.75456953
Ni       7.06255671      15.87827566      26.33468056       0.60000000       1.83408592       0.76313441       1.02086006      -0.00008016       0.00265100      -0.00002833      -5.74664271
Ni       8.81668744      14.13361010      26.33139505       0.60000000       0.35144214      -0.09481003       0.83491130       0.00016491       0.00086671      -0.00114739      -5.65041745
Ni       7.04079476      14.12772859      28.11392495       0.60000000       0.26477920      -0.04445841       0.07840180       0.00244291       0.00064137      -0.00378674      -5.73475546
Ni       7.04218874      15.87822665      29.87472097       0.60000000      -1.02056367       1.01579593       0.90338032       0.00031769      -0.00124032      -0.00189100      -5.72802198
Ni       8.80199105      14.12674209      29.87200777       0.60000000      -0.68107423      -0.01112910       0.62472179       0.00053105       0.00073213      -0.00201474      -5.73012859
Ni       8.81792259      15.87571429      28.08695289       0.60000000       0.92004582       0.29133111      -1.00701437       0.00039840       0.00122818      -0.00193188      -5.74407345
Ni       7.03534704      14.12316942      31.65065215       0.60000000       1.76128303       0.84244565       0.84368309       0.00147202       0.00072868      -0.00034878      -5.72973537
Ni       7.03571737      15.87728352      33.42059620       0.60000000      -0.62009993      -0.19975675       1.42883110       0.00042047      -0.00062670      -0.00015034      -5.73037845
Ni       8.79692421      14.12441919      33.42113727       0.60000000       1.52232192       1.01716245      -1.12531615      -0.00015300       0.00007146       0.00011529      -5.73044175
Ni       8.79830533      15.87681187      31.64342977       0.60000000      -1.28905082       0.13973096      -0.23308328       0.00121055       0.00083126      -0.00088006      -5.72943825
Ni       7.03687079      17.63172882      -0.00839990       0.60000000      -2.11565101       0.96174857      -0.69514429      -0.00009123       0.00014881       0.00018430      -5.73030692
Ni       7.03844224      19.38652304       1.76138158       0.60000000       0.84198639       0.17212009       1.92698460       0.00025565      -0.00063518       0.00044280      -5.73021823
Ni       8.80423827      17.63485611       1.76810334       0.60000000       1.26270732       1.26775548       0.21978549       0.00183160      -0.00041771       0.00006624      -5.73002833
Ni       8.79618668      19.38489174      -0.01181061       0.60000000       0.87904071       1.61782606      -1.36518735       0.00018524       0.00051226       0.00084044      -5.73049849
Ni       7.04835394      17.63577790       3.53747878       0.60000000       0.51242206      -1.20532784       0.31626679       0.00101717      -0.00020914       0.00034665      -5.72986400
Ni       7.05150387      19.38888287       5.30246909       0.60000000       0.81734171      -0.55223682       2.12537082      -0.00008040      -0.00025072       0.00040616      -5.72992361
Ni       8.82973273      17.64421610       5.31885515       0.60000000      -3.14926359       1.18183441       1.20507263      -0.00120286      -0.00161230      -0.00045149      -5.72890276
Ni       8.81014253      19.38907763       3.53858724       0.60000000      -0.31520594      -0.51172986      -1.04060059       0.00100075      -0.00135141       0.00009139      -5.72977871
Ni       7.06721375      17.64219493       7.07511297       0.60000000      -0.92515831      -0.41192207       1.08782784      -0.00054367      -0.00005256       0.00064540      -5.72959173
Ni       7.06637814      19.39183235       8.83206950       0.60000000      -0.79924233      -1.55398166       0.80687221      -0.00172653      -0.00178727       0.00025241      -5.72998995
Ni       8.86107059      17.65814291       8.85753227       0.60000000      -0.01337631      -0.70431438      -1.20148982      -0.00168249      -0.00070020      -0.00305415      -5.72783035
Ni       8.83538569      19.39490853       7.08213259       0.60000000       3.10727829       0.75060402      -0.24413880      -0.00154202      -0.00020896      -0.00089628      -5.72865766
Ni       7.08531757      17.64902337      10.60130054       0.60000000       0.13081416      -1.53157479       0.88690097      -0.00115541       0.00021813      -0.00043869      -5.72908539
Ni       7.07787028      19.39091838      12.35140714       0.60000000       1.18762944       1.73450988      -1.40196888      -0.00031285       0.00277908       0.00049992      -5.72709292
Ni       8.88728102      17.67167659      12.38292479       0.60000000      -1.38990187       1.36788833      -2.14296408      -0.00084809       0.00279726      -0.00089111      -5.72454154
Ni       8.85832124      19.40185398      10.60694568       0.60000000      -0.39677915      -0.05994264       0.50120566       0.00047754       0.00239016      -0.00180229      -5.72666037
Ni       7.09835752      17.65375500      14.12186961       0.60000000       0.89620791       1.34625966       0.07966379      -0.00036820       0.00128042       0.00065755      -5.72494829
Ni       7.08845986      19.38745500      15.87033568       0.60000000      -0.54657123       0.74354844      -0.40438013      -0.00316126       0.00176799       0.00181983      -5.74175680
Ni       8.90817534      17.68660383      15.92248945       0.60000000      -0.98143207      -0.68015381       0.09190597      -0.00028734       0.00078718       0.00209731      -5.73830992
Ni       8.87117462      19.40100758      14.13002998       0.60000000       0.79425112      -2.47000747      -0.47714557       0.00098846      -0.00134201       0.00147885      -5.74611306
Ni       7.11004797      17.65448168      17.63686273       0.60000000       0.24796032       0.39100857       0.59325908      -0.00117359      -0.00116023       0.00281143      -5.75746316
Ni       7.09682616      19.37219343      19.36053501       0.60000000       0.90546409       0.35522641       0.22142540      -0.00250435      -0.00208872      -0.00172103      -5.76380098
Ni       8.91150056      17.64288057      19.44077875       0.60000000       0.08784288      -0.78539593      -1.25726495      -0.00059041       0.00293009      -0.00436887      -5.51547927
Ni       8.90726748      19.40834606      17.65576853       0.60000000      -0.35808812      -0.39957745      -0.13673705      -0.00066407      -0.00476234       0.00398024      -5.61400253
Ni       7.08542808      17.61508809      21.09582300       0.60000000       3.04083364      -0.59213982      -0.39395384       0.00435197       0.00074267       0.00297239      -5.62250030
Ni       7.11572926      19.33017089      22.80888068       0.60000000      -0.29436303      -1.22737161      -1.92050567      -0.00175335      -0.00058006      -0.00010044      -5.74227202
Ni       8.91299870      19.33201156      21.06748470       0.60000000       0.86188258      -0.64646138       0.19613680      -0.00038981      -0.00011086      -0.00162875      -5.63559192
Ni       7.10027902      17.60044388      24.54974660       0.60000000      -0.26212736      -1.88246814      -0.77052172       0.00204626       0.00192349      -0.00022050      -5.74322516
Ni       7.09186284      19.35059251      26.30383585       0.60000000      -0.61142054       0.52675685       0.80161300      -0.00255383       0.00379480      -0.00117771      -5.71797490
Ni       8.86033535      17.59900016      26.28655077       0.60000000       1.00942306       0.90330996       0.52077264       0.00082508       0.00335781      -0.00098503      -5.73605680
Ni       8.93611021      19.25088669      24.45737582       0.60000000      -0.43578381      -0.18688214      -0.48439696       0.00717588      -0.00929895      -0.00496242      -5.71532154
Ni       7.05985749      17.62523990      28.09319086       0.60000000       0.45982010       3.27389157      -0.49147191       0.00106740      -0.00138344      -0.00315461      -5.72609222
Ni       7.05246494      19.37648647      29.86053020       0.60000000      -1.07177200      -2.08107364       2.54898391      -0.00015525      -0.00049015      -0.00027143      -5.72891814
Ni       8.80987524      17.62490087      29.85929988       0.60000000      -0.29892165       0.26142085      -1.64932784       0.00047154      -0.00121939      -0.00134680      -5.72817910
Ni       8.83705665      19.35607673      28.06244012       0.60000000      -2.26956046      -2.05817574       0.21782131       0.00168241      -0.00084995       0.00109596      -5.72241110
Ni       7.03937871      17.62962062      31.64268916       0.60000000      -0.35178006       0.94525334       0.28846112       0.00047480       0.00060465       0.00049143      -5.73008817
Ni       7.03613771      19.38352564      33.41374071       0.60000000       0.41484007       0.50013699       0.07968942       0.00063458       0.00040581      -0.00016872      -5.73040783
Ni       8.79629744      17.63008922      33.41572738       0.60000000      -0.21440934      -0.46031392       0.93277840       0.00140594       0.00000105       0.00097728      -5.73069036
Ni       8.80169165      19.37832625      31.63366291       0.60000000      -2.40304864       1.02391698      -1.10359011       0.00010042       0.00059324       0.00040161      -5.73031563
Ni       7.03368294      21.13941278      -0.01533816       0.60000000      -1.33487985      -1.17307080      -0.65366887       0.00102458      -0.00034530      -0.00023532      -5.73040617
Ni       7.03222832      22.89653808       1.75350107       0.60000000       3.02477636       0.47456405      -0.07117251       0.00063979      -0.00079336      -0.00078272      -5.73043448
Ni       8.79719039      21.14040811       1.75878142       0.60000000       0.80153615       0.12964408      -1.68403427       0.00060715      -0.00013589       0.00065897      -5.73034704
Ni       8.79125789      22.89427930      -0.01925004       0.60000000      -1.87814257       1.02261924      -0.36165842       0.00080227      -0.00043119      -0.00031150      -5.73055553
Ni       7.03952971      21.14111709       3.52811944       0.60000000       1.55358597      -1.36379536       0.20369562       0.00045820      -0.00067200       0.00069785      -5.73021424
Ni       7.03925753      22.89608695       5.29104652       0.60000000       1.66113108       0.02877880      -0.28951230       0.00003578      -0.00153194      -0.00051405      -5.73015505
Ni       8.81351637      21.14136882       5.30368474       0.60000000       1.88410765       0.00283571       0.19080626       0.00098847      -0.00064028       0.00107750      -5.72915918
Ni       8.79815720      22.89601004       3.52582735       0.60000000      -1.52907488       1.84125572       2.28078678       0.00010484      -0.00089593       0.00038307      -5.73016262
Ni       7.05116482      21.14111479       7.06221242       0.60000000       1.03379384       1.82219031       3.64201639      -0.00118133      -0.00167967       0.00073015      -5.72993094
Ni       7.04833028      22.89319414       8.81885217       0.60000000      -1.91490312       2.02241097      -0.33587233      -0.00019180      -0.00178973      -0.00001388      -5.72939473
Ni       8.83366776      21.14300426       8.83681665       0.60000000      -0.70517798       0.66946115      -0.75812023      -0.00060670       0.00152804      -0.00083130      -5.72815132
Ni       8.81307885      22.89324275       7.06331164       0.60000000       0.46928468      -0.86523102      -0.29069891       0.00114087       0.00021502       0.00032265      -5.72790098
Ni       7.06093518      21.13906568      10.58520727       0.60000000      -0.60413996      -1.63701940       0.63464013      -0.00046263       0.00068579      -0.00076103      -5.72876102
Ni       7.05742178      22.88634377      12.33783719       0.60000000       2.07147287      -1.96443337       0.23061579      -0.00110609      -0.00173409      -0.00063845      -5.72771293
Ni       8.84862564      21.13828324      12.35336279       0.60000000      -0.11293233       0.70407647       1.14630577       0.00004609      -0.00058073      -0.00112318      -5.73188055
Ni       8.82809934      22.88787839      10.58789989       0.60000000       1.14856597       1.41820374       0.30162373       0.00026591       0.00271213      -0.00292198      -5.73131406
Ni       7.06626460      21.13283769      14.09808598       0.60000000      -0.95986659       1.56259604      -1.01350322       0.00137789       0.00027225       0.00171374      -5.73474574
Ni       7.06248607      22.87659952      15.84508438       0.60000000      -0.88671484      -0.69402637       0.57383096       0.00113737      -0.00104944       0.00028970      -5.74217600
Ni       8.84773648      21.12703505      15.86893940       0.60000000      -1.27262457      -0.64050232      -0.32847618      -0.00047972      -0.00140769       0.00239804      -5.64820987
Ni       8.84634503      22.86719775      14.10312833       0.60000000      -0.24767194      -1.62736269      -1.03135536       0.00117714       0.00247747       0.00123062      -5.74145752
Ni       7.08016120      21.12109564      17.60634701       0.60000000      -0.90533101      -1.90934961       0.88388648      -0.00161870       0.00048481      -0.00061066      -5.73647392
Ni       7.08428086      22.85694618      19.33907711       0.60000000       0.60698504      -1.71579864       1.47953762      -0.00129801      -0.00164651       0.00051509      -5.74223661
Ni       8.90827069      21.08051140      19.32154709       0.60000000      -0.37481735      -0.01980676       0.41235732      -0.00122821       0.00068847       0.00138352      -5.60467982
Ni       8.85410163      22.84224178      17.58859564       0.60000000       1.04074207       0.75789253       0.65527489      -0.00021162       0.00100139      -0.00086033      -5.64496481
Ni       7.10017115      21.09957871      21.07997736       0.60000000       0.18598154      -0.23129954       1.59618854      -0.00003702       0.00281616       0.00077665      -5.74514067
Ni       7.10201619      22.84188689      22.81539613       0.60000000      -1.21860017       1.16725047      -0.85311499      -0.00212499      -0.00174267      -0.00194849      -5.72334498
Ni       8.92849528      21.04158375      22.76362947       0.60000000      -1.25622598       0.64398194      -0.04757007      -0.00142326       0.00118673       0.00362013      -5.71479815
Ni       8.89960896      22.80436203      21.04655414       0.60000000       0.70134421       1.36577493       0.86208679      -0.00147768       0.00168191       0.00029973      -5.73471016
Ni       7.11323402      21.07865919      24.54564775       0.60000000       0.87519003       0.57170844      -0.50062308       0.00025366      -0.00095899       0.00135821      -5.71622878
Ni       7.09082363      22.84524638      26.30850567       0.60000000      -0.83832193       3.39874357       0.34818415      -0.00073436      -0.00095561       0.00068979      -5.72435826
Ni       8.87759240      21.05855919      26.25984729       0.60000000      -0.56036026      -2.05852888       1.34504797       0.00005653      -0.00046098      -0.00432198      -5.71198553
Ni       8.89282752      22.80358357      24.52001577       0.60000000      -1.02481138       0.91242865       1.22788665      -0.00038856       0.00189209       0.00022629      -5.71451074
Ni       7.07396627      21.11013914      28.07510612       0.60000000      -0.58641060      -0.48703713      -1.21746562      -0.00025792       0.00167199       0.00011002      -5.72551441
Ni       7.05573868      22.87417661      29.85302662       0.60000000      -0.48645761      -0.45535900       2.90474711      -0.00037638       0.00087211       0.00002993      -5.72811532
Ni       8.81741639      21.11686459      29.84516162       0.60000000      -0.06477581       1.18974294       1.05944934      -0.00079047       0.00067634      -0.00040710      -5.72798061
Ni       8.83845073      22.84496717      28.05805758       0.60000000       1.42551870      -0.92441547      -0.59144611       0.00118534      -0.00136491      -0.00003240      -5.72429264
Ni       7.04305807      21.13228436      31.63347550       0.60000000       0.24704640       1.00452006       0.45240217       0.00023304      -0.00048825      -0.00021312      -5.72986937
Ni       7.03507983      22.89128467      33.40717008       0.60000000       1.12910988       1.72781042      -0.00022624       0.00061966       0.00068424      -0.00049785      -5.73018312
Ni       8.79506200      21.13546234      33.40823390       0.60000000      -3.03378289      -0.23714649       0.62915388       0.00136968      -0.00033808      -0.00019239      -5.73061603
Ni       8.80147775      22.88119364      31.62634983       0.60000000      -2.26805962       0.60720895       0.66046547       0.00148621      -0.00036334       0.00060178      -5.72966957
Ni       7.03005096      24.65225853      -0.02106219       0.60000000       2.08456387       1.42355084       0.07193690      -0.00023966       0.00054246      -0.00006901      -5.73037511
Ni       7.02687190      26.41435185       1.74778789       0.60000000      -1.10083247      -0.62423677      -2.55639500       0.00072689      -0.00009122      -0.00034238      -5.73046762
Ni       8.78935909      24.65402711       1.75031120       0.60000000       0.81208766      -2.33417048       1.44334416       0.00093893      -0.00094074      -0.00045199      -5.73057181
Ni       8.78672437      26.41144540      -0.02303685       0.60000000      -1.01912073      -1.30205146      -2.41380642      -0.00027957      -0.00002820      -0.00093827      -5.73037237
Ni       7.03093038      24.65465127       3.51898144       0.60000000      -0.07881854      -0.57446298      -0.03716523       0.00037575      -0.00066270       0.00049675      -5.73051548
Ni       7.03055368      26.41379671       5.28257802       0.60000000      -0.47729681      -1.54083027       0.19063855       0.00043926      -0.00101792       0.00028163      -5.73044020
Ni       8.79726048      24.65236432       5.28830490       0.60000000       1.20930605      -0.23313216      -1.24186431       0.00261589      -0.00222237       0.00252133      -5.72951436
Ni       8.78859268      26.41425077       3.51663732       0.60000000       0.78774104       0.02643564       0.31207533      -0.00035272      -0.00006026      -0.00030574      -5.73055714
Ni       7.03851417      24.65184663       7.05102940       0.60000000       1.50552013       0.35628582      -0.28140033      -0.00042745      -0.00186196       0.00146979      -5.72978723
Ni       7.03918122      26.40728367       8.81107560       0.60000000      -1.53059839       1.48788685      -0.37632310      -0.00090204      -0.00092747       0.00030441      -5.72953260
Ni       8.81165548      24.64467340       8.82074747       0.60000000       0.30147393      -0.38444897       0.48354611       0.00087051       0.00014077      -0.00153841      -5.73034674
Ni       8.79772577      26.40869464       7.05063802       0.60000000       0.32981704       1.60631282      -1.59889461       0.00062855      -0.00135975      -0.00065802      -5.72909278
Ni       7.04763052      24.64480167      10.57534843       0.60000000       1.28009270       0.45326261      -0.21270284      -0.00137051      -0.00185993       0.00001026      -5.72932386
Ni       7.04933240      26.39571229      12.33054711       0.60000000      -0.38031580      -2.68769185       1.48362443      -0.00064697       0.00023870      -0.00116351      -5.72904450
Ni       8.82902188      24.62711040      12.34079004       0.60000000      -1.13675896      -0.94154931       1.40706191       0.00219213       0.00097506      -0.00072495      -5.72980887
Ni       8.81391593      26.39287657      10.57868795       0.60000000      -0.63873156      -0.44324849       1.30512326       0.00039722       0.00136974      -0.00103053      -5.72969866
Ni       7.05721389      24.63305336      14.08852808       0.60000000       0.54584954      -2.62694953      -2.53489376       0.00044404      -0.00096909      -0.00112597      -5.72770542
Ni       7.05967297      26.38381739      15.83545069       0.60000000      -0.14085025      -0.78598905       2.74835001      -0.00130106      -0.00170770       0.00226594      -5.72824401
Ni       8.84927537      24.60077534      15.84199584       0.60000000      -0.58231723       2.09979436      -1.54541467       0.00197126      -0.00368284      -0.00286056      -5.73675400
Ni       8.83250384      26.37059949      14.08889968       0.60000000      -1.08731894       0.40033233      -0.74793415       0.00231296      -0.00159242      -0.00287104      -5.72509587
Ni       7.06596734      24.62274105      17.58889551       0.60000000       0.24566839       1.42783952       0.62049513       0.00332412      -0.00380334       0.00023072      -5.73515445
Ni       7.06931599      26.37505106      19.33377793       0.60000000      -0.48198387       1.21371842      -1.15176479      -0.00035262      -0.00386877      -0.00222642      -5.72721243
Ni       8.86447254      24.58243324      19.32005590       0.60000000       0.54422887       1.89739968       0.37385359       0.00231770       0.00006875      -0.00211368      -5.73994291
Ni       8.84404513      26.35638384      17.57916173       0.60000000      -1.82310228       0.48458020       0.36602843       0.00106672       0.00045601       0.00143162      -5.72781914
Ni       7.08508478      24.60616674      21.07828047       0.60000000       2.10268031      -1.13021741      -1.38707169       0.00084424      -0.00180993      -0.00148506      -5.72544950
Ni       7.07644830      26.36792182      22.82690891       0.60000000      -1.63051480       0.61441273       1.68522374      -0.00082107      -0.00068851      -0.00118654      -5.72767442
Ni       8.87603802      24.57052544      22.79454294       0.60000000      -0.45738716      -0.81117281      -2.93025774       0.00130680       0.00219269       0.00028561      -5.72102588
Ni       8.85169496      26.34886178      21.06511967       0.60000000       0.53577987       0.24984907      -1.34288080       0.00100981      -0.00022438      -0.00116354      -5.72513008
Ni       7.08848564      24.60161242      24.56637027       0.60000000      -1.26660761      -0.81261395      -1.45743393      -0.00020610       0.00056636      -0.00012205      -5.72613370
Ni       7.06811139      26.37309550      26.33149201       0.60000000       0.72546595      -3.21463874      -1.56937436       0.00047847       0.00090143      -0.00025908      -5.72766829
Ni       8.85179920      24.58766915      26.29913965       0.60000000       0.40463495      -0.96013838       0.72063216      -0.00125813       0.00319096       0.00056491      -5.72426420
Ni       8.84675202      26.35012857      24.55909765       0.60000000      -0.96145418      -0.62500882       2.79328584       0.00115925       0.00093406       0.00028109      -5.72585672
Ni       7.06659287      24.61786669      28.08406806       0.60000000       0.25197712      -0.81374416       0.42431211       0.00037258      -0.00111108       0.00032132      -5.72701287
Ni       7.04702799      26.39122842      29.86222432       0.60000000       1.34975093       0.15385723       0.06563525       0.00113540      -0.00061351      -0.00082335      -5.72862315
Ni       8.81218142      24.62316038      29.84814243       0.60000000      -0.51282314      -0.53252935       0.18679706      -0.00064449      -0.00005086      -0.00094834      -5.72792315
Ni       8.81972975      26.37223419      28.08377076       0.60000000       0.32741212       0.34615204       1.12828639       0.00057290       0.00137731       0.00028357      -5.72747731
Ni       7.04077573      24.64068609      31.63105119       0.60000000      -0.25895936       3.22109739       0.68702967       0.00200177      -0.00062607      -0.00045682      -5.72932726
Ni       7.03151224      26.40736792      33.40650006       0.60000000      -1.70746815       0.77403107       1.38031570      -0.00003328       0.00019193      -0.00174521      -5.72995001
Ni       8.79166026      24.64640304      33.40366861       0.60000000      -0.68783475      -0.02870542       0.72245108       0.00070967       0.00017776       0.00028256      -5.73021162
Ni       8.79550729      26.39760248      31.63036176       0.60000000      -1.56965376       0.66515089       0.49287989       0.00142209      -0.00114971      -0.00028294      -5.72944766
Ni       7.02615028      28.17395384      -0.02187867       0.60000000       0.79631914      -0.62639147      -0.42087833       0.00030420       0.00013999      -0.00051158      -5.73022580
Ni       7.02421238      29.94027591       1.74722375       0.60000000       0.95852939       1.94514882      -0.94039045       0.00004304      -0.00048513      -0.00024871      -5.73031884
Ni       8.78432716      28.17613344       1.74651520       0.60000000      -0.42272972       1.02195911      -0.30599993       0.00103767       0.00015102      -0.00034989      -5.73049033
Ni       8.78324685      29.93791288      -0.02132050       0.60000000      -1.61574622      -0.96999515      -0.05376872       0.00125279      -0.00091263      -0.00008706      -5.73023021
Ni       7.02587757      28.17696910       3.51426057       0.60000000      -1.07459295      -0.92143569       0.57702368       0.00087953      -0.00051425       0.00053511      -5.73052591
Ni       7.02711275      29.93953904       5.27957282       0.60000000      -2.62450773       0.17574324      -1.23361627       0.00005308       0.00031735      -0.00047095      -5.73047167
Ni       8.78900633      28.17452286       5.28126639       0.60000000       0.30088783      -0.57281407       1.57153036       0.00029504       0.00005456       0.00110881      -5.73026919
Ni       8.78463115      29.94028939       3.51406384       0.60000000       1.75269417      -2.23966229       1.60782783       0.00010233       0.00099261      -0.00007395      -5.73052460
Ni       7.03186673      28.17294801       7.04509025       0.60000000      -1.85708443       2.84233192      -2.57032848      -0.00063647      -0.00101824       0.00119764      -5.73027158
Ni       7.03419423      29.93239085       8.80623043       0.60000000      -0.12127645       0.16722590       0.25651233      -0.00046061       0.00188488      -0.00008099      -5.73014373
Ni       8.79993732      28.16367993       8.81197320       0.60000000      -0.39694643       0.18350832      -0.05852095       0.00045939       0.00118514       0.00081907      -5.72878283
Ni       8.79111358      29.93482295       7.04535927       0.60000000       1.61001006       1.13132393       1.04002856      -0.00029923       0.00093032      -0.00012485      -5.73003101
Ni       7.04163295      28.16271960      10.56958450       0.60000000       0.80513217      -0.01225769      -0.00269420      -0.00191533       0.00007989      -0.00097782      -5.72963905
Ni       7.04260098      29.92220776      12.32351922       0.60000000      -0.38163023      -0.07498035      -1.69181995      -0.00136883       0.00147903       0.00039838      -5.72985941
Ni       8.81661342      28.14432686      12.33252171       0.60000000       0.77706919       0.24989512       0.93420339      -0.00046458       0.00017064      -0.00451105      -5.72717589
Ni       8.80191490      29.92197181      10.57008079       0.60000000       0.07288708       0.35588486       1.17779446       0.00186581      -0.00054740      -0.00149498      -5.72898310
Ni       7.05071113      28.15108571      14.08123661       0.60000000       1.20235841      -1.30728077      -0.81805238      -0.00093965       0.00054153      -0.00030131      -5.72960013
Ni       7.04810417      29.91424797      15.83059942       0.60000000      -0.83462078      -0.60892660       0.78895221      -0.00057492      -0.00057609       0.00098331      -5.72987264
Ni       8.82746883      28.13078217      15.83248917       0.60000000      -0.81492009      -0.29249397       0.94696694       0.00023336      -0.00105956      -0.00151215      -5.72736937
Ni       8.81272316      29.90817152      14.08017872       0.60000000      -0.46285999      -0.60265949      -0.62191583       0.00035835      -0.00066696      -0.00057767      -5.72900361
Ni       7.05711960      28.14325473      17.58338460       0.60000000      -1.05031815       0.39463017       1.35440813       0.00166476      -0.00156839      -0.00061490      -5.72904027
Ni       7.05150669      29.90977798      19.33399439       0.60000000      -0.19883820      -0.03462930      -2.14413045      -0.00099317      -0.00087179      -0.00051415      -5.72970498
Ni       8.83270318      28.12463271      19.32538559       0.60000000      -0.83391134      -0.97784201      -0.77556947       0.00121583      -0.00090799      -0.00011974      -5.72769451
Ni       8.81804381      29.90041331      17.57956477       0.60000000      -0.60917894       1.87361278       0.67792836      -0.00127248       0.00039363       0.00128978      -5.72930288
Ni       7.06249932      28.13851367      21.08294236       0.60000000      -1.01360291       0.77573590      -0.81682617      -0.00012259      -0.00038616      -0.00112166      -5.72907555
Ni       7.05169005      29.90888814      22.83859010       0.60000000       0.88145929       1.21930188      -0.64485326       0.00090099      -0.00044162      -0.00023470      -5.72956061
Ni       8.83236637      28.12405085      22.82172111       0.60000000      -0.79129395       1.40832044       0.62436918       0.00084682      -0.00008356       0.00094713      -5.72819370
Ni       8.81861970      29.89879127      21.07920168       0.60000000       0.23214953      -1.10788045      -1.27548671       0.00071304      -0.00039490       0.00094616      -5.72933596
Ni       7.06141309      28.13848908      24.58552397       0.60000000      -1.40154773       1.49930896      -1.06306369       0.00035722      -0.00020417      -0.00082885      -5.72877377
Ni       7.04626792      29.91307450      26.35070684       0.60000000       0.87307745      -2.62029273       0.16015183       0.00020462       0.00069047       0.00039651      -5.72935504
Ni       8.81947218      28.13326419      26.33261707       0.60000000       0.41833213      -0.50653352      -0.50437972       0.00055855       0.00075391      -0.00015328      -5.72824967
Ni       8.81285152      29.90306785      24.58623532       0.60000000      -0.50007806       1.94950040      -1.88700968       0.00093369      -0.00026033       0.00066520      -5.72925222
Ni       7.04910043      28.14863165      28.10345696       0.60000000       0.31063528      -0.28678138      -1.20887349       0.00055661      -0.00004064      -0.00039401      -5.72880471
Ni       7.03559455      29.92360334      29.87641430       0.60000000      -0.25580126      -1.44551703       0.84205897       0.00037982      -0.00036410      -0.00063362      -5.72949904
Ni       8.79955260      28.15215254      29.86498233       0.60000000      -0.23173737      -0.79118713       1.18812036       0.00018661       0.00084987      -0.00086857      -5.72909081
Ni       8.80049157      29.91380748      28.10740602       0.60000000       0.89375143      -0.50732600      -1.03242753      -0.00027303       0.00067402      -0.00001180      -5.72936654
Ni       7.03404882      28.16359007      31.63844521       0.60000000      -1.58079536       2.04306553      -0.29664942       0.00100727      -0.00042249      -0.00144824      -5.72955865
Ni       7.02684789      29.93433249      33.41132219       0.60000000       1.69583037      -0.99798176       0.94295226       0.00085108      -0.00026488      -0.00090645      -5.72999579
Ni       8.78705703      28.16871443      33.40681675       0.60000000       1.06053982       1.40442480      -0.13174211       0.00068633      -0.00039889      -0.00135053      -5.73001426
Ni       8.78861690      29.92781629      31.64123469       0.60000000      -0.01894883      -2.04145595       1.36942934       0.00035820      -0.00024002      -0.00124795      -5.72979134
Ni       7.02400335      31.70368939      -0.01820434       0.60000000      -1.71644722      -0.13853087      -0.57730220       0.00096610      -0.00017184      -0.00096736      -5.73015851
Ni       7.02460437      33.47227646       1.75071123       0.60000000      -0.01390305      -1.27021185      -0.52599437       0.00133077      -0.00043946       0.00006450      -5.73013538
Ni       8.78285139      31.70561913       1.74836118       0.60000000      -0.16279384       1.29662177       0.53829938       0.00141540       0.00024431      -0.00008641      -5.73026472
Ni       8.78297241      33.47055711      -0.01603735       0.60000000      -0.24979564       0.74908930       0.24303145       0.00074619      -0.00024902      -0.00080379      -5.73013431
Ni       7.02502806      31.70617360       3.51472115       0.60000000       0.39102448      -0.01269311       1.24512382       0.00047961       0.00035636      -0.00025805      -5.73026460
Ni       7.02820625      33.47297222       5.28078726       0.60000000      -0.24529674       1.97077711      -0.81343299       0.00010550       0.00067965       0.00069904      -5.73013359
Ni       8.78676318      31.70472964       5.28039273       0.60000000       0.56090520      -0.23013412       0.31655199      -0.00021325       0.00154268      -0.00055527      -5.73037851
Ni       8.78516718      33.47334407       3.51680320       0.60000000      -0.95540578      -1.29730563      -0.98607281       0.00108453       0.00048388      -0.00030267      -5.73014969
Ni       7.02972271      31.70316740       7.04302278       0.60000000       1.33047239       1.21071453      -0.22496597       0.00040631       0.00054885       0.00040745      -5.73028463
Ni       7.03302132      33.46991752       8.80419916       0.60000000       1.85211079      -0.19240202      -0.10246043       0.00057761       0.00019521       0.00126513      -5.73014468
Ni       8.79357565      31.69782378       8.80656812       0.60000000      -0.88221179       0.62548073      -1.28081013      -0.00051499       0.00071132      -0.00027632      -5.73009712
Ni       8.79010289      33.47174141       7.04481705       0.60000000       1.16264833      -2.03652093      -0.71965484       0.00039233       0.00041449       0.00014910      -5.73018897
Ni       7.03597706      31.69609318      10.56363784       0.60000000       0.28898437      -1.58049089      -0.88438075       0.00008311       0.00005398       0.00187135      -5.73009342
Ni       7.03707663      33.46393420      12.31954902       0.60000000       1.62996429       1.38793150      -0.85464903       0.00006037       0.00048439       0.00075664      -5.73014736
Ni       8.80142218      31.68754816      12.32304151       0.60000000      -0.89878799      -1.10140229      -0.43749276      -0.00057211       0.00039001       0.00020380      -5.72986799
Ni       8.79552489      33.46616594      10.56469393       0.60000000       0.38081080      -1.13107564      -0.04489141       0.00029007      -0.00010868       0.00038206      -5.73023742
Ni       7.04099914      31.68821042      14.07559085       0.60000000      -0.33261462       0.29978290      -0.92750021      -0.00000561      -0.00001004       0.00104900      -5.73002225
Ni       7.03869116      33.45812463      15.82874220       0.60000000       0.47454695      -2.36252492      -1.15620803       0.00011744      -0.00046684       0.00095860      -5.73016357
Ni       8.80614704      31.67900865      15.82931410       0.60000000      -1.10783282       0.75632306       0.37597433       0.00016297       0.00001393       0.00048281      -5.72990280
Ni       8.79919727      33.45882030      14.07562042       0.60000000      -0.68736464      -1.38199586       1.54149968       0.00042386       0.00009014       0.00138991      -5.73028332
Ni       7.04348103      31.68265161      17.58219746       0.60000000      -1.27866763       0.79616943       0.66617484      -0.00097916       0.00071363       0.00081592      -5.72993112
Ni       7.03819423      33.45420444      19.33648835       0.60000000       0.35991162       0.12680349       0.10421340       0.00067418      -0.00061039       0.00013687      -5.73016065
Ni       8.80750209      31.67474077      19.33234511       0.60000000       0.71435697       0.23926729       2.27610318       0.00030796       0.00050144       0.00023702      -5.72977686
Ni       8.80001599      33.45271430      17.58186416       0.60000000      -1.80113295      -0.88329462       1.27883017       0.00112929      -0.00038522       0.00076764      -5.73021954
Ni       7.04366356      31.68078215      21.08876670       0.60000000       0.36544222      -1.72692842      -0.44544283      -0.00002385      -0.00073760      -0.00040314      -5.72992533
Ni       7.03638935      33.45354301      22.84669695       0.60000000      -0.70360546       0.60784378       0.98927335      -0.00031687      -0.00043519       0.00064699      -5.73018569
Ni       8.80503411      31.67573916      22.83886887       0.60000000       0.04692618       1.44256065       0.63411678       0.00052514      -0.00070703      -0.00003037      -5.72983813
Ni       8.79881584      33.45029562      21.08890410       0.60000000       0.78388788      -1.85349843      -2.56806370       0.00004513      -0.00099923      -0.00000096      -5.73023283
Ni       7.04090942      31.68243695      24.59942502       0.60000000      -1.33920773       0.18850172      -1.08478233       0.00039727      -0.00073910       0.00001906      -5.72986460
Ni       7.03251164      33.45620850      26.36294121       0.60000000      -0.29805800       0.60409662       1.24449845       0.00008813      -0.00082182       0.00062165      -5.73010343
Ni       8.79809324      31.68143486      26.35416206       0.60000000      -0.63210768      -0.66202845      -1.27670033       0.00019530      -0.00052870       0.00027797      -5.72985107
Ni       8.79486040      33.45201293      24.60140852       0.60000000       0.32832037       0.10079802       0.12655464      -0.00020841      -0.00044894       0.00051612      -5.73024207
Ni       7.03479273      31.68801831      28.11871638       0.60000000       2.22074606      -0.10542061      -0.42097196      -0.00014463       0.00056235       0.00076546      -5.72975773
Ni       7.02792021      33.46138626      29.88713416       0.60000000      -1.47758694      -0.94458109       1.32751340      -0.00034056      -0.00037878       0.00022231      -5.72994620
Ni       8.78962178      31.69058078      29.88017884       0.60000000       0.07567748      -1.63714267       0.51761736      -0.00034444       0.00043964       0.00016330      -5.72984082
Ni       8.78923386      33.45731145      28.12214442       0.60000000       1.12997101       0.40237779       2.26307032      -0.00012960      -0.00090860       0.00068631      -5.73013812
Ni       7.02780098      31.69661906      31.64795223       0.60000000      -0.98500391      -0.39198515      -0.48047868       0.00004014      -0.00018106      -0.00093990      -5.72985739
Ni       7.02469568      33.46767282      33.41799090       0.60000000      -1.53513050      -0.79533940       0.16950520      -0.00002941       0.00015307      -0.00126488      -5.73000997
Ni       8.78374110      31.70028045      33.41356419       0.60000000       1.75269768       0.26126405       1.65980005       0.00062915      -0.00066694      -0.00063266      -5.73007292
Ni       8.78472345      33.46418718      31.65075428       0.60000000       0.03354300      -0.22885723      -0.82576033      -0.00043730      -0.00001671      -0.00029878      -5.73002630
Ni      10.54209250       0.03812001      -0.01379286       0.60000000      -0.43432081      -1.14878315       0.87137077       0.00022588       0.00043613      -0.00068313      -5.73009974
Ni      10.54584802       1.80834990       1.75646325       0.60000000      -1.71026590       0.53481766       1.07352484       0.00005871      -0.00020479       0.00028492      -5.73000681
Ni      12.30009227       0.03994223       1.75266031       0.60000000      -1.15412963      -1.77185701      -0.68526547       0.00025962      -0.00054276       0.00005624      -5.73012644
Ni      12.30090287       1.80573274      -0.01260857       0.60000000       0.38195700      -0.10305070       0.62787076       0.00008804       0.00011083      -0.00040390      -5.73010111
Ni      10.54502475       0.04201575       3.51965399       0.60000000      -1.34248248      -1.37793297       0.35325687       0.00055187      -0.00054373       0.00055369      -5.73006606
Ni      10.55145936       1.81387191       5.28983869       0.60000000       2.52377364      -1.15222676      -1.41145642       0.00002423       0.00036388       0.00063939      -5.72992575
Ni      12.30369158       0.04204247       5.28466436       0.60000000      -0.45598688       1.29502016      -0.39762979       0.00005507       0.00037209       0.00020248      -5.73016953
Ni      12.30453585       1.81056582       3.52332095       0.60000000       0.49000055       1.07026684       0.98169979      -0.00056859      -0.00003681      -0.00041004      -5.73005956
Ni      10.54999586       0.04313946       7.04808144       0.60000000       0.20720368      -0.10989634      -0.27678016       0.00014342       0.00043009       0.00041965      -5.73013359
Ni      10.55769641       1.81802205       8.81466528       0.60000000       0.20590926      -1.42319806       1.17059527       0.00064710       0.00006091       0.00110091      -5.72995514
Ni      12.30788613       0.04200509       8.80899804       0.60000000       0.68620431       1.33250721      -0.37465850       0.00018293       0.00103383       0.00045386      -5.73034322
Ni      12.31007598       1.81594342       7.05376760       0.60000000      -0.61401868       1.46367732       0.43574984       0.00068314       0.00026666       0.00187741      -5.73001862
Ni      10.55452652       0.04110044      10.56715243       0.60000000      -0.11604813      -1.30008315       0.78300187      -0.00068543       0.00086997       0.00045774      -5.73034501
Ni      10.56092201       1.81684997      12.32779333       0.60000000       1.15797432      -1.01507890       1.08341733       0.00086503       0.00089148       0.00019295      -5.73016644
Ni      12.31097344       0.03825098      12.32336867       0.60000000      -0.55704551       0.90792099       3.67521184      -0.00037936       0.00037561       0.00058492      -5.73068583
Ni      12.31531191       1.81864272      10.57366040       0.60000000       0.24787294       0.73689903       0.15840897       0.00084358      -0.00017374       0.00135551      -5.73010224
Ni      10.55632752       0.03541735      14.07728461       0.60000000       0.18101147      -0.96919240       2.71349372       0.00008983       0.00007224      -0.00019854      -5.73058271
Ni      10.55967831       1.81007204      15.83291796       0.60000000      -2.05271779      -0.98574864      -1.04815482      -0.00096501       0.00071448      -0.00093019      -5.73047745
Ni      12.31147961       0.03121706      15.83042508       0.60000000      -1.39287042       2.00692663       1.50498058       0.00055707       0.00064604       0.00017667      -5.73092139
Ni      12.31673754       1.81446987      14.08181283       0.60000000       0.56009400       1.53877769      -1.05320716      -0.00008902       0.00034527      -0.00024857      -5.73045385
Ni      10.55549565       0.02831682      17.58300986       0.60000000      -0.40070440       0.59520165       1.14914231       0.00011652       0.00102875       0.00015311      -5.73067629
Ni      10.55509153       1.80222439      19.33780550       0.60000000       0.55292113      -1.41923808       0.37109281       0.00016169       0.00045524      -0.00019730      -5.73060685
Ni      12.31020506       0.02536461      19.33601638       0.60000000      -0.46533894       1.56127647      -0.38783330      -0.00061137       0.00060557       0.00020014      -5.73090202
Ni      12.31394509       1.80611818      17.58525780       0.60000000       0.40016955       0.69390351       0.34305158      -0.00077572       0.00137212      -0.00055362      -5.73075867
Ni      10.55283693       0.02420666      21.09054681       0.60000000      -0.53244568       0.13324312      -1.73051116      -0.00049239       0.00093396       0.00036274      -5.73065221
Ni      10.55040419       1.79761337      22.84829381       0.60000000       0.68591509       0.58456742      -0.99661037      -0.00040308       0.00078256      -0.00005592      -5.73062009
Ni      12.30698459       0.02360367      22.84608186       0.60000000      -0.86597383      -1.15020495      -0.08643667       0.00020585       0.00039154      -0.00019169      -5.73075694
Ni      12.30921890       1.79953252      21.09187601       0.60000000      -0.47956110      -0.86490424       1.25804550       0.00059491       0.00110826      -0.00003368      -5.73077458
Ni      10.54870638       0.02443611      24.60425923       0.60000000       0.35777954      -0.06894593       0.29137459       0.00053742      -0.00018946       0.00008758      -5.73058110
Ni      10.54648086       1.79758081      26.36553409       0.60000000      -0.16264489      -0.28770353       1.83787524       0.00009949       0.00071151      -0.00051116      -5.73047131
Ni      12.30307871       0.02591448      26.36330015       0.60000000      -2.91843533       0.91241217       1.72614715       0.00025837       0.00025236      -0.00046119      -5.73060417
Ni      12.30527699       1.79740988      24.60523694       0.60000000       0.96460712      -0.27768995       0.69213334      -0.00034903       0.00128502       0.00035598      -5.73071969
Ni      10.54472670       0.02799518      28.12516540       0.60000000       1.59758076      -0.96530726       0.11212261      -0.00006752      -0.00028966       0.00010922      -5.73039049
Ni      10.54359986       1.80007703      29.88971728       0.60000000       0.40445510      -0.10736740      -1.71592249       0.00123001       0.00025310      -0.00107501      -5.73028916
Ni      12.30016399       0.03088631      29.88748734       0.60000000       0.97434769       3.08743848      -0.71209442      -0.00079735      -0.00009034      -0.00003789      -5.73033917
Ni      12.30200921       1.79943760      28.12527173       0.60000000      -0.43452048      -0.91343591      -1.00939292       0.00060366       0.00017426       0.00046828      -5.73045468
Ni      10.54216644       0.03309717      31.65314122       0.60000000      -1.88231273      -0.07049465       0.75742720      -0.00019059       0.00012620      -0.00077751      -5.73017585
Ni      10.54322540       1.80361126      33.42094265       0.60000000      -0.84794354       1.88423633      -0.76797038       0.00000309      -0.00028455       0.00002346      -5.73012990
Ni      12.29882297       0.03588233      33.41839443       0.60000000       1.25558616      -0.85230372      -1.25878939      -0.00000081       0.00019017      -0.00037680      -5.73016536
Ni      12.30032030       1.80239507      31.65299857       0.60000000       1.55815379       1.82432889       0.21146027      -0.00000254      -0.00031254      -0.00004925      -5.73021930
Ni      10.54670739       3.57243787      -0.00924148       0.60000000       1.19056180      -1.40818335       1.17676537       0.00001245       0.00050442      -0.00030482      -5.73006064
Ni      10.55320151       5.34140232       1.76395460       0.60000000      -0.88254154       0.57292574       0.39535506      -0.00027331       0.00036951       0.00007509      -5.72990501
Ni      12.30534498       3.57542066       1.75882415       0.60000000      -0.14707998      -0.60351808      -0.39752182      -0.00049700       0.00020504      -0.00042590      -5.73003656
Ni      12.30583659       5.33811230      -0.00968093       0.60000000      -1.23447842       0.42050375       0.07186505       0.00009679       0.00056051      -0.00022057      -5.73008960
Ni      10.55293333       3.57981130       3.52922614       0.60000000       0.98115581       1.37232557      -2.88779350      -0.00038581       0.00021634       0.00011065      -5.72981590
Ni      10.56510542       5.35446126       5.30577546       0.60000000      -0.36103060       1.27923600       0.33935194      -0.00049253       0.00079788      -0.00034946      -5.72924858
Ni      12.31253152       3.58448096       5.29688470       0.60000000       0.68878470      -1.12749125      -0.48079198      -0.00066878      -0.00018919       0.00025379      -5.72981817
Ni      12.31332647       5.34698923       3.53441438       0.60000000      -0.40126657      -0.03760420       0.17549603      -0.00076464       0.00043210       0.00015830      -5.72981322
Ni      10.56232871       3.58982864       7.06241320       0.60000000       0.40892526      -2.20945528      -0.42786542      -0.00016123       0.00043003       0.00064578      -5.72949272
Ni      10.57947695       5.37066196       8.83782193       0.60000000      -1.38586870       2.32045103      -1.66319971      -0.00040719       0.00018998       0.00012555      -5.72849292
Ni      12.32195148       3.59472856       8.82655630       0.60000000       0.92703508       0.89151230       0.61475371      -0.00007700       0.00132201       0.00025478      -5.72944033
Ni      12.32707281       5.36327591       7.07579477       0.60000000       0.66876227       0.25704557       0.61762391      -0.00092005       0.00064199      -0.00062558      -5.72898453
Ni      10.56975826       3.59674835      10.58252832       0.60000000      -1.48125332      -1.14962794      -0.92504926       0.00080794       0.00088280       0.00052894      -5.72939408
Ni      10.58597928       5.37895528      12.35027908       0.60000000       0.38912868       0.13319896      -0.28928531      -0.00129233       0.00015422      -0.00017895      -5.72856402
Ni      12.32752551       3.59915146      12.33965909       0.60000000      -1.09255522      -0.20811568      -0.81576395       0.00001834      -0.00046738       0.00044709      -5.72952390
Ni      12.34103768       5.38012879      10.60259736       0.60000000       2.27825078      -0.19034441      -1.77071066      -0.00063421      -0.00021518      -0.00035567      -5.72819269
Ni      10.57019135       3.59437669      14.08776386       0.60000000      -0.21496418      -1.99633034       0.73037191      -0.00079665      -0.00009625       0.00000173      -5.72980160
Ni      10.57954688       5.37172788      15.84542456       0.60000000      -0.71535323       1.22851279      -1.14233748      -0.00050454      -0.00119422      -0.00003556      -5.72958660
Ni      12.32478544       3.59169022      15.83909204       0.60000000       0.66841707      -1.91385889      -0.59440336      -0.00044175      -0.00022241      -0.00028849      -5.73020047
Ni      12.34322347       5.38296338      14.10445021       0.60000000       0.50637486       0.72660846       0.70139397      -0.00240538      -0.00210187      -0.00003309      -5.72879148
Ni      10.56381904       3.58387614      17.58727325       0.60000000      -0.66664398      -1.11162445       1.26890329      -0.00083691       0.00060452       0.00011862      -5.73033476
Ni      10.56740645       5.35552269      19.34003095       0.60000000      -0.30696593       0.04132069       0.79462649       0.00014351      -0.00161279       0.00032896      -5.73041981
Ni      12.31724913       3.57973120      19.33861757       0.60000000      -0.39378011       0.03127951      -0.32046558      -0.00225807      -0.00063603       0.00000169      -5.73045999
Ni      12.33231918       5.36783445      17.59292330       0.60000000      -0.09527225      -0.03359743      -0.71081496      -0.00000199      -0.00114101       0.00035053      -5.72953933
Ni      10.55596817       3.57386632      21.09241506       0.60000000      -0.06234490       0.89815564      -1.22833346      -0.00092784      -0.00082867      -0.00077211      -5.73056918
Ni      10.55801261       5.34406914      22.84579965       0.60000000      -1.07008698      -1.60352783      -0.53569585       0.00047370      -0.00181435       0.00030631      -5.73067433
Ni      12.31018065       3.57165124      22.84678112       0.60000000      -0.62416702       0.63197826      -0.53631155      -0.00147916      -0.00097250       0.00019211      -5.73065323
Ni      12.31912193       5.35037441      21.09020519       0.60000000       0.05090934      -0.69615625      -0.97128165       0.00137554      -0.00046259      -0.00029725      -5.72990245
Ni      10.55066382       3.56933495      24.60524499       0.60000000       0.67397395       1.40447400       0.75908329      -0.00054826      -0.00041524      -0.00017591      -5.73056018
Ni      10.55305957       5.33997126      26.36005377       0.60000000       0.45855252       1.85449034       0.56661891      -0.00167389      -0.00303737       0.00228190      -5.73051405
Ni      12.30603314       3.57036735      26.36219377       0.60000000      -0.52759471       1.62031207       1.30794594      -0.00019901      -0.00187299       0.00112234      -5.73065066
Ni      12.31276036       5.34373804      24.59891917       0.60000000       0.70970253       0.46020394       0.65386732      -0.00079630      -0.00156996       0.00050113      -5.73050761
Ni      10.54688237       3.56901952      28.12517722       0.60000000       0.08558476       0.09812822      -2.30656971       0.00095627      -0.00109906       0.00073066      -5.73029542
Ni      10.54878165       5.33704379      29.88545432       0.60000000      -0.26730167       0.54855250       0.06568668       0.00130272       0.00023114      -0.00016645      -5.73012531
Ni      12.30275578       3.57059261      29.88623476       0.60000000      -0.24032970      -0.35032825       0.46795985       0.00153363      -0.00093083       0.00025681      -5.73024130
Ni      12.30826742       5.34135280      28.11742942       0.60000000      -1.02866317      -1.09040564       1.31782022      -0.00119754      -0.00210712       0.00177689      -5.73037177
Ni      10.54483149       3.56959302      31.65416605       0.60000000      -1.14067893       1.30822648       1.01420877       0.00157514      -0.00024945       0.00032914      -5.73018724
Ni      10.54770706       5.33585683      33.42190015       0.60000000       1.04604853       0.66390994       0.63826356       0.00134754       0.00098878      -0.00056771      -5.73011154
Ni      12.30210405       3.57113732      33.41978116       0.60000000      -0.88746469      -1.72701977       0.44865643       0.00065778       0.00056902      -0.00050767      -5.73012716
Ni      12.30442579       5.33781009      31.64921549       0.60000000      -0.01956203      -0.12451273       0.69552841       0.00173010      -0.00011823      -0.00012017      -5.73006397
Ni      10.55264255       7.10070789      -0.00587207       0.60000000       1.58088343       0.06006481      -0.73880868       0.00062125       0.00017667       0.00011762      -5.73005718
Ni      10.56125391       8.86615571       1.77123458       0.60000000      -0.78533118       1.76593281      -1.99839520       0.00026300       0.00039185      -0.00010669      -5.72984195
Ni      12.31258390       7.10538536       1.76601301       0.60000000       1.83790945      -0.15983877      -0.27157461      -0.00076282       0.00044371      -0.00020620      -5.72999531
Ni      12.31102470       8.86221361      -0.00737718       0.60000000      -0.32181363      -2.18881800      -0.68254708       0.00057494       0.00003295       0.00020890      -5.73021889
Ni      10.56439666       7.11221502       3.54164034       0.60000000      -0.85547629      -0.39761877       1.33496610       0.00026873       0.00106588       0.00033206      -5.72944462
Ni      10.58332036       8.88694337       5.32391849       0.60000000      -0.17257721       1.27262712      -1.79539008      -0.00107545      -0.00084998      -0.00013976      -5.72846663
Ni      12.32788281       7.12282258       5.31604464       0.60000000      -1.57025740       1.50375256      -1.37107117      -0.00008021      -0.00007479       0.00011105      -5.72903436
Ni      12.32493677       8.87555316       3.54740458       0.60000000       0.98527586      -0.43426957      -0.83547527      -0.00063316       0.00022855      -0.00051555      -5.72952503
Ni      10.58497893       7.13409794       7.08642247       0.60000000      -0.64988339       0.80489626      -0.31418826      -0.00156196      -0.00063287      -0.00010051      -5.72806871
Ni      10.61271489       8.91810718       8.87014478       0.60000000      -2.45712307      -1.09936621       0.71146717      -0.00003465       0.00031612      -0.00011072      -5.72621411
Ni      12.35162588       7.14986037       8.86053754       0.60000000      -1.55320759       1.45920509      -2.47890031      -0.00108404      -0.00027704       0.00000099      -5.72713536
Ni      12.35366748       8.90547631       7.10499513       0.60000000      -0.64549794      -0.57299627       0.19153848      -0.00075423      -0.00158436      -0.00054226      -5.72722238
Ni      10.60291326       7.15631127      10.61475753       0.60000000       0.03257589      -0.61157680       1.16357318      -0.00131843      -0.00049564       0.00014012      -5.72699457
Ni      10.62922100       8.94441506      12.39115776       0.60000000       0.02698150      -0.68189273      -2.18007528      -0.00064179       0.00025706       0.00065323      -5.72521073
Ni      12.36672722       7.17182602      12.37993988       0.60000000      -1.45917228      -0.36690236       0.01341723      -0.00050796      -0.00054505      -0.00037655      -5.72632992
Ni      12.38746996       8.94462533      10.65000448       0.60000000       0.82479256       0.75798517      -0.58641974       0.00005510       0.00022372       0.00070785      -5.72395962
Ni      10.60261359       7.16258281      14.11600149       0.60000000      -0.58086076       0.64742546      -0.29889775       0.00117673      -0.00066537       0.00039030      -5.72781044
Ni      10.61895272       8.94656907      15.88031941       0.60000000      -0.37095097       0.34108582      -1.95899724      -0.00157858       0.00008401      -0.00072908      -5.72632647
Ni      12.35795532       7.16687986      15.86538452       0.60000000      -0.47650685       1.70370387      -0.03896032      -0.00081070      -0.00234886       0.00180660      -5.72753829
Ni      12.39449858       8.96601401      14.15605054       0.60000000      -0.96273560      -0.24993052      -0.38703438      -0.00047767      -0.00147911      -0.00061172      -5.72400409
Ni      10.58760174       7.14719932      17.60056111       0.60000000      -1.91565185       2.43836122      -2.09997128      -0.00102085      -0.00153427       0.00040825      -5.72924280
Ni      10.59188833       8.92024184      19.35510307       0.60000000      -1.93255314      -1.32055347      -1.34044964      -0.00058994       0.00199416       0.00069695      -5.72577786
Ni      12.33692416       7.14067245      19.34324324       0.60000000      -1.85224287      -0.79944778       0.33674200       0.00012737      -0.00117841       0.00386358      -5.72734123
Ni      12.36846141       8.94833018      17.62358062       0.60000000       1.33277463       0.83834125      -1.41709297      -0.00126681      -0.00042883       0.00100011      -5.72443956
Ni      10.57063606       7.12433605      21.09139958       0.60000000       0.51660290      -0.14733403      -0.53494283      -0.00102860      -0.00075922       0.00157450      -5.72908729
Ni      10.57283346       8.89309836      22.83945912       0.60000000       1.63291607      -1.65016075       0.54179715      -0.00138053       0.00195920       0.00213148      -5.73079354
Ni      12.32343399       7.12246883      22.83843722       0.60000000      -0.80417972      -1.05680696      -0.85382605      -0.00081853      -0.00241518      -0.00110999      -5.72795939
Ni      12.33801845       8.91281230      21.09120123       0.60000000       1.82403219       1.74694067      -2.28437088      -0.00145847       0.00089254      -0.00035159      -5.73134011
Ni      10.56152918       7.11312828      24.59639228       0.60000000      -0.20069827       0.94465573      -0.32313468      -0.00146406      -0.00211055      -0.00004996      -5.72946632
Ni      10.56523159       8.88034748      26.34303061       0.60000000       1.44687992      -0.23417784       0.87403576      -0.00089217       0.00008678       0.00172828      -5.72934258
Ni      12.31645659       7.11533915      26.34709283       0.60000000       0.10549126       2.38172291       1.30819646      -0.00056938      -0.00141033       0.00124464      -5.72890359
Ni      12.32699948       8.89587383      24.57701164       0.60000000      -2.53838764       1.77089655      -0.11563217      -0.00125857       0.00246915       0.00109856      -5.72950500
Ni      10.55606821       7.10707308      28.11484365       0.60000000      -1.34876391      -2.25653502       0.59298280      -0.00124722      -0.00159790       0.00043106      -5.72945470
Ni      10.55728343       8.86627738      29.87474773       0.60000000      -1.26642447      -0.90836669       1.72675376      -0.00116688       0.00209292      -0.00068039      -5.72891182
Ni      12.31000215       7.10738734      29.87482810       0.60000000      -2.58720463      -1.24086963      -1.50347978       0.00025676      -0.00125508       0.00155190      -5.72976279
Ni      12.31935017       8.88172523      28.09525054       0.60000000      -1.05198982       0.97578032      -1.88148348      -0.00448986       0.00049441       0.00038942      -5.72690564
Ni      10.55064890       7.10028903      31.64977292       0.60000000      -1.15311324       1.23658302      -0.00633091       0.00227287       0.00005870       0.00014360      -5.73004889
Ni      10.55302452       8.85965579      33.42053628       0.60000000       1.46307312       1.50551176       2.39733513       0.00102436       0.00060155       0.00023322      -5.73018545
Ni      12.30682018       7.10070112      33.41769226       0.60000000       1.61740360       0.62932975      -1.00740397       0.00109563       0.00070431       0.00029396      -5.73010075
Ni      12.31039987       8.86542125      31.64083952       0.60000000       0.53195754       0.97178361      -1.36174652       0.00062206      -0.00029048       0.00090026      -5.72984749
Ni      10.55751752      10.61919170      -0.00348469       0.60000000      -0.22199829       0.32588290       1.87437104       0.00077817      -0.00086335      -0.00001017      -5.73018336
Ni      10.56669172      12.38034214       1.77550010       0.60000000       1.49614794       1.57424508       1.81641590       0.00091626       0.00008803      -0.00029427      -5.72986770
Ni      12.31956291      10.62559084       1.77239856       0.60000000       0.03226885       0.98182851       0.02705136      -0.00020538       0.00070090       0.00042195      -5.73005086
Ni      12.31442276      12.37600564      -0.00568826       0.60000000      -0.66592131       1.11559227      -1.52598621       0.00032934      -0.00086594      -0.00008109      -5.73049438
Ni      10.57611947      10.63395788       3.55230515       0.60000000      -1.56246203       0.56960245       0.39123420      -0.00041992       0.00044508      -0.00006131      -5.72922337
Ni      10.59831200      12.40372949       5.33589059       0.60000000       1.08757245       0.36706935      -1.44566287       0.00046414       0.00087822       0.00057508      -5.72791559
Ni      12.34705860      10.65062663       5.33531642       0.60000000      -1.87487390      -1.19793465      -0.33283618      -0.00100576      -0.00068458      -0.00030334      -5.72816920
Ni      12.33521286      12.39236159       3.55707396       0.60000000       1.03177875      -1.95094297      -0.92331826       0.00062279       0.00223593       0.00016350      -5.72916317
Ni      10.61024502      10.66434294       7.10912721       0.60000000       1.76748537       0.37475430      -0.78759274       0.00037572       0.00022103       0.00007306      -5.72686380
Ni      10.64286987      12.44223885       8.89259547       0.60000000       0.11561102      -0.20197450      -0.07242263      -0.00054961       0.00231491       0.00139307      -5.72490913
Ni      12.39288758      10.69506226       8.90002108       0.60000000      -1.90570769       0.87434965      -0.56623945       0.00076107       0.00066249      -0.00012005      -5.72380000
Ni      12.38152140      12.43001454       7.12912089       0.60000000      -1.71953901       0.88450592       2.18932398       0.00082593       0.00078138       0.00002576      -5.72544891
Ni      10.64570830      10.70446871      10.65357758       0.60000000      -0.06785746      -0.51208615       0.45324811      -0.00084789       0.00143076       0.00025926      -5.72380865
Ni      10.68083050      12.49195823      12.43472939       0.60000000      -1.39155375      -0.28224269      -2.17064715       0.00018713       0.00221899       0.00053806      -5.72096562
Ni      12.42792353      10.74229449      12.43973648       0.60000000       3.06540469       0.46539453       1.80628957       0.00173000       0.00093466       0.00110856      -5.72078735
Ni      12.43829142      12.48795784      10.69355221       0.60000000      -0.47450721      -1.84717422      -1.15290140       0.00144996       0.00293282       0.00098091      -5.72055411
Ni      10.65674745      10.73434922      14.16723257       0.60000000       1.58936870      -1.40420699       1.35373002      -0.00052641      -0.00041374      -0.00176090      -5.72286212
Ni      10.68359926      12.52841777      15.94472969       0.60000000       0.85727073       1.18026186       0.03149325      -0.00600068      -0.00192884      -0.00352176      -5.71508861
Ni      12.42032107      10.75934932      15.93166311       0.60000000       0.89969285       0.36729718      -1.86556822       0.00070757      -0.00099430      -0.00004623      -5.71945363
Ni      12.46898991      12.54095143      14.22867981       0.60000000       0.76349788       0.19003891       0.19825768      -0.00116324      -0.00381429      -0.00342272      -5.71711242
Ni      10.63078526      10.73417513      17.64506671       0.60000000      -1.55684113       0.15145337       2.16505155      -0.00234532       0.00048738       0.00275981      -5.72019279
Ni      10.65098290      12.54557419      19.43219819       0.60000000       1.05273052       0.12783738      -1.01479818       0.00125975       0.00184821      -0.00280899      -5.73221153
Ni      12.36146352      10.72723439      19.37909425       0.60000000       0.32583824      -0.13659560      -0.05577136      -0.00057166      -0.00032144       0.00436379      -5.74316502
Ni      12.42869630      12.55745013      17.70319785       0.60000000      -1.08028218      -0.08155668      -1.95087303      -0.00237503      -0.00054981      -0.00150172      -5.72321469
Ni      10.59331746      10.70125284      21.11208251       0.60000000      -1.94153561       0.19527772      -0.61447414      -0.00088646       0.00205663      -0.00037897      -5.74321133
Ni      10.58980161      12.50054272      22.87646293       0.60000000       0.45038522      -1.72806971       0.59167237       0.00200595       0.00257844      -0.00090745      -5.62013638
Ni      12.33314954      10.69318839      22.82675293       0.60000000      -0.03818900       0.41449136       0.18246906       0.00154723       0.00157531      -0.00263033      -5.74409294
Ni      12.35063369      12.51782727      21.14956635       0.60000000       2.14403137       0.24707607       1.03573957      -0.00346995       0.00766377       0.00326331      -5.65867853
Ni      10.57325561      10.66511047      24.57817975       0.60000000       0.82573048       0.08256733       0.46756820       0.00052232      -0.00076978      -0.00103359      -5.73362738
Ni      10.57052469      12.41422274      26.30971580       0.60000000      -0.16503031       0.05287316       0.99837994      -0.00348913       0.00148336      -0.00106351      -5.64203775
Ni      12.32736490      10.66759503      26.30626037       0.60000000      -1.36522387       1.09622122      -0.75724498       0.00393704       0.00147981      -0.00194144      -5.73812562
Ni      12.30838567      12.48720446      24.51632284       0.60000000      -0.56464160      -1.67046722      -0.98631673       0.00117602      -0.00244631       0.00098821      -5.59883863
Ni      10.56551572      10.63504477      28.09655612       0.60000000       1.49822051      -1.13137129      -0.58368026       0.00196532       0.00513197      -0.00364366      -5.73320383
Ni      10.56151462      12.37997230      29.86482225       0.60000000      -0.66259407       0.06756730      -0.08031229       0.00006158       0.00109338      -0.00147637      -5.72951144
Ni      12.31702340      10.63346202      29.85823365       0.60000000      -0.93391741      -1.60692643       1.10402836      -0.00204770       0.00135893      -0.00115818      -5.72715628
Ni      12.32175346      12.40742728      28.06173023       0.60000000      -0.91224549       1.72099266      -0.77250718       0.00031986       0.00163527       0.00069884      -5.73902559
Ni      10.55610476      10.61938454      31.64398139       0.60000000       0.25309033      -1.24663868      -1.05982223      -0.00013407       0.00122771       0.00084626      -5.72961235
Ni      10.55570080      12.37240937      33.41924793       0.60000000       0.91574206       0.73826275      -0.16011896       0.00010951       0.00005369       0.00064820      -5.73052317
Ni      12.31087825      10.61944806      33.41568261       0.60000000       0.85414617       0.40618511       0.65024261       0.00085345       0.00014583       0.00030180      -5.73044389
Ni      12.31329814      12.37757106      31.63552702       0.60000000      -1.22061130      -0.53281586      -0.44193801      -0.00103028       0.00062053      -0.00021702      -5.72940725
Ni      10.55898799      14.12827029      -0.00380506       0.60000000      -0.74345450       0.25731978      -3.88544945       0.00022767      -0.00038621       0.00045252      -5.73035920
Ni      10.56657203      15.88547376       1.77355351       0.60000000      -0.04960012      -0.82079551       1.26328126       0.00155058      -0.00004616      -0.00032773      -5.72992468
Ni      12.32301379      14.13548488       1.77495610       0.60000000      -1.25903218       0.96024892      -2.24591356       0.00067130       0.00097245      -0.00057958      -5.73005062
Ni      12.31415354      15.88162804      -0.00796807       0.60000000       0.39347306      -0.66286247       1.05259685      -0.00095480      -0.00079846       0.00155388      -5.73072571
Ni      10.58198748      14.14290446       3.55614020       0.60000000       0.42743895       0.87240086      -0.69970101       0.00084016       0.00107108       0.00070924      -5.72897118
Ni      10.60262992      15.90540208       5.33615454       0.60000000      -1.87407731      -1.09853490      -1.22711994       0.00004112       0.00002096       0.00102791      -5.72759187
Ni      12.36124459      14.16296351       5.34683275       0.60000000       0.64326192      -1.33670707       0.40827621       0.00017279       0.00047308       0.00028303      -5.72703940
Ni      12.33868263      15.89726502       3.55797950       0.60000000      -2.09317175      -0.20857168       0.05523545       0.00027875       0.00038771       0.00025134      -5.72900647
Ni      10.62662718      14.17341516       7.11792788       0.60000000      -1.70590586      -1.97292599       1.51578923      -0.00005446       0.00225701      -0.00015931      -5.72621471
Ni      10.65723375      15.94050677       8.89070903       0.60000000       0.26844048      -1.53918808       2.34813686      -0.00300743       0.00154885       0.00040280      -5.72455889
Ni      12.42478678      14.21178718       8.92131519       0.60000000      -1.83800705       1.64410056       0.11731343      -0.00037943      -0.00087945      -0.00110175      -5.72274840
Ni      12.39770870      15.93683571       7.13803958       0.60000000       0.93075718       1.33968419       2.02921824      -0.00025193      -0.00042864      -0.00153105      -5.72356904
Ni      10.67619367      14.21832206      10.66906726       0.60000000      -0.77884728      -0.11733426      -3.04457614       0.00039752       0.00097650       0.00057622      -5.72294855
Ni      10.70115919      15.98407367      12.43488871       0.60000000      -1.88766995       0.41876609      -0.25221849      -0.00099585       0.00191550      -0.00133323      -5.71886903
Ni      12.48387680      14.28316388      12.48191917       0.60000000      -0.53485612       0.77216311       0.72713950       0.00018707      -0.00163739      -0.00330878      -5.71756959
Ni      12.47101168      15.99333164      10.69890148       0.60000000      -0.10260268       0.68611322       1.05888985       0.00314103      -0.00407459      -0.00361124      -5.71832347
Ni      10.71695959      14.28051331      14.21540739       0.60000000      -0.03159001       0.67514508      -0.62668133      -0.00411099       0.00189887      -0.00139328      -5.71247512
Ni      10.75116162      16.06937650      16.01002737       0.60000000       1.12533328       0.14297267      -0.53310295       0.00258560       0.00582339       0.00281950      -5.70857006
Ni      12.50494280      14.34121444      16.02028281       0.60000000       1.26155896       0.59849694       1.75678085      -0.00145888      -0.00550198       0.00188346      -5.70757604
Ni      12.52243701      16.08156971      14.26899776       0.60000000      -0.50185408       1.32808871      -0.12837797      -0.00592013      -0.00020483      -0.00156448      -5.71178669
Ni      10.73141369      14.33248540      17.76119221       0.60000000       1.29151907       0.27774640       0.70357481       0.00050535       0.00117218      -0.00112785      -5.71659994
Ni      10.76147934      16.11143611      19.60183797       0.60000000       1.38025582      -1.43105317       0.14956579       0.00100706       0.00084272      -0.00113566      -5.55185097
Ni      12.51165208      14.37058641      19.57255678       0.60000000      -0.66766860       0.02633540      -0.25463792      -0.00141913      -0.00130761       0.00384991      -5.71162939
Ni      12.53474643      16.14225564      17.83932103       0.60000000       0.00359326      -1.90850093       1.00674378      -0.00313953       0.00032709       0.00643451      -5.73619270
Ni      10.74259573      14.37574314      21.31526767       0.60000000      -1.35777091      -1.33195875      -0.70403702       0.00478710       0.00418309       0.00746669      -5.51218081
Ni      11.25681181      14.86088554      23.87344974       0.60000000      -0.96964672      -0.01402818      -0.77775390      -0.00432034      -0.00612099       0.00396008      -5.45010519
Ni      10.59164994      15.84279980      26.25560407       0.60000000       1.49450625      -1.62819653      -0.81853830      -0.00105510      -0.00126196       0.00034421      -5.61353886
Ni      12.29540168      14.18321064      26.22958236       0.60000000       0.23855000       0.40635021       0.91188046       0.00186980      -0.00086069       0.00202385      -5.60160613
Ni      13.14775272      16.69455276      23.90990556       0.60000000      -0.24341083      -0.76333810      -0.37200854       0.00195364       0.00227844      -0.00509762      -5.59915930
Ni      10.56832322      14.13599838      28.07704062       0.60000000      -0.10444118       0.46032930      -1.11362497      -0.00024710       0.00022526       0.00214527      -5.73534709
Ni      10.56348086      15.87628537      29.85800072       0.60000000      -2.20948546       1.05109649       0.18012056      -0.00281091      -0.00089625      -0.00164101      -5.73168904
Ni      12.31633825      14.13453431      29.84956137       0.60000000      -0.44271710       1.12947261       0.04689757      -0.00067198       0.00053928      -0.00084497      -5.73097312
Ni      12.31904046      15.87761117      28.04840175       0.60000000      -0.21113453      -1.08354234       0.44354690      -0.00147744       0.00151856       0.00180880      -5.74656564
Ni      10.55666755      14.12596470      31.64078902       0.60000000       0.44815321      -0.83720253      -0.22201213       0.00096137       0.00101034       0.00074789      -5.72946763
Ni      10.55502913      15.87787990      33.41632510       0.60000000      -1.16172961      -2.36201925       0.65592696       0.00028860      -0.00005992       0.00075600      -5.73083740
Ni      12.31169880      14.12700132      33.41423888       0.60000000      -1.20419459      -2.38678526       2.47355356      -0.00037536       0.00028926       0.00080319      -5.73097330
Ni      12.31206871      15.87751630      31.63280718       0.60000000      -0.00409898       0.23333853      -1.38760528       0.00011961       0.00059743      -0.00033278      -5.72945809
Ni      10.55668553      17.63260000      -0.00891648       0.60000000      -2.48661092      -3.23181096      -1.39968574      -0.00080531       0.00005530       0.00211853      -5.73058152
Ni      10.56064810      19.38788576       1.76465119       0.60000000      -1.08832444      -1.21153015      -0.81385947       0.00056338      -0.00040838       0.00044682      -5.73035473
Ni      12.32043203      17.63808550       1.76933380       0.60000000       0.71803466       2.28457971       0.33948430       0.00104454      -0.00039764      -0.00170433      -5.73049092
Ni      12.31019712      19.38560805      -0.01482596       0.60000000       1.73338868      -1.11166644       0.79553327      -0.00144231      -0.00059379       0.00176027      -5.73102540
Ni      10.57844405      17.64228419       3.54980172       0.60000000       0.43433834      -0.11593218       1.01098016      -0.00005454      -0.00031696       0.00080693      -5.72934747
Ni      10.59131500      19.39590997       5.32272278       0.60000000       1.91638211       1.00825478      -0.24007368      -0.00125755       0.00264445      -0.00008744      -5.72766078
Ni      12.36143436      17.65959740       5.34258339       0.60000000      -1.47596893       1.24555938      -0.44371407      -0.00032778      -0.00028261      -0.00158870      -5.72604197
Ni      12.33056954      19.39394306       3.54528843       0.60000000      -1.39906978      -1.33754469      -1.86576836       0.00038966      -0.00053538      -0.00062715      -5.72934014
Ni      10.62511456      17.66503513       7.11071989       0.60000000       0.31822496       0.45697876      -0.93872314      -0.00152539      -0.00216260      -0.00153706      -5.72529727
Ni      10.63604481      19.41401971       8.87056107       0.60000000       0.06577018       1.44976602      -1.58280595      -0.00099086       0.00277144      -0.00044755      -5.72263891
Ni      12.44690914      17.71705327       8.92050334       0.60000000       1.71722420      -0.85668131      -1.21266658       0.00159276      -0.00296803      -0.00279168      -5.71429121
Ni      12.39063361      19.42227229       7.12381681       0.60000000       0.14409202       0.73936798      -1.11225343      -0.00028754      -0.00326068      -0.00282628      -5.71752334
Ni      10.67438400      17.69243689      10.64521872       0.60000000       0.73214129       2.24186549       0.10931443      -0.00232992       0.00259546      -0.00057277      -5.72214127
Ni      10.66448455      19.42456518      12.37926643       0.60000000       1.17662314       1.04711189       0.01379090      -0.00290089       0.00444070      -0.00240168      -5.74469447
Ni      12.50014960      17.75145374      12.44642551       0.60000000       0.44486685      -1.82515061       0.54547516      -0.00202918      -0.00270511      -0.00024745      -5.72359467
Ni      12.47740614      19.47538114      10.67201961       0.60000000       0.90011309      -2.16679376       0.17501770       0.00325503      -0.00249588      -0.00136277      -5.71909481
Ni      10.70284339      17.73238077      14.19446482       0.60000000       2.16247637      -0.43282666      -0.91198206      -0.00285050      -0.00059623       0.00336253      -5.73405308
Ni      10.64408505      19.45684428      15.96495495       0.60000000       1.69110283      -0.99697685      -3.85262020       0.00133885       0.00093882       0.00060851      -5.60165751
Ni      12.53487956      17.90828895      16.06951105       0.60000000       1.02586390       1.61778568       2.28395884       0.00340757      -0.00171943       0.00188746      -5.64717710
Ni      12.46402619      19.46709665      14.14744945       0.60000000      -1.14419071      -1.83224250      -0.65820204      -0.00215090       0.00001677       0.00220196      -5.65475488
Ni      10.76705856      17.85695911      17.82850017       0.60000000      -0.41661560      -0.29490920       0.38534235       0.00505061       0.01098923       0.00517503      -5.67014289
Ni      10.76626546      19.15185827      22.63713369       0.60000000       0.86355842      -1.33476455      -0.53755415       0.00027007       0.00163143      -0.00018561      -5.69738948
Ni      11.35597306      16.71275477      22.06256342       0.60000000       2.21655435      -0.00547605      -1.04794812      -0.01618662      -0.00100615      -0.00774894      -5.50548488
Ni      11.25688945      18.53255417      20.22831474       0.60000000       0.54688419      -1.28249866      -0.85209512      -0.00230652      -0.00872269       0.00118529      -5.61400104
Ni       8.88025714      15.85248747      24.55162099       0.60000000       0.29353165      -0.64142702      -0.32658110      -0.00128920      -0.00220179      -0.00382899      -5.60136199
Ni      10.63741700      19.29611500      26.22297858       0.60000000      -0.65637133      -2.80816189      -0.22999130      -0.00031482      -0.00059488      -0.00372469      -5.71594816
Ni      12.34612470      17.57614767      26.23180199       0.60000000       0.39049528      -0.73670283       1.89635246      -0.00032125       0.00058182      -0.00169165      -5.64671028
Ni      10.74221250      17.41647313      24.39009517       0.60000000      -0.11102695      -0.75708358      -0.20705064       0.01084873      -0.01016638      -0.00294358      -5.65553570
Ni      10.58294939      17.60718622      28.05601713       0.60000000       0.72410390       1.34121221       0.63092284      -0.00023074       0.00049301      -0.00362225      -5.74195755
Ni      10.56949379      19.36575872      29.84420914       0.60000000       0.26732396       0.30412868       1.07364424      -0.00086423       0.00041896      -0.00261671      -5.72750723
Ni      12.31705046      17.62078080      29.84359220       0.60000000      -0.28685451       1.82487722      -1.49404501      -0.00065072       0.00070209      -0.00043598      -5.73103404
Ni      12.33380608      19.34549623      28.03867190       0.60000000       0.01912161      -0.54124165       0.08068372       0.00128197      -0.00219355       0.00179738      -5.73947066
Ni      10.55710767      17.62675357      31.63511068       0.60000000      -0.57284987       1.03584337      -0.46940828       0.00105595      -0.00045929      -0.00044341      -5.72967601
Ni      10.55307323      19.38181640      33.41015615       0.60000000      -0.01324415      -0.19270355       0.27426978       0.00066495      -0.00103451       0.00062916      -5.73100871
Ni      12.30975847      17.62964657      33.41066932       0.60000000       0.44775905       0.05271222      -0.57382736      -0.00033358      -0.00008114       0.00095257      -5.73115039
Ni      12.31080239      19.37496889      31.62798336       0.60000000      -0.76190254      -1.45963985      -0.55096490      -0.00091712       0.00078134       0.00036466      -5.72977698
Ni      10.55147532      21.13876686      -0.01671445       0.60000000      -0.60662746      -1.30601824      -0.41519706      -0.00049656       0.00000678       0.00035729      -5.73077798
Ni      10.55138184      22.89622288       1.75376803       0.60000000      -0.78012699      -0.96906535      -1.64237488      -0.00014700      -0.00013020      -0.00008926      -5.73066854
Ni      12.31211423      21.14185785       1.75731217       0.60000000       0.46291189      -0.09185444      -0.29825988       0.00001038      -0.00039440      -0.00075957      -5.73082495
Ni      12.30433518      22.89490030      -0.02191914       0.60000000       1.35797398       0.09403758       2.61836548      -0.00096058      -0.00000406       0.00134834      -5.73092741
Ni      10.56591866      21.14190332       3.53565038       0.60000000       0.05571372      -0.04709076       0.43449948       0.00087086      -0.00130877      -0.00113392      -5.72959524
Ni      10.56885633      22.89426301       5.30042853       0.60000000       0.82571452       1.35405049      -0.56903266       0.00049207       0.00125149       0.00245813      -5.72711849
Ni      12.34234091      21.14675280       5.31939449       0.60000000      -3.56425074      -2.85945553       0.47271432       0.00313374       0.00292571      -0.00108876      -5.72534829
Ni      12.31435676      22.89716771       3.52616537       0.60000000      -0.17044437      -0.86075555       1.94588000       0.00172969      -0.00050344       0.00170963      -5.72859913
Ni      10.59697613      21.14554214       7.08638180       0.60000000      -0.84722588      -0.06226768       2.53143457       0.00119298       0.00273402      -0.00037092      -5.72570109
Ni      10.59786982      22.89375024       8.84018775       0.60000000       0.25419186       0.54739085       0.28609650       0.00098627       0.00057536      -0.00045406      -5.74433154
Ni      12.40440736      21.17251494       8.88718173       0.60000000       0.02740021      -0.33253249      -2.06203899       0.00198843      -0.00093207       0.00117080      -5.73637182
Ni      12.34801589      22.89633120       7.08432694       0.60000000      -0.07720472      -0.24534745       0.65285839       0.00062286      -0.00275605      -0.00079629      -5.74601203
Ni      10.63410322      21.15849391      10.61100179       0.60000000      -1.29824280      -0.21905444      -1.02406063       0.00244109       0.00094362      -0.00149820      -5.74226898
Ni      10.62484899      22.87639015      12.34930024       0.60000000      -1.25110020      -0.20716933      -1.29299442       0.00043210      -0.00163329       0.00163436      -5.74539208
Ni      12.44868964      21.19516745      12.37030110       0.60000000      -1.67276247      -1.61206171      -1.37206269       0.00058601       0.00069994      -0.00277344      -5.65070331
Ni      12.42255804      22.92834570      10.61035881       0.60000000       0.55890203      -1.03257301      -0.41887158      -0.00048982       0.00296837       0.00069747      -5.61362469
Ni      10.64113654      21.12458277      14.12414924       0.60000000       1.71548483       2.54969204      -0.62501242      -0.00236113       0.00345349      -0.00055147      -5.74759531
Ni      10.64682550      22.79357279      15.87690837       0.60000000       0.67324259       0.30655967      -0.09994097      -0.00074661      -0.00256299       0.00357314      -5.64972931
Ni      12.43177078      22.79933356      14.10302004       0.60000000       0.10436901      -0.35456191       1.32609790       0.00140027       0.00083719       0.00014113      -5.65242696
Ni      11.32277313      20.38340031      18.32326842       0.60000000      -0.72879545       0.51016416       0.75645371      -0.00925751       0.00853201      -0.00623628      -5.42725039
Ni      10.66742273      22.73732598      19.25517669       0.60000000      -1.51722330      -0.86560125       1.60787910      -0.00292403      -0.00243899      -0.00017090      -5.60417104
Ni      13.21627522      20.40189816      20.13879135       0.60000000      -0.61145656      -0.71830212      -0.31714702       0.00411575       0.00095283      -0.00387097      -5.55146700
Ni      12.42706837      22.66628227      17.59295997       0.60000000       0.28333581      -0.89128653      -0.82838356       0.00234270       0.00355375       0.00800140      -5.59372205
Ni      10.78434832      20.90848064      20.88042357       0.60000000       1.52280116       0.29154687      -0.76709956       0.00664433      -0.00599596      -0.00845773      -5.64214623
Ni      10.69474962      22.73211801      22.72084947       0.60000000      -0.33325733       1.29957377       1.35778854      -0.00121696      -0.00209450      -0.00151257      -5.71462464
Ni      12.54356497      20.88996107      22.60841205       0.60000000      -1.48456554       0.55231174      -1.52880769       0.00275088       0.00027160      -0.00195836      -5.68283272
Ni      12.44523174      22.70117096      20.96191017       0.60000000      -1.18135599       0.93255629       0.24140425      -0.00092083      -0.00219316       0.00046782      -5.65096498
Ni      10.70850012      20.97348840      24.43422601       0.60000000      -0.12551145      -0.59801267       1.08063973       0.00177931      -0.00338488      -0.00219953      -5.69402301
Ni      10.62918090      22.79913526      26.25621429       0.60000000      -0.33316810      -1.09525021      -0.76368809       0.00006562       0.00241707      -0.00145489      -5.71481234
Ni      12.38753250      21.03423601      26.21807623       0.60000000       0.91077042       1.80338101       1.50389077      -0.00126473       0.00173756       0.00044983      -5.71374404
Ni      12.43108087      22.72722749      24.45745489       0.60000000       0.31716016       1.77483844      -0.28978118       0.00245400      -0.00054734       0.00034317      -5.71287781
Ni      10.59610414      21.08552682      28.03974061       0.60000000       1.37062941       0.38644453      -0.01521164       0.00019045      -0.00062126      -0.00063031      -5.72072601
Ni      10.56984226      22.86206156      29.83895132       0.60000000      -1.19254708      -1.20655792      -1.22972748      -0.00156062       0.00139710      -0.00019417      -5.72775799
Ni      12.31900524      21.11069765      29.83834981       0.60000000       0.03207662      -1.51358325      -0.19878804       0.00113937       0.00083542      -0.00148718      -5.72737682
Ni      12.33794227      22.83507785      28.04680333       0.60000000      -0.36269062      -1.06309748       1.48723444       0.00050638      -0.00234506       0.00057623      -5.72288024
Ni      10.55746244      21.12632658      31.62646552       0.60000000       0.50088168       2.42565265       0.74658782       0.00071420       0.00017160       0.00046753      -5.73026425
Ni      10.54961311      22.88916517      33.40389438       0.60000000       1.31930284      -0.19994459      -0.28637813       0.00040864      -0.00139696       0.00041703      -5.73067653
Ni      12.30615633      21.13450644      33.40522524       0.60000000       1.52294006      -1.59675468       0.31597880       0.00048140      -0.00092864       0.00075247      -5.73110992
Ni      12.30769102      22.87887847      31.62476909       0.60000000      -0.49532752       0.60711149      -0.33090258       0.00027103       0.00076171       0.00088926      -5.73029876
Ni      10.54582866      24.65183614      -0.02274084       0.60000000       1.68747003       0.47581718       0.50974691      -0.00021054      -0.00041908      -0.00044388      -5.73060250
Ni      10.54436557      26.41416480       1.74744215       0.60000000       0.07929963       2.15185825       1.30385717       0.00064317      -0.00024648      -0.00066856      -5.73066908
Ni      12.30377581      24.65496375       1.74853141       0.60000000       0.02905297      -1.04952125      -0.80221186      -0.00098773       0.00010095      -0.00072812      -5.73076379
Ni      12.29974103      26.41232075      -0.02434412       0.60000000      -0.19437316       2.19967536       1.21465413      -0.00041543       0.00070224      -0.00006007      -5.73059148
Ni      10.55180886      24.65374542       3.52134398       0.60000000       2.94633490      -0.08911675       1.90949819       0.00115399      -0.00072733      -0.00083982      -5.72984040
Ni      10.55222120      26.41138817       5.28529752       0.60000000      -1.06277951       0.11056456      -0.08413541      -0.00211213      -0.00132707      -0.00059473      -5.72909123
Ni      12.31687773      24.65110865       5.29348431       0.60000000       0.15837965       0.64126535      -0.46832710       0.00222388      -0.00241101      -0.00071208      -5.72866189
Ni      12.30445029      26.41406578       3.51681801       0.60000000       0.03816868      -0.83059664       1.10088336      -0.00000248      -0.00030485       0.00082627      -5.72947055
Ni      10.56639438      24.64714351       7.05900722       0.60000000      -0.75483928       0.57743873      -0.22516984       0.00350957      -0.00091705       0.00211458      -5.73453087
Ni      10.56898547      26.39650393       8.82005298       0.60000000       0.68169330       1.27419465       0.48547567       0.00272677      -0.00087728      -0.00068865      -5.74114466
Ni      12.34537414      24.64213248       8.83425631       0.60000000       0.99093721       1.38443574       1.61559969       0.00099366       0.00066832      -0.00066384      -5.65038222
Ni      12.31707046      26.40178101       7.05512757       0.60000000      -1.06042150       0.69333983      -0.06839664       0.00085294       0.00005131       0.00240645      -5.74062353
Ni      10.59650204      24.63020298      10.58794842       0.60000000       0.56967171       0.34223439      -0.47062596      -0.00151502       0.00000865       0.00103053      -5.73474282
Ni      10.60177004      26.35825237      12.33986261       0.60000000       0.95634816       1.71759261      -1.06010317       0.00185286      -0.00379448       0.00416171      -5.73857933
Ni      12.41998537      24.57068900      12.32247451       0.60000000      -0.91602966      -1.19800798       0.68292871      -0.00350490      -0.00088580       0.00299017      -5.60051227
Ni      12.35088897      26.35884349      10.58300439       0.60000000      -0.63747709      -1.38363237       0.13406792       0.00167529      -0.00062591      -0.00337724      -5.64245027
Ni      10.63093802      24.58034976      14.09668635       0.60000000      -0.72287792      -1.29413366       1.32193919       0.00240380      -0.00282238       0.00462000      -5.74144661
Ni      10.62067332      26.33120647      15.83055463       0.60000000      -1.47801620      -0.99616535       0.20467493      -0.00033108       0.00010147      -0.00055831      -5.72212380
Ni      12.43620078      24.49535249      15.81994263       0.60000000       0.29694560       1.40293221       1.32160946       0.00200860      -0.00121978       0.00139845      -5.73066145
Ni      12.39265639      26.29895328      14.07839820       0.60000000       1.46760469      -1.19697462      -0.90383985      -0.00113552      -0.00053012       0.00451371      -5.73339826
Ni      10.64453714      24.54809941      17.57011192       0.60000000      -0.05191560       2.00305347      -0.80538202      -0.00031159       0.00221885      -0.00275558      -5.72643512
Ni      10.62531762      26.32399931      19.30564391       0.60000000       1.23536290      -1.03576408      -0.92227225      -0.00007507      -0.00184356      -0.00062383      -5.72725129
Ni      12.42477467      24.48675707      19.26745003       0.60000000      -0.28951908      -0.00698085      -0.71757943       0.00310472       0.00312431      -0.00017700      -5.73861426
Ni      12.39782098      26.28456142      17.55132966       0.60000000       0.75359058      -1.54102738       0.49516900      -0.00418045       0.00283147       0.00074488      -5.72086942
Ni      10.65260141      24.53367385      21.02195264       0.60000000       0.45844918       3.11138890       0.36187688       0.00014388      -0.00332887      -0.00258629      -5.73548853
Ni      10.61988425      26.32623019      22.79089579       0.60000000      -1.29181716       0.54260755       1.97397027       0.00181347      -0.00258373      -0.00294818      -5.72262657
Ni      12.40851999      24.51188701      22.74655332       0.60000000      -1.35790661       1.25416062       1.48316980      -0.00073311       0.00216859       0.00054265      -5.73280901
Ni      12.38906513      26.29443744      21.02762331       0.60000000       1.41421833       0.17921311       2.08989687      -0.00064336      -0.00007382       0.00098020      -5.72459990
Ni      10.63844453      24.54629130      24.51438590       0.60000000       2.25971683      -0.31181653       0.74431929      -0.00088513      -0.00101582       0.00018905      -5.71638131
Ni      10.59217697      26.34900284      26.30638979       0.60000000      -1.82246525      -1.68987777       0.42356166       0.00029937       0.00162954      -0.00066854      -5.72558534
Ni      12.35708696      24.56535560      26.27751150       0.60000000       2.05760292       0.43926280      -0.16792985      -0.00120033       0.00383642      -0.00065713      -5.71984375
Ni      12.36027058      26.32597055      24.53598449       0.60000000       0.72724689      -0.54725991      -1.52057568       0.00219253      -0.00219690       0.00003478      -5.72262639
Ni      10.58472505      24.59810451      28.06217137       0.60000000       0.60991441       0.44230264       0.90000725      -0.00106126       0.00028560       0.00048029      -5.72544312
Ni      10.55982158      26.38307273      29.85345283       0.60000000       0.34831758       0.87026642       0.10379394      -0.00040940       0.00123289      -0.00033453      -5.72882468
Ni      12.31400067      24.61990086      29.84632242       0.60000000       0.30471543       1.72094293       1.30929798       0.00090927       0.00092774      -0.00142143      -5.72852826
Ni      12.32171349      26.36650506      28.07806143       0.60000000      -1.41228962      -0.28996446       1.72638090       0.00190318      -0.00053354       0.00024898      -5.72751182
Ni      10.55324382      24.63550470      31.62541587       0.60000000       0.76484738      -0.56813933      -0.53902108       0.00192698       0.00028173      -0.00018827      -5.72981519
Ni      10.54531176      26.40593445      33.40332991       0.60000000       0.24794134      -0.58116530       0.92102316      -0.00004787      -0.00055911       0.00087211      -5.73021966
Ni      12.30200601      24.64676886      33.40253467       0.60000000       0.02625416       0.91317024      -1.03536862      -0.00033340      -0.00077027       0.00029681      -5.73063731
Ni      12.30317505      26.39707675      31.62976067       0.60000000       1.32233198      -0.62978519       0.59336666       0.00036100       0.00105021       0.00091725      -5.73012602
Ni      10.54200978      28.17368742      -0.02321205       0.60000000       0.65897168       0.94907615       0.16873539      -0.00016948      -0.00016344      -0.00084541      -5.73032749
Ni      10.54130077      29.93992271       1.74675859       0.60000000       0.15961568       1.38307580       1.27143179      -0.00013781       0.00037554      -0.00022402      -5.73043162
Ni      12.29958706      28.17619515       1.74657314       0.60000000       1.72691719      -0.34488713      -0.69393172      -0.00028729       0.00099781      -0.00190794      -5.73068208
Ni      12.29756535      29.93788287      -0.02154607       0.60000000      -0.31307779       1.68478010       0.72397991       0.00087474       0.00092436      -0.00067894      -5.73029965
Ni      10.54441076      28.17604171       3.51492418       0.60000000       0.92621482       3.23967858      -1.28521399       0.00026405       0.00018452      -0.00120599      -5.73059613
Ni      10.54568473      29.93759918       5.28076012       0.60000000      -0.49551355      -0.38998400      -0.06713152       0.00032937       0.00038308       0.00083024      -5.73024899
Ni      12.30513490      28.17187914       5.28330500       0.60000000      -1.46832897      -0.18652161      -0.73979392       0.00156988       0.00101109      -0.00121325      -5.72893298
Ni      12.30048101      29.93895952       3.51484325       0.60000000      -0.86151154      -1.85586432       0.94364482      -0.00038230       0.00222670      -0.00088164      -5.73054695
Ni      10.55294019      28.16761792       7.04889874       0.60000000       0.79572601      -1.55770089       2.79390989       0.00103080       0.00135701      -0.00065463      -5.72899693
Ni      10.55530420      29.92530037       8.81044287       0.60000000       0.99329351       0.12387000      -1.35829644      -0.00073406      -0.00041410       0.00149899      -5.72870511
Ni      12.31810883      28.15043837       8.81682936       0.60000000      -0.40093408       1.19431310      -1.17621011       0.00281461      -0.00485237      -0.00043107      -5.74026650
Ni      12.30621659      29.93033234       7.04758543       0.60000000      -1.85383906      -1.06376369       0.96591285       0.00113864      -0.00124051      -0.00092027      -5.72896689
Ni      10.57119045      28.14507776      10.57805646       0.60000000      -0.83107026      -0.08456863      -1.71159039       0.00412495      -0.00360584       0.00112330      -5.73329145
Ni      10.56997057      29.90574823      12.32951986       0.60000000       0.42035797       0.45805975      -1.92579992       0.00034004      -0.00157547      -0.00274744      -5.72723049
Ni      12.34526371      28.11048127      12.33364783       0.60000000       1.32143150      -0.45677258      -0.58431102       0.00045555      -0.00053269       0.00083620      -5.73862725
Ni      12.31672957      29.91102000      10.57254384       0.60000000      -0.16768379       0.12194060      -0.20477487       0.00095645      -0.00060385      -0.00013108      -5.72950584
Ni      10.59332774      28.11669130      14.08461014       0.60000000       0.32612218      -0.17156524       1.25859721       0.00037689       0.00118925      -0.00198160      -5.72417414
Ni      10.58017813      29.89151285      15.82920461       0.60000000      -0.73734663      -1.84577600       0.62104319      -0.00129700      -0.00026309      -0.00131704      -5.72827846
Ni      12.36233146      28.08464010      15.82254122       0.60000000      -1.11306008      -0.72909899      -0.11500812       0.00142064       0.00378117       0.00038585      -5.72155201
Ni      12.33158837      29.88822775      14.08008332       0.60000000       2.11677072       2.71899834      -0.56231468       0.00180648       0.00001755      -0.00297130      -5.72674072
Ni      10.60139001      28.10600194      17.57181362       0.60000000       1.83472861       0.23289589       0.91814533       0.00014218       0.00008064      -0.00088588      -5.72604889
Ni      10.58275289      29.88710341      19.32309783       0.60000000       0.21371869       0.44802166       0.69360773      -0.00072183      -0.00065674       0.00015403      -5.72879964
Ni      12.36415536      28.08329358      19.30455526       0.60000000       1.14019215      -1.27322380      -0.74168799       0.00106959       0.00250456      -0.00042572      -5.72452539
Ni      12.33998334      29.87588882      17.57168113       0.60000000      -1.29047850       1.76828722      -0.52337452      -0.00053390       0.00159434      -0.00013440      -5.72781980
Ni      10.60045438      28.10660495      21.06119128       0.60000000      -1.29240138      -1.07122122       0.80292850       0.00225154      -0.00077252      -0.00234608      -5.72639149
Ni      10.57728168      29.89214768      22.82435055       0.60000000       0.45827786       0.05341351      -0.48346952       0.00073689      -0.00170776       0.00068312      -5.72903150
Ni      12.35121521      28.09925469      22.80150289       0.60000000      -1.21251065       1.26431441      -0.08770039       0.00176028      -0.00004636      -0.00074880      -5.72586995
Ni      12.33747956      29.87937242      21.06628151       0.60000000       1.59233528       0.80297954      -0.08156938      -0.00035800       0.00112455       0.00069324      -5.72838235
Ni      10.58708571      28.11783989      24.56520108       0.60000000       0.31275380      -0.13735953       1.48029796       0.00284450      -0.00117558      -0.00204358      -5.72760278
Ni      10.56360207      29.90429570      26.34088891       0.60000000      -0.40266194       3.10752816       0.64361092       0.00008621      -0.00062223      -0.00016804      -5.72934747
Ni      12.32581201      28.12564200      26.32426306       0.60000000       2.08676108       2.19320553       0.86836837       0.00087993       0.00011185      -0.00058960      -5.72830635
Ni      12.32420042      29.89431938      24.57729605       0.60000000       3.45671073      -0.95884733       0.93307929       0.00017849      -0.00198180       0.00075795      -5.72921950
Ni      10.56388330      28.13890247      28.09270065       0.60000000       1.19627836      -1.43831343      -0.32623433       0.00096706       0.00035872      -0.00019715      -5.72875482
Ni      10.54955707      29.91975769      29.87175191       0.60000000      -2.03262943       2.25951270       0.54418249      -0.00079381       0.00096845      -0.00031425      -5.72971970
Ni      12.30627805      28.15102008      29.86358124       0.60000000      -0.47682051       1.31820337       0.63126788       0.00008647       0.00101704      -0.00080913      -5.72969568
Ni      12.30864225      29.91196428      28.10490898       0.60000000      -1.02602516      -0.59950243       0.09150683       0.00069930      -0.00058826      -0.00067930      -5.72975492
Ni      10.54728968      28.16073456      31.63438897       0.60000000      -1.60784296      -2.45737818      -0.02065691       0.00013030       0.00004094       0.00001427      -5.72980320
Ni      10.54183771      29.93361052      33.40939516       0.60000000      -0.11766618      -0.26201339      -0.61510908       0.00076898      -0.00065210      -0.00073395      -5.73010981
Ni      12.29882010      28.16932947      33.40581399       0.60000000       1.33205546       0.01667340      -0.34131104       0.00013275      -0.00022251       0.00106058      -5.73024964
Ni      12.29982310      29.92798838      31.64028866       0.60000000      -0.61685098       0.34416155       3.12696510      -0.00034242      -0.00000832       0.00060083      -5.73010224
Ni      10.54028576      31.70367291      -0.01928979       0.60000000      -2.02543363       0.24910490       1.09106690       0.00134916      -0.00059138       0.00010181      -5.73021573
Ni      10.54146322      33.47238194       1.75051954       0.60000000      -0.38557691       0.32833319       1.39729488       0.00116624       0.00054277      -0.00043672      -5.73017979
Ni      12.29815166      31.70516326       1.74834721       0.60000000       0.97097368       0.53465888      -0.01745477       0.00115220      -0.00039680      -0.00055784      -5.73030227
Ni      12.29792574      33.47041236      -0.01683670       0.60000000       1.04381858      -0.00717830       0.43046725       0.00031920       0.00012830      -0.00027785      -5.73018426
Ni      10.54253123      31.70563827       3.51495587       0.60000000      -0.83747637       0.62656180       0.14572471       0.00003789       0.00035937       0.00039734      -5.73038137
Ni      10.54528183      33.47273736       5.28196288       0.60000000      -0.16812676       1.01633806       0.16126820       0.00001577       0.00016613      -0.00010371      -5.73023099
Ni      12.30189907      31.70274817       5.28113352       0.60000000      -0.97824457      -0.15900896      -0.40858094      -0.00031902       0.00036998      -0.00069603      -5.73034859
Ni      12.30012338      33.47241734       3.51669105       0.60000000      -0.70651401      -0.89909029       0.84653937       0.00070721       0.00009113      -0.00002866      -5.73022050
Ni      10.54774618      31.70061441       7.04506096       0.60000000      -0.41751408      -0.33380872      -0.11462757       0.00030795       0.00143797       0.00023875      -5.73018599
Ni      10.55044844      33.46837417       8.80681061       0.60000000      -3.11986160      -0.88318985      -0.71879186      -0.00042120       0.00090141      -0.00007094      -5.73034143
Ni      12.30682434      31.69426210       8.80793278       0.60000000       0.00510077       1.01616668      -1.49673590       0.00022200      -0.00073826      -0.00114103      -5.72963035
Ni      12.30401629      33.46985734       7.04542884       0.60000000      -1.98453722      -0.69700432       0.20637396      -0.00037981       0.00071365      -0.00032374      -5.73037374
Ni      10.55543058      31.68989744      10.56775770       0.60000000      -2.07291551       1.74591022       0.98648200       0.00054696       0.00078307      -0.00076609      -5.72963148
Ni      10.55526044      33.46142197      12.32215652       0.60000000       0.55717099      -1.85875137      -0.61475086      -0.00033556      -0.00065774      -0.00015901      -5.73052728
Ni      12.31370933      31.68163813      12.32441360       0.60000000       0.52330554       0.51174111       0.84724593       0.00051065      -0.00025664      -0.00018484      -5.72953194
Ni      12.30807425      33.46412048      10.56573706       0.60000000       0.74065180      -1.33444131      -0.25017656      -0.00134013       0.00064665      -0.00053043      -5.73069447
Ni      10.56356252      31.67791754      14.07790696       0.60000000      -1.69299200      -1.01835801       1.52228878      -0.00031511       0.00036561      -0.00016918      -5.72980499
Ni      10.55802299      33.45311961      15.82907178       0.60000000      -0.29640122      -0.21438796       1.79346778       0.00103037       0.00030708       0.00062348      -5.73048317
Ni      12.32109300      31.66906388      15.82812214       0.60000000      -0.62302876       0.69575557      -0.59583370       0.00011615      -0.00061823       0.00076193      -5.72991329
Ni      12.31153868      33.45591639      14.07644340       0.60000000      -0.91940246       0.49795822       1.32856945       0.00099218       0.00002405       0.00027157      -5.73093480
Ni      10.56739557      31.67025726      17.57909617       0.60000000       1.14251002      -0.41789853       0.19573889       0.00148081      -0.00201673      -0.00054233      -5.72972947
Ni      10.55815936      33.44847153      19.33361270       0.60000000      -0.43547807      -2.79362887      -0.72817563       0.00095061      -0.00185719      -0.00008788      -5.73035699
Ni      12.32291672      31.66407520      19.32690894       0.60000000      -0.03354191      -1.26964319      -0.38161495       0.00223752      -0.00100490      -0.00079397      -5.72966462
Ni      12.31352853      33.44852716      17.58066000       0.60000000       0.33339447      -2.67074232      -1.98912565       0.00141457      -0.00049736       0.00050584      -5.73070031
Ni      10.56640606      31.66904365      21.08090068       0.60000000      -0.01838269       0.90218978       0.69467337       0.00110608       0.00011615       0.00055984      -5.72969818
Ni      10.55511886      33.44854143      22.84225575       0.60000000      -0.45162212       0.79690065      -0.22877201       0.00041825      -0.00100455      -0.00016280      -5.73034823
Ni      12.31835389      31.66844709      22.83244529       0.60000000       1.51813069       0.51212461      -2.30158601       0.00050073       0.00023744       0.00050488      -5.72980034
Ni      12.31230191      33.44654851      21.08600788       0.60000000       0.36183245       0.95445886      -2.06999442       0.00100004      -0.00148877      -0.00041796      -5.73050779
Ni      10.55969980      31.67476825      24.59175128       0.60000000       0.02471331       0.79605449      -0.81164109       0.00032712      -0.00036973       0.00064579      -5.72990406
Ni      10.54932618      33.45318760      26.35922503       0.60000000      -0.03522528      -0.79781558      -1.89931392       0.00017964      -0.00047850       0.00051717      -5.73033327
Ni      12.30903956      31.67867368      26.35083395       0.60000000       0.30596548      -1.40182468      -0.30819303       0.00050548      -0.00070963       0.00050445      -5.73005974
Ni      12.30758399      33.44980945      24.59893707       0.60000000       0.48629850      -0.99298276      -0.90964736       0.00101596      -0.00101438      -0.00068324      -5.73046297
Ni      10.55009117      31.68463281      28.11434449       0.60000000       0.75326496      -2.25231828       0.32739926       0.00007916      -0.00052170       0.00003689      -5.72998548
Ni      10.54400290      33.46045607      29.88466126       0.60000000       0.78248897      -1.14405664       0.46191838      -0.00062416      -0.00045965       0.00053212      -5.73017317
Ni      12.30130028      31.69045177      29.87908145       0.60000000      -0.06553245      -0.72057570      -2.95487351      -0.00065334      -0.00017831       0.00007765      -5.73014742
Ni      12.30227660      33.45663769      28.12061965       0.60000000      -0.39563510      -1.23192823       0.88396449      -0.00032961      -0.00014823       0.00027524      -5.73037142
Ni      10.54303679      31.69539699      31.64555205       0.60000000      -2.59984022       1.82403333       1.18649896      -0.00054627       0.00038369      -0.00023131      -5.73004162
Ni      10.54100279      33.46773899      33.41643773       0.60000000       0.59316344      -2.70698161      -1.08698305       0.00016458      -0.00024264      -0.00039253      -5.73012620
Ni      12.29764845      31.70030220      33.41295022       0.60000000       1.45351606      -0.18967129      -0.35633830       0.00000385       0.00028979      -0.00025713      -5.73019052
Ni      12.29873666      33.46452460      31.64965040       0.60000000      -0.85836088      -0.68294376       0.65132365      -0.00048306      -0.00018963      -0.00017117      -5.73020846
Ni      14.05570954       0.03761425      -0.01533255       0.60000000       1.83029952      -0.31048072       1.02463448       0.00007044      -0.00031374      -0.00036515      -5.73017371
Ni      14.05815752       1.80684459       1.75422482       0.60000000       0.73839815      -0.39043918      -1.91819837      -0.00027349       0.00011610      -0.00096480      -5.73014987
Ni      15.81267674       0.03733132       1.75119825       0.60000000      -0.29240441       1.35127713      -0.68489033       0.00035370      -0.00013079      -0.00049546      -5.73020738
Ni      15.81315580       1.80417720      -0.01547774       0.60000000      -0.98597822       1.43469240      -0.26822119      -0.00021923      -0.00000108      -0.00078280      -5.73017162
Ni      14.05770604       0.03977032       3.51872828       0.60000000      -0.34489858      -2.20339946      -1.40099755       0.00009678       0.00006951      -0.00081457      -5.73020726
Ni      14.06175705       1.81159879       5.28840648       0.60000000       2.06497919      -0.03606649      -0.53605362       0.00020798      -0.00000784       0.00077621      -5.73016280
Ni      15.81425592       0.03815455       5.28301693       0.60000000       0.59703501       0.19325372       0.76440742       0.00035851       0.00031850      -0.00020499      -5.73029405
Ni      15.81466044       1.80669437       3.52011527       0.60000000       0.09525267       0.36791946      -0.90585558       0.00024730       0.00037183       0.00007580      -5.73025393
Ni      14.06061313       0.04075041       7.04733100       0.60000000      -0.87270575      -0.35345308      -0.07585313       0.00054689       0.00097808       0.00018913      -5.73030150
Ni      14.06675333       1.81633515       8.81488445       0.60000000       2.62059455       1.15263794      -0.46706446       0.00008186       0.00003173       0.00141437      -5.73008758
Ni      15.81574333       0.03774543       8.80706106       0.60000000      -2.31009704      -0.39352074      -0.38708178       0.00054897       0.00065696      -0.00003294      -5.73052514
Ni      15.81767047       1.81128443       7.05117997       0.60000000       0.38941346      -0.27576261       0.43104803       0.00025167       0.00016236       0.00126723      -5.73018253
Ni      14.06341213       0.03911559      10.56678077       0.60000000      -0.70587881       0.31110610      -0.76280491      -0.00005452       0.00035793       0.00022260      -5.73061198
Ni      14.07008934       1.81579263      12.32896476       0.60000000      -0.33329573      -1.69544093       0.81729217       0.00099615       0.00027607       0.00094245      -5.73045242
Ni      15.81690947       0.03349973      12.32165486       0.60000000       1.45909810      -1.70507056       0.13812998       0.00038994       0.00156687      -0.00019574      -5.73101711
Ni      15.82114220       1.81353461      10.57209756       0.60000000       1.52726522      -0.38036889      -0.89691692       0.00011017      -0.00059844       0.00127445      -5.73040158
Ni      14.06492604       0.03323402      14.07704855       0.60000000       0.79754660      -1.40602180      -0.23295696      -0.00015307       0.00124832       0.00093522      -5.73106354
Ni      14.06965992       1.80886208      15.83366932       0.60000000      -0.71565781      -1.98300149       1.81729888      -0.00056949       0.00018641       0.00044624      -5.73095340
Ni      15.81769904       0.02749577      15.82974043       0.60000000       0.10687836       0.82957563       1.80453715       0.00000131       0.00210677       0.00082360      -5.73140424
Ni      15.82263407       1.80888425      14.08109142       0.60000000       0.38076898      -0.92056617      -1.71139698       0.00004973      -0.00033877       0.00089847      -5.73092568
Ni      14.06480768       0.02711469      17.58309303       0.60000000      -0.99505548       0.00486856       1.19413754      -0.00016197      -0.00012625       0.00004252      -5.73121959
Ni      14.06657011       1.80157101      19.33790685       0.60000000      -1.21781711      -0.79151960      -1.86311092      -0.00045483       0.00160144       0.00059578      -5.73102689
Ni      15.81762688       0.02410429      19.33674091       0.60000000       0.25785571      -0.71812819       0.68599667      -0.00125518      -0.00035397       0.00053804      -5.73134333
Ni      15.82153642       1.80193276      17.58541425       0.60000000       1.80954317       0.09208864       0.24255146      -0.00071252      -0.00039745       0.00088992      -5.73127097
Ni      14.06334410       0.02393421      21.09047485       0.60000000      -1.13749098       0.92322197      -0.33061025      -0.00146715      -0.00021598       0.00026158      -5.73099375
Ni      14.06293482       1.79819753      22.84754265       0.60000000       1.21267954      -0.80510372       0.43734775      -0.00058483       0.00073269      -0.00007525      -5.73084414
Ni      15.81616619       0.02417675      22.84692745       0.60000000      -0.44991531      -1.86529231      -0.94159619      -0.00063011       0.00016816       0.00072106      -5.73090565
Ni      15.81933448       1.79864053      21.09218728       0.60000000       0.58333843      -0.74146319      -1.34023144      -0.00073382       0.00014723       0.00071066      -5.73106968
Ni      14.06018709       0.02465057      24.60387169       0.60000000       1.08624162      -1.15432308       0.62057804       0.00073571       0.00073937      -0.00053254      -5.73075008
Ni      14.05970063       1.79881444      26.36360020       0.60000000      -0.55814447       0.31525142      -1.04114654       0.00002059       0.00063921       0.00032749      -5.73071408
Ni      15.81412749       0.02738512      26.36325498       0.60000000      -0.13498110       0.79008319       0.38124997       0.00011639       0.00030743       0.00015647      -5.73068058
Ni      15.81665167       1.79886479      24.60446252       0.60000000      -0.05677760      -0.22289797      -0.34452044       0.00041052       0.00018330      -0.00004476      -5.73083788
Ni      14.05749241       0.02876839      28.12415362       0.60000000      -1.09263696       0.62619605      -0.87405302      -0.00036155       0.00051391      -0.00009477      -5.73055208
Ni      14.05744096       1.80166663      29.88685649       0.60000000      -1.77151527      -0.41625251       0.72320547       0.00007000      -0.00064379       0.00048093      -5.73037881
Ni      15.81254720       0.03207917      29.88665746       0.60000000      -0.08118690       1.24695678      -0.87664573       0.00001677      -0.00010531       0.00017486      -5.73043591
Ni      15.81429181       1.80118100      28.12331852       0.60000000       0.31626071       1.69896641       0.63946683       0.00100133      -0.00038210       0.00035748      -5.73057836
Ni      14.05574264       0.03383261      31.65153839       0.60000000       1.77756502       0.68427890      -1.19610484      -0.00037722      -0.00021910       0.00021348      -5.73028177
Ni      14.05672014       1.80383116      33.41825263       0.60000000      -0.32627486      -0.91666306      -0.04661427      -0.00004180       0.00045496      -0.00072405      -5.73016173
Ni      15.81200862       0.03563676      33.41705326       0.60000000      -2.02312847       1.75123932       1.79613172      -0.00011795       0.00004223      -0.00011611      -5.73023659
Ni      15.81315847       1.80297279      31.65044584       0.60000000       0.68485264       2.53208043      -1.59858801      -0.00048698       0.00036172      -0.00034999      -5.73026603
Ni      14.05888623       3.57218826      -0.01318394       0.60000000       0.50087099       0.68426243       2.64607292      -0.00011080       0.00008176      -0.00029404      -5.73011833
Ni      14.06318530       5.34030694       1.75974500       0.60000000      -0.13640452      -0.55667237      -2.38806527      -0.00117410       0.00022593      -0.00084330      -5.73013777
Ni      15.81512694       3.57235085       1.75426287       0.60000000      -1.27939513      -1.73586896      -0.01254399      -0.00027543       0.00020557      -0.00070648      -5.73022819
Ni      15.81537653       5.33662414      -0.01567203       0.60000000       1.85274147      -0.42764332       2.05038884      -0.00007289       0.00022378      -0.00022031      -5.73019767
Ni      14.06276915       3.57776297       3.52638332       0.60000000      -1.72443870      -0.75089754       1.28869305      -0.00067216       0.00001180       0.00023681      -5.73011851
Ni      14.07148030       5.35211775       5.30384102       0.60000000      -0.73408244       0.94772697      -1.15554004       0.00007007       0.00066751       0.00082454      -5.72973388
Ni      15.81888095       3.57896424       5.29231625       0.60000000       0.43104271       0.04220358       0.06050796      -0.00032040       0.00111839       0.00124527      -5.73012036
Ni      15.81923970       5.34200291       3.52835566       0.60000000       0.03290730      -0.45411921      -0.54067091      -0.00104736       0.00037221      -0.00061513      -5.73021019
Ni      14.07012063       3.58768011       7.06232469       0.60000000       0.89974295       0.91756352      -0.21182285      -0.00050799       0.00128572       0.00088369      -5.72975767
Ni      14.08603062       5.37072616       8.84300372       0.60000000      -0.71619197      -0.30773901       0.32724980      -0.00068675       0.00080361      -0.00056476      -5.72865927
Ni      15.82579282       3.58952350       8.82463205       0.60000000      -0.32754842       3.13990904      -0.42598465      -0.00136628      -0.00097865      -0.00007864      -5.72971731
Ni      15.82770095       5.35605014       7.07114771       0.60000000      -0.06091624      -1.53210668       1.01461460      -0.00012518       0.00163940       0.00016297      -5.72952873
Ni      14.07876856       3.59736386      10.58661952       0.60000000      -1.09612709       0.59435578       0.86376829      -0.00128856      -0.00111843      -0.00022426      -5.72952735
Ni      14.09847754       5.38567294      12.36138330       0.60000000       1.15378348       2.19484262      -1.85837875      -0.00290089      -0.00210362      -0.00093019      -5.72786611
Ni      15.83205912       3.59428169      12.34094317       0.60000000      -0.40729001      -1.51973915      -0.13643354      -0.00059734      -0.00071315       0.00000571      -5.72942138
Ni      15.84195829       5.37575261      10.60571013       0.60000000      -0.18073868       2.32132294       0.88032688      -0.00214440      -0.00206859      -0.00185034      -5.72802067
Ni      14.08142925       3.59611792      14.09172269       0.60000000      -0.66679391      -0.05489914       2.19209556      -0.00017071      -0.00032642       0.00025836      -5.72986484
Ni      14.09533225       5.37855767      15.85126049       0.60000000      -0.29985812      -0.13246580       1.20087527      -0.00102168      -0.00007424       0.00147255      -5.72806758
Ni      15.83109019       3.58630155      15.84042985       0.60000000      -0.31809136      -1.37285777       1.16743238       0.00101702       0.00094716      -0.00136075      -5.72954583
Ni      15.85104782       5.38328821      14.11056952       0.60000000       1.65761350       0.63838122       0.39581040      -0.00097627      -0.00216337       0.00042571      -5.72600639
Ni      14.07636816       3.58536764      17.58865681       0.60000000      -1.23086349      -0.99243681      -0.23919739      -0.00105239      -0.00251833      -0.00061063      -5.73024487
Ni      14.08221976       5.35979882      19.33886308       0.60000000       1.32776003      -0.59003343      -1.09145806      -0.00013139      -0.00044052       0.00150446      -5.72794455
Ni      15.82639718       3.57693712      19.33854196       0.60000000      -0.44469343      -2.36098088       0.22784992      -0.00054032      -0.00062551      -0.00013574      -5.72921300
Ni      15.84321567       5.36782789      17.59442482       0.60000000      -2.50787100       0.21176798       2.27711608       0.00113746      -0.00055704      -0.00079125      -5.72569042
Ni      14.06893542       3.57490807      21.09091659       0.60000000      -1.12615667      -0.14781494      -0.57354270      -0.00052723      -0.00057785       0.00018627      -5.73021579
Ni      14.07085258       5.34633836      22.84139872       0.60000000      -1.53356839       0.78891236      -0.05137345      -0.00058913      -0.00110183      -0.00009905      -5.72965634
Ni      15.82136152       3.57254867      22.84474622       0.60000000       0.02621460      -2.53056967       0.94732493      -0.00077569      -0.00090285       0.00067265      -5.73007643
Ni      15.83053734       5.35165256      21.08637069       0.60000000      -0.41108130       0.39222737      -0.30399784      -0.00072628      -0.00038327       0.00036774      -5.72992140
Ni      14.06379387       3.57123601      24.60241145       0.60000000       0.14254735       0.13256061      -0.65449279       0.00005043      -0.00198860       0.00002520      -5.73073423
Ni      14.06589220       5.34472225      26.35348672       0.60000000       1.16818018      -0.52654516       0.60837592      -0.00076762      -0.00115696       0.00007824      -5.73034966
Ni      15.81745624       3.57260491      26.35900091       0.60000000      -1.22682912       1.06517259       1.49079929       0.00019821      -0.00109043       0.00088874      -5.73066753
Ni      15.82223661       5.34610649      24.59374885       0.60000000      -0.21238493      -0.41744568      -1.43323343      -0.00091245       0.00061657       0.00077819      -5.72969377
Ni      14.06040450       3.57165444      28.12103082       0.60000000      -1.83616524       1.28289146      -0.83667527       0.00086368      -0.00028057       0.00005774      -5.73051560
Ni      14.06140645       5.34145707      29.87836267       0.60000000      -1.88930322       1.77395529      -0.69818514       0.00115391      -0.00127598       0.00046872      -5.73014700
Ni      15.81467220       3.57259415      29.88201905       0.60000000       2.04354131       0.85974707      -1.55922923       0.00107663      -0.00044862       0.00042846      -5.73029244
Ni      15.81762442       5.34563852      28.11095934       0.60000000       1.80199035       0.81048083       0.07472554      -0.00026817      -0.00130478       0.00032638      -5.73016560
Ni      14.05831488       3.57132827      31.64975448       0.60000000       0.37869439       0.62277484      -0.21038858       0.00044333       0.00000735      -0.00029315      -5.73017508
Ni      14.05987137       5.33748511      33.41587515       0.60000000      -0.84932699      -0.90767233      -0.53271619       0.00057783      -0.00001762       0.00053061      -5.73011678
Ni      15.81390156       3.57105340      33.41538596       0.60000000       0.51719381      -0.78157544       0.09777580      -0.00023566      -0.00024092      -0.00015156      -5.73014754
Ni      15.81491556       5.33967121      31.64301850       0.60000000      -0.80372010      -1.75078922       0.57384828       0.00112042      -0.00035699       0.00094059      -5.73007727
Ni      14.06296868       7.10117811      -0.01189440       0.60000000       0.73500354      -0.62153281      -0.65265612      -0.00012628       0.00066179      -0.00046198      -5.73020500
Ni      14.06908946       8.86597660       1.76585883       0.60000000       0.01959941       2.36794935       0.67420246      -0.00074622       0.00013351       0.00041215      -5.73021024
Ni      15.81886490       7.10202790       1.75866828       0.60000000       1.29344123       1.06066404       1.63923344      -0.00116647       0.00049642      -0.00044294      -5.73029405
Ni      15.81792016       8.86129961      -0.01555963       0.60000000       0.77637538       0.90733492       1.94030779      -0.00012100       0.00019791      -0.00021286      -5.73038012
Ni      14.07105011       7.11077920       3.53812850       0.60000000       0.45260135      -2.25828672      -1.23452359      -0.00068172      -0.00019815      -0.00047695      -5.72993022
Ni      14.08659066       8.88632587       5.32418087       0.60000000      -0.21308203       0.81869882      -0.57411433      -0.00035927      -0.00018239      -0.00063434      -5.72901195
Ni      15.82725730       7.11533739       5.30874691       0.60000000       1.58093227      -1.42997621       1.28135626       0.00016170       0.00111775      -0.00003481      -5.72977126
Ni      15.82537274       8.87029444       3.53861837       0.60000000      -0.87730219       1.16404737      -0.31085054       0.00015052       0.00046257       0.00103862      -5.73009366
Ni      14.08872295       7.13289670       7.08947597       0.60000000       1.55165085      -0.22697489      -1.78868768       0.00012995       0.00099371      -0.00068450      -5.72852290
Ni      14.12164196       8.92438533       8.88609814       0.60000000       0.16565106      -2.41000439       3.28589501       0.00024708       0.00017102      -0.00077005      -5.72543162
Ni      15.84665137       7.14173469       8.86035032       0.60000000      -0.62672960      -0.48533258      -0.76740564      -0.00125280      -0.00061780      -0.00116245      -5.72794741
Ni      15.84468277       8.89575136       7.09930507       0.60000000      -0.07250760       0.44467921       1.13301359       0.00123696       0.00102613      -0.00041760      -5.72856569
Ni      14.11428396       7.16426601      10.63173156       0.60000000      -1.09565790       0.35163871       0.79260430      -0.00022673      -0.00094843      -0.00157488      -5.72598714
Ni      14.15713102       8.97013226      12.42599639       0.60000000      -2.00181753       0.39451759      -0.24483380      -0.00125810      -0.00141832      -0.00203581      -5.72100329
Ni      15.87341454       7.17536140      12.39662917       0.60000000      -0.61471462      -1.39585350      -0.47161375      -0.00136449      -0.00297258      -0.00170013      -5.72299850
Ni      15.88674523       8.94090859      10.66594258       0.60000000       0.12200975       1.00128546       1.43503427       0.00004199      -0.00048483       0.00039006      -5.72224522
Ni      14.12379773       7.18079693      14.13579265       0.60000000       0.11092846       1.66676359      -0.76720058      -0.00074278      -0.00302334      -0.00260831      -5.72459048
Ni      14.15128825       8.97578949      15.90750050       0.60000000      -0.91302759      -0.79357169       0.88060804      -0.00060072      -0.00108704      -0.00096199      -5.71915019
Ni      15.87598923       7.17696969      15.87574426       0.60000000       1.13111871      -0.01155303      -0.30563145      -0.00119614      -0.00336157       0.00036051      -5.72492617
Ni      15.92078910       8.99055582      14.19209927       0.60000000       0.53266418      -2.35972045       0.90596670      -0.00130630      -0.00305822      -0.00000303      -5.71593612
Ni      14.10737583       7.15954183      17.60482606       0.60000000      -0.63938647       0.23373414      -0.15681621       0.00031382      -0.00220803       0.00121252      -5.72487509
Ni      14.11442787       8.93257628      19.35384055       0.60000000      -0.14761067       0.88642429      -1.17193414       0.00039406       0.00034685      -0.00199527      -5.74513292
Ni      15.85445530       7.14663815      19.33949255       0.60000000       0.21024059      -0.68307917       0.04215091       0.00078274      -0.00223695       0.00167826      -5.74143761
Ni      15.90586078       8.96441440      17.63571761       0.60000000      -0.27539866       1.05690001       0.13023701       0.00031993      -0.00103505      -0.00186946      -5.74102491
Ni      14.08339871       7.12910226      21.08557589       0.60000000      -0.42982843       1.15432534       1.46256605       0.00027826       0.00248610       0.00072866      -5.73458636
Ni      14.08932318       8.91225755      22.81847637       0.60000000       0.57039870      -1.51574415       0.60144647       0.00083704      -0.00082659       0.00147478      -5.74015886
Ni      15.82989243       7.12438205      22.82952071       0.60000000       1.11337353      -0.38735691       0.01766475      -0.00013032       0.00109481       0.00050365      -5.74150711
Ni      15.85490633       8.90845428      21.07962778       0.60000000       1.19507308       0.89276909       0.23236646      -0.00058356       0.00020375      -0.00145397      -5.65156162
Ni      14.07403512       7.12249729      24.58453104       0.60000000       1.76718594      -0.64187793      -0.21969347      -0.00132617      -0.00045474       0.00171227      -5.72776526
Ni      14.07541519       8.89868366      26.32009584       0.60000000       0.13007879      -0.99725607      -1.66928597      -0.00271568       0.00143835      -0.00110339      -5.72479701
Ni      15.82089476       7.12444094      26.33541744       0.60000000       1.03606226      -0.21898138      -0.48283049       0.00304675      -0.00184432      -0.00037148      -5.72817749
Ni      15.82822036       8.91468446      24.55056122       0.60000000      -1.72520747      -0.33033558       0.09074786      -0.00320562       0.00095139      -0.00203010      -5.73564547
Ni      14.06721151       7.11592942      28.10270870       0.60000000      -1.29532504       0.28553252      -0.74172752       0.00003083      -0.00098382       0.00161520      -5.72943050
Ni      14.06702750       8.87700892      29.86003628       0.60000000      -0.64853807       1.94049184      -1.33861026      -0.00089261       0.00028521      -0.00088008      -5.72890252
Ni      15.81683162       7.11221126      29.86618711       0.60000000       0.29802189      -0.16484415       0.23550415       0.00101942      -0.00033110       0.00003169      -5.72977442
Ni      15.81879033       8.89215018      28.08125907       0.60000000       0.94423460      -0.63454217      -1.94121023      -0.00125650       0.00004615       0.00002987      -5.72717994
Ni      14.06214497       7.10487784      31.64093127       0.60000000       1.11972689      -0.24943833      -1.18125863       0.00130744       0.00026963       0.00052199      -5.72998267
Ni      14.06321058       8.86275065      33.41207952       0.60000000      -0.86559643       0.61514213       0.32195771       0.00193272       0.00120402       0.00007801      -5.73023599
Ni      15.81551417       7.10159353      33.41024314       0.60000000      -1.03248661       1.85177253      -1.27936159       0.00132761       0.00042418       0.00035510      -5.73013330
Ni      15.81619655       8.86970872      31.63093617       0.60000000       0.65262418      -0.22556749       0.52949374       0.00086823       0.00062028       0.00046577      -5.72984433
Ni      14.06666033      10.62048589      -0.01037777       0.60000000      -0.07871726       0.00234072       0.49072254       0.00020967       0.00007710       0.00007269      -5.73049229
Ni      14.07411224      12.38170141       1.77082923       0.60000000      -1.25696542      -0.16167280      -0.04448669      -0.00117244       0.00037613       0.00026631      -5.73035061
Ni      15.82294328      10.62314896       1.76353214       0.60000000       0.46399961      -0.31089090      -0.40754548      -0.00156102      -0.00054140       0.00042755      -5.73047227
Ni      15.81984871      12.37569321      -0.01468517       0.60000000      -1.06809287      -2.46427873      -0.10076421      -0.00013110      -0.00001853       0.00069763      -5.73083252
Ni      14.08089372      10.63460239       3.54987481       0.60000000       2.20010359      -0.97460047      -0.08933880      -0.00005744       0.00010878      -0.00020297      -5.72972119
Ni      14.10380831      12.40917507       5.34253774       0.60000000      -1.55363140       0.53064497      -1.14383545      -0.00108787      -0.00083935      -0.00045096      -5.72795105
Ni      15.83919367      10.64422107       5.32715326       0.60000000       1.03399321      -1.05529697      -1.40938109       0.00058497       0.00021206      -0.00011393      -5.72926629
Ni      15.83210409      12.38940168       3.54773245       0.60000000      -1.34146358       1.79089214      -0.80713394      -0.00016268       0.00028879      -0.00008360      -5.73014432
Ni      14.11684533      10.67037264       7.12135108       0.60000000      -0.88294538       0.21789372       0.29784403      -0.00035854       0.00012460      -0.00092509      -5.72637624
Ni      14.17013886      12.46644846       8.93090401       0.60000000      -0.84923332      -0.02487966      -0.01921436       0.00044240       0.00073211      -0.00020360      -5.72056407
Ni      15.88394691      10.68921969       8.90687936       0.60000000       0.40169142       1.35443364       0.59328294      -0.00290273      -0.00014267       0.00101306      -5.72329229
Ni      15.86947702      12.42796940       7.13062663       0.60000000      -0.77766284      -1.45455125       0.99988656      -0.00084314      -0.00081372      -0.00195531      -5.72517121
Ni      14.17642564      10.72992377      10.69200813       0.60000000       0.04958271      -0.21889943       0.38116993       0.00046524       0.00160644      -0.00103969      -5.71953815
Ni      14.23174337      12.53496986      12.49201039       0.60000000       0.34211180      -0.45172086      -0.80810658      -0.00508133      -0.00262856      -0.00377102      -5.71634632
Ni      15.95858526      10.76277279      12.48201882       0.60000000      -0.78332573      -0.07198191      -0.67226636      -0.00047148      -0.00252215      -0.00127094      -5.71243751
Ni      15.96680666      12.51103033      10.73349809       0.60000000      -0.84125026       0.04257942       0.74373619       0.00259885       0.00040554       0.00025484      -5.71115756
Ni      14.20529367      10.77665460      14.22231413       0.60000000       0.29985128       2.48318536       0.26582164       0.00033076      -0.00327460      -0.00075141      -5.71455270
Ni      14.24882595      12.57553575      16.01954001       0.60000000       0.77327214      -0.60886676       0.21462737      -0.00216151      -0.00413506       0.00210729      -5.71552128
Ni      15.98678558      10.79997441      16.00409141       0.60000000       0.51985175      -1.45309299      -0.87568236       0.00423976       0.00032054       0.00395475      -5.71482861
Ni      16.02053489      12.56898471      14.28374991       0.60000000      -0.99390230      -0.38675475      -0.11904883      -0.00050005      -0.00275213      -0.00477912      -5.70842403
Ni      14.17548383      10.75990495      17.68145095       0.60000000       0.04055285      -3.32427590      -1.54413663       0.00333053      -0.00282811      -0.00313310      -5.73662990
Ni      14.12778889      12.52351778      19.42144727       0.60000000       0.05729366      -0.29936497      -1.80548292       0.00007297      -0.00338887       0.00278448      -5.65273124
Ni      15.94496663      10.70190118      19.40785416       0.60000000       0.34876020       1.30811905      -0.74484479      -0.00046156      -0.00092423       0.00036638      -5.61044014
Ni      16.02390083      12.57566872      17.83470256       0.60000000      -1.58981084       0.99738546       0.14764071       0.00463745       0.00084903       0.00222856      -5.65447086
Ni      14.10909244      10.70537427      21.07795399       0.60000000      -1.54392942      -0.26489963       0.85442830      -0.00440936       0.00049256       0.00160628      -5.74436814
Ni      14.09192272      12.50276019      22.74450024       0.60000000      -1.08254686      -1.17173676      -0.01667997      -0.00374515       0.00266149       0.00047400      -5.64779711
Ni      15.86904635      10.71475074      22.73864440       0.60000000       0.66936258       1.15456745       0.37358144       0.00109722      -0.00071999       0.00027811      -5.64871460
Ni      14.08552495      10.69908183      24.52626246       0.60000000      -0.73217054      -0.15303259       0.09885441       0.00234336       0.00105929      -0.00283703      -5.73974645
Ni      14.06635436      12.45711761      26.24585117       0.60000000      -2.38584789       2.61563542      -1.12276575       0.00294379      -0.00199207       0.00053484      -5.73304224
Ni      15.81731342      10.68656875      26.27949500       0.60000000      -2.35084105      -0.02236424       0.05701569      -0.00031597      -0.00232108       0.00188252      -5.72177476
Ni      15.80964970      12.50501439      24.43950066       0.60000000      -0.81814587       1.75062615       1.13800513      -0.00122439       0.00011413      -0.00130585      -5.72647190
Ni      14.07168465      10.65760317      28.06677044       0.60000000      -0.76820529      -2.51246745       0.63767733      -0.00161414       0.00046982       0.00167451      -5.72389233
Ni      14.06751116      12.39450067      29.84032644       0.60000000      -0.43163284       0.97562614      -0.22168320      -0.00227605       0.00169267      -0.00018048      -5.72665817
Ni      15.81614198      10.64380988      29.84246511       0.60000000       0.77973453      -1.39622733       0.30935256      -0.00156411      -0.00066810       0.00021526      -5.72815150
Ni      15.80927235      12.42604905      28.03406508       0.60000000       0.35659218       0.35911064      -0.30608619      -0.00136736       0.00170270       0.00420656      -5.72131807
Ni      14.06554424      10.62713279      31.63082524       0.60000000      -0.22438526       0.79090158      -0.92908845      -0.00005081       0.00051027       0.00066359      -5.72977698
Ni      14.06534173      12.37570449      33.41019490       0.60000000       0.47314582      -1.10260850      -0.20521581       0.00059722       0.00128285      -0.00014617      -5.73082846
Ni      15.81685382      10.62154066      33.40584598       0.60000000       0.22102676       1.59913186       1.27597021       0.00112871       0.00119135       0.00021152      -5.73040330
Ni      15.81551341      12.38438715      31.62124207       0.60000000       1.75811334      -1.35638961       0.68067210       0.00046974       0.00067788       0.00021872      -5.72985220
Ni      14.06816059      14.12998343      -0.01005852       0.60000000      -1.14490575      -0.54270022       1.02112996      -0.00033661      -0.00086876       0.00083559      -5.73088998
Ni      14.07486123      15.88816334       1.76982082       0.60000000       1.72742646      -0.09679273      -0.41829283       0.00039174       0.00035014       0.00008632      -5.73062962
Ni      15.82535553      14.13487409       1.76584371       0.60000000       2.65930465       1.26759779       0.04561221      -0.00074860      -0.00031607       0.00066274      -5.73083341
Ni      15.82003247      15.88216952      -0.01577967       0.60000000       1.08762122      -0.38237760       1.32188699      -0.00036533      -0.00151580       0.00049218      -5.73129290
Ni      14.08817177      14.14713183       3.55681784       0.60000000      -0.11807169      -1.17565609       0.26046479      -0.00024533       0.00184488       0.00100706      -5.72941172
Ni      14.11352547      15.91726647       5.35172458       0.60000000      -0.77559764      -0.36429179       1.46673325       0.00146634      -0.00019009       0.00012670      -5.72595012
Ni      15.85067866      14.16152801       5.34122688       0.60000000       0.19895836      -0.68498424       0.07242398       0.00001121       0.00068748       0.00072025      -5.72784871
Ni      15.83495667      15.89792509       3.54967472       0.60000000      -1.06321033      -0.03552670       0.50981369      -0.00118044       0.00063697      -0.00034086      -5.72983271
Ni      14.14399148      14.19026632       7.14721363       0.60000000       0.54672859       1.62315287      -1.18673027       0.00125193      -0.00047585      -0.00114879      -5.72342157
Ni      14.19856461      15.97924593       8.95513519       0.60000000      -0.88941499      -1.01849396       0.66660318       0.00082007       0.00095552      -0.00219371      -5.71434885
Ni      15.93778054      14.23099674       8.95982279       0.60000000      -1.13011772       0.40853450      -1.41790437       0.00110503      -0.00079039      -0.00189952      -5.71258241
Ni      15.88861382      15.93979059       7.15416474       0.60000000      -1.11643262       0.70543242       2.72128384       0.00413103       0.00093526      -0.00239990      -5.72002417
Ni      14.23194882      14.26850541      10.73651774       0.60000000      -1.79778962       0.84954455       0.08529846       0.00041665       0.00119916      -0.00323047      -5.71496397
Ni      14.28833992      16.07108575      12.52523264       0.60000000      -1.21357931       0.42635626       0.11182583      -0.00162264       0.00241622       0.00149532      -5.71198946
Ni      16.03813484      14.32428541      12.53873598       0.60000000       0.25494271      -0.77024218      -0.32546353      -0.00207575      -0.00599424      -0.00592323      -5.70821780
Ni      16.02734084      16.05566620      10.78205041       0.60000000      -0.41492705       1.41394970       0.20439207      -0.00132284       0.00289275      -0.00357383      -5.70288807
Ni      14.27895774      14.33662472      14.28531252       0.60000000       0.89126028      -0.82057758      -0.44152225      -0.00404733      -0.00418209      -0.00387660      -5.71358114
Ni      14.30031107      16.13365984      16.08372512       0.60000000       0.23469201      -1.46665822      -1.86891686      -0.00172723      -0.00750071       0.00153859      -5.72889441
Ni      16.06094589      14.35598280      16.08018634       0.60000000       1.53471218      -1.52920745      -0.47030637       0.00307108      -0.00119170      -0.00417775      -5.72916633
Ni      16.08207905      16.13158348      14.32267792       0.60000000      -2.83839455       1.21313392       1.29183102       0.00242071       0.00396123       0.00146804      -5.72362375
Ni      14.28206375      14.36344674      17.82317418       0.60000000       2.04048533      -1.02946404      -0.82677786       0.00090183      -0.00014288       0.00075280      -5.70938611
Ni      13.12950101      14.82956188      22.05255066       0.60000000      -0.98926853      -0.90011404       0.66314566      -0.00451616       0.00890081       0.00036493      -5.60709590
Ni      15.70127040      14.32294110      22.56735602       0.60000000       0.15890808       0.29863430      -0.40503926      -0.00481829      -0.00046709       0.00631592      -5.67456627
Ni      14.93334614      14.81522928      20.25262187       0.60000000      -1.82294107       0.60499871      -0.80484779       0.00643974      -0.00572082       0.00219689      -5.63393646
Ni      13.92416679      14.31391100      24.37360309       0.60000000       0.31120146       0.79767494      -0.61978313      -0.00874630       0.00457294      -0.00565206      -5.62914723
Ni      14.04405448      15.92028933      26.20946211       0.60000000       1.51840731       0.17546767      -1.17678670       0.00096047      -0.00343435      -0.00042233      -5.64351940
Ni      15.77873209      14.21905645      26.17990856       0.60000000      -0.53683005      -0.60401828       0.44709199       0.00062281      -0.00186925      -0.00258990      -5.71665514
Ni      15.65659402      16.06380331      24.33552720       0.60000000      -0.95155598      -0.28357689       0.56541305       0.00279635      -0.00204405       0.00282902      -5.68303281
Ni      14.06130251      14.16212859      28.02898116       0.60000000       0.67412031      -0.66818039      -0.05543625       0.00122286      -0.00055292      -0.00020292      -5.73895115
Ni      14.06470591      15.88254596      29.83499150       0.60000000      -2.13852100      -0.31376525      -0.15037663      -0.00013298       0.00035822      -0.00045885      -5.73043448
Ni      15.81078346      14.14731205      29.82495209       0.60000000      -0.45547384      -1.01125966      -1.02160180      -0.00039307       0.00246846      -0.00071857      -5.72611374
Ni      15.80246795      15.90416387      28.01134565       0.60000000       0.96110075      -0.11369795      -1.32480243      -0.00075617       0.00287407       0.00187041      -5.73707736
Ni      14.06530070      14.13138021      31.62677956       0.60000000       0.06777321      -1.23105282      -1.37328620      -0.00070443       0.00069485      -0.00006139      -5.72955090
Ni      14.06473064      15.87914102      33.40865499       0.60000000       0.24108932      -0.22111598       0.16951436      -0.00121308       0.00019985       0.00112276      -5.73129368
Ni      15.81727726      14.12889489      33.40485096       0.60000000      -1.63665166       0.43992051       0.63000668      -0.00100085       0.00089194      -0.00067559      -5.73114836
Ni      15.81384231      15.88080119      31.62039207       0.60000000       0.45063354      -0.02959661       1.56210560       0.00118145       0.00182579       0.00026827      -5.72969037
Ni      14.06650339      17.63386976      -0.01431296       0.60000000      -1.18300028      -0.49623368       0.49879648      -0.00170747      -0.00054303       0.00117145      -5.73123473
Ni      14.07013623      19.39005778       1.75992220       0.60000000       1.13792450       1.06114369       0.85821971       0.00047472       0.00059084      -0.00060605      -5.73109049
Ni      15.82433011      17.63919696       1.76063427       0.60000000      -1.57471832       0.37074070      -0.24921203       0.00004453      -0.00064003      -0.00027261      -5.73120600
Ni      15.81806346      19.38731183      -0.02067366       0.60000000       0.00303052       1.64646888       0.89132783      -0.00100119      -0.00219473       0.00019195      -5.73136997
Ni      14.08720971      17.64813122       3.55184479       0.60000000      -1.27175752      -0.13908944       0.98609154       0.00054625      -0.00003698      -0.00046268      -5.72917736
Ni      14.10582110      19.40934688       5.33628376       0.60000000       1.03311662      -0.37461436       3.00636204       0.00129730       0.00135229       0.00118830      -5.72388792
Ni      15.85190449      17.66401094       5.34311527       0.60000000       1.06296954       0.56009357       1.72850795       0.00328043       0.00135493      -0.00103333      -5.72446346
Ni      15.83012609      19.39628737       3.53642963       0.60000000       0.07357359       0.92218860      -0.34830427       0.00118790       0.00074069       0.00057634      -5.72837633
Ni      14.15440839      17.69745756       7.15505474       0.60000000       0.09132844       0.44795930      -1.44903260      -0.00083026       0.00003637      -0.00189812      -5.71560633
Ni      14.23963338      19.52302137       8.96868940       0.60000000       1.82583092       1.60246401      -0.83002825       0.00539203       0.00670628       0.00427672      -5.71568084
Ni      15.94392745      17.73241108       8.97550407       0.60000000       0.88325796      -2.22376839      -0.01063578       0.00073285      -0.00019241      -0.00247385      -5.71642840
Ni      15.88287128      19.44659705       7.14711749       0.60000000      -0.41874257      -2.51897529      -1.37058045       0.00048380       0.00081092      -0.00264801      -5.74058038
Ni      14.27418415      17.79737003      10.75317227       0.60000000      -1.97602290       1.35342743       1.57355534       0.00367367       0.00300265       0.00168766      -5.70379120
Ni      14.30733381      19.61790717      12.53304591       0.60000000      -1.93043902      -0.65460030      -0.97204910      -0.00515428      -0.00098218       0.00434842      -5.69584626
Ni      16.08757076      17.88638859      12.55695136       0.60000000       2.23653261       1.70754192      -0.48758428       0.00198742       0.00454859       0.00312155      -5.72072423
Ni      16.05745530      19.63101591      10.78185210       0.60000000      -0.79702551      -0.20174064       2.95045523      -0.00074054      -0.00310967       0.00482347      -5.69937378
Ni      14.31096175      17.87556658      14.30906033       0.60000000      -0.03072431       1.70217207      -1.19191185       0.00430366      -0.00236824       0.00576966      -5.70510960
Ni      13.10250565      18.54273214      18.47782583       0.60000000      -0.52092166      -0.45893049       0.57415735       0.00013520       0.00016977       0.00008269      -5.56056696
Ni      14.88710512      16.71227966      18.50643100       0.60000000       1.28259131      -1.62871896       2.49797205      -0.00174254      -0.00806228      -0.00546992      -5.71843410
Ni      14.87388072      18.49502014      16.71907860       0.60000000      -1.12861755       1.45411580       0.39148373       0.00132930      -0.00487375      -0.00377603      -5.61232424
Ni      13.11671307      16.71323909      20.27580767       0.60000000       0.86280693       0.61418819      -1.43271322      -0.00785518       0.00325583      -0.00295132      -5.69025034
Ni      12.50866898      19.16229659      24.37999210       0.60000000       0.13795986      -0.49116096      -0.43424028       0.00440485      -0.00228426       0.00266397      -5.68401366
Ni      17.42938248      16.04822120      22.51715943       0.60000000       0.22952768      -0.55152013       2.28598607       0.00129320       0.00063122      -0.00927772      -5.70848829
Ni      14.92337676      18.51851540      20.26597001       0.60000000      -2.39974865      -0.30938240       0.78353892      -0.00034145       0.00326636       0.00219965      -5.58411932
Ni      14.91862325      16.68993094      22.04393962       0.60000000       0.53984382      -0.15709942       0.05310701       0.01074500      -0.00173476      -0.00226162      -5.65642238
Ni      14.09925519      19.32437968      26.22559352       0.60000000      -2.25162634       1.83104152      -2.07249483       0.00017109       0.00147964       0.00041061      -5.64326888
Ni      15.78415678      17.66126693      26.19639332       0.60000000       0.16594453       0.08576759      -0.92286425       0.00297503      -0.00070992      -0.00061739      -5.64473426
Ni      14.96844786      18.52540518      23.88920129       0.60000000      -1.81577276       2.08338674      -0.56440880      -0.00012012      -0.00422090       0.00170269      -5.59865993
Ni      14.06706958      17.62096188      28.03526689       0.60000000       0.16249440      -1.31799374      -0.81639796       0.00098582      -0.00053166      -0.00121115      -5.74477524
Ni      14.06555494      19.36610647      29.83870904       0.60000000       0.98025914       0.41269006       0.43792469       0.00036399       0.00184724      -0.00127145      -5.73102307
Ni      15.81086048      17.62674257      29.83045868       0.60000000       0.09065434      -1.77640438      -0.64972922       0.00218105       0.00174690      -0.00059602      -5.73001653
Ni      15.81383708      19.36321351      28.03724869       0.60000000      -1.24905713      -1.68035505       1.47394733      -0.00017936      -0.00043231       0.00160049      -5.74616450
Ni      14.06304639      17.62634122      31.62596203       0.60000000       0.43550553      -0.07004580      -0.77040007       0.00106510       0.00101264       0.00052301      -5.72933203
Ni      14.06190344      19.38163880      33.40553657       0.60000000       1.91709394       2.76601700       0.48189395      -0.00027700      -0.00017198       0.00082807      -5.73127359
Ni      15.81612009      17.63032652      33.40387108       0.60000000       1.00304273       0.80094198      -0.63493707      -0.00113869       0.00017561       0.00115442      -5.73142385
Ni      15.81299114      19.37555318      31.62429373       0.60000000       1.30155803       1.27309926      -0.04239403       0.00045911       0.00187167       0.00119188      -5.72948885
Ni      14.06209905      21.14034690      -0.02093254       0.60000000      -0.44595643      -0.80596763       0.61666557      -0.00222465      -0.00030801       0.00085653      -5.73117077
Ni      14.06224838      22.89874882       1.74979306       0.60000000       1.66888554      -0.12399063       1.09574615       0.00118856      -0.00079727      -0.00113860      -5.73054129
Ni      15.81990465      21.14445468       1.75098344       0.60000000      -1.39713130      -2.37061855      -0.15476782      -0.00113465      -0.00057739      -0.00114756      -5.73036331
Ni      15.81446310      22.89721498      -0.02472413       0.60000000      -0.88826917       0.46141911       1.50900602      -0.00095051       0.00058185      -0.00052174      -5.73098797
Ni      14.07519788      21.14523129       3.53154983       0.60000000       1.16981043      -0.52100297       0.32426369       0.00186020       0.00170210       0.00085130      -5.72836715
Ni      14.07970511      22.89866682       5.30062826       0.60000000       1.47201617       2.85457394       0.58853200       0.00226648      -0.00022730       0.00451768      -5.74233747
Ni      15.83768927      21.15410983       5.31258149       0.60000000       0.38261546      -0.21583181      -0.28988969      -0.00008134      -0.00048082       0.00256158      -5.74788636
Ni      15.82120271      22.90036286       3.52048554       0.60000000      -0.57086882       0.16219894       0.49366857       0.00268864      -0.00072724       0.00199520      -5.73084581
Ni      14.13810129      21.17605958       7.12668537       0.60000000       1.20510248       1.15557124      -2.23441946       0.00097466      -0.00141042       0.00103142      -5.74244595
Ni      14.13106762      22.92855650       8.89920697       0.60000000       1.39090407      -0.72600391       0.01581620       0.00457584       0.00280994      -0.00066297      -5.60151213
Ni      16.02531368      21.33779875       8.98821360       0.60000000      -0.58464414      -0.30755031      -0.86992054      -0.00895414      -0.00427142      -0.00099069      -5.43190920
Ni      15.84753519      22.90416870       7.08553204       0.60000000       0.17816737      -0.62787531       1.06059045      -0.00213232       0.00038779       0.00505530      -5.62580878
Ni      14.29605957      21.36369729      10.76140807       0.60000000      -0.82994399      -0.45095529       0.89455260       0.00012727       0.00514546       0.00687129      -5.65760469
Ni      14.24869435      22.62086311      15.71517047       0.60000000      -1.24548479       1.37838807       0.10037356      -0.00172223       0.00234073       0.00138964      -5.67701858
Ni      14.75446756      20.29436672      14.97079108       0.60000000       1.22834543       0.76288392       0.55492408      -0.01247978      -0.00141828       0.00453354      -5.62873352
Ni      14.74749472      22.09906931      13.15387870       0.60000000      -0.13817649      -0.08225244      -0.37136045       0.00472182       0.00013313      -0.00511223      -5.60405964
Ni      12.42835005      21.01178547      15.91258486       0.60000000       1.88775562      -0.37027268      -0.09283229      -0.00301300      -0.00355968      -0.00456624      -5.50106245
Ni      14.18651696      22.58449127      19.25522439       0.60000000       0.07184468      -1.58314696      -0.21609002       0.00137016      -0.00747322      -0.00167123      -5.61898893
Ni      15.84115436      20.69812392      19.31911583       0.60000000      -0.91207409      -0.90209454      -0.09554166      -0.00356982      -0.00034249       0.00300270      -5.58092630
Ni      14.11368557      20.72224831      17.59130270       0.60000000      -0.84617307       1.90343037      -1.34939741      -0.00302041      -0.00996224       0.00027372      -5.53476501
Ni      13.16298634      18.53885264      22.02592838       0.60000000      -1.00293611       0.38016006      -2.44403372      -0.00546186      -0.00084511       0.00719434      -5.65523666
Ni      14.19218406      22.69652692      22.70980235       0.60000000       0.23431291       1.66292522      -0.28164505      -0.00201213      -0.00386908       0.00209932      -5.65035248
Ni      15.04880967      20.38898275      21.95941078       0.60000000      -1.12947255       0.30903322      -0.40009489       0.00554943       0.00307538      -0.00332114      -5.55253226
Ni      15.90303888      22.57840432      20.97856531       0.60000000      -1.56739132      -0.16035609      -2.17985183      -0.00035358      -0.00312114      -0.00105372      -5.61620659
Ni      14.28072211      20.90080122      24.36260832       0.60000000       0.45697877       0.52518621       0.53658125       0.00891903      -0.00606184      -0.00659733      -5.63408989
Ni      14.10883447      22.79390700      26.25229224       0.60000000       0.20472991      -0.58186349      -0.41786296      -0.00117330       0.00248261      -0.00088914      -5.73266542
Ni      15.84633398      21.06706771      26.23676113       0.60000000       0.59872077       1.15218261       0.89017984      -0.00055780      -0.00130200      -0.00194187      -5.60352552
Ni      15.89765005      22.73075706      24.49111040       0.60000000      -0.99349256      -0.25931478      -0.50699260      -0.00371197      -0.00079673       0.00158587      -5.60246897
Ni      14.07978718      21.09058091      28.04414206       0.60000000      -0.08584843      -0.66102773       1.26283000       0.00054048      -0.00031419      -0.00256504      -5.74105799
Ni      14.06375918      22.86497555      29.84555036       0.60000000      -3.44209792       0.46968648       1.06775973       0.00130263      -0.00033987      -0.00212663      -5.72773951
Ni      15.81252726      21.11564759      29.84558054       0.60000000       0.92939389      -0.23138688      -1.92055310       0.00149866       0.00165054      -0.00175046      -5.73151714
Ni      15.81673712      22.84772482      28.06674494       0.60000000      -0.16193754       0.28390922       0.61121740      -0.00060479      -0.00206780      -0.00188978      -5.74313927
Ni      14.06048574      21.12617560      31.62589783       0.60000000       0.13971041      -0.55464476      -2.54858574       0.00094225       0.00104531       0.00116089      -5.72979754
Ni      14.05812788      22.89051509      33.40246223       0.60000000       0.83850540      -0.07019107      -0.45561256      -0.00055062      -0.00096786       0.00217827      -5.73098075
Ni      15.81383881      21.13596226      33.40224788       0.60000000       0.89745944       0.12941860       0.31533662      -0.00024067      -0.00039519       0.00155171      -5.73112404
Ni      15.81114545      22.88287578      31.62842556       0.60000000       0.53072732      -1.93261000      -2.08425958       0.00035563       0.00024908       0.00046924      -5.72969157
Ni      14.05738216      24.65366613      -0.02466896       0.60000000      -0.24726658       0.37917442       0.32445366      -0.00184632       0.00096734      -0.00043924      -5.73085594
Ni      14.05725378      26.41556911       1.74594097       0.60000000      -0.42501130      -0.93469402       0.59783272      -0.00020395       0.00048788      -0.00116205      -5.73073071
Ni      15.81483306      24.65740155       1.74572932       0.60000000       1.07090460       1.42416193      -0.97559905      -0.00055286      -0.00119792      -0.00016396      -5.73008317
Ni      15.81178896      26.41424417      -0.02438278       0.60000000      -3.24442978       1.09143076      -0.31454855      -0.00031027       0.00188354      -0.00030174      -5.73078370
Ni      14.06307983      24.65603695       3.51833850       0.60000000      -1.42494884       0.15904032       1.09671701       0.00078962      -0.00253119      -0.00125615      -5.72811455
Ni      14.06492903      26.40813657       5.28867443       0.60000000      -2.01900048      -0.53803938      -1.46343669       0.00222119      -0.00361446       0.00117664      -5.72861207
Ni      15.82077864      24.64998819       5.29195036       0.60000000       0.83060484      -1.02494128      -0.13212644      -0.00041972      -0.00094539       0.00379145      -5.75179374
Ni      15.81497318      26.41394845       3.51648230       0.60000000      -0.00745609      -1.73525590      -1.74662348       0.00122520      -0.00099811       0.00025843      -5.72814268
Ni      14.08455071      24.63905224       7.07445405       0.60000000      -1.03316102      -2.51933744       0.28834433       0.00226235      -0.00035048      -0.00203965      -5.75468791
Ni      14.07642738      26.36902098       8.82812137       0.60000000      -1.12859568      -0.55066322       2.62259408       0.00039385      -0.00362860       0.00095702      -5.65404332
Ni      15.81921483      26.38010824       7.07337515       0.60000000       1.15282766       0.64010630      -1.72140065       0.00119516      -0.00075516      -0.00158369      -5.75887960
Ni      14.79060287      23.93097556      11.26289667       0.60000000      -0.28762411      -0.88542201      -0.46526390      -0.01157204       0.00826820      -0.00455097      -5.45393831
Ni      14.12318928      26.27805059      12.30688921       0.60000000      -0.21564993      -0.87942042      -1.13768958      -0.00121482       0.00133088       0.00252543      -5.60185307
Ni      16.60420222      23.95909958      13.13926489       0.60000000       0.26212146       0.70769347       0.05302446       0.00165722      -0.00162677      -0.00642238      -5.60631520
Ni      15.77777769      26.29580442      10.59265111       0.60000000       0.71228422       0.47001816      -1.90952548       0.00161415      -0.00410615       0.00062785      -5.62292492
Ni      14.24404972      24.42729494      13.94180480       0.60000000      -0.27292988      -0.12377763       0.02682923       0.00255622      -0.00406593      -0.00809797      -5.63054085
Ni      14.15416009      26.23312757      15.79419086       0.60000000      -0.33465714      -0.49672857       1.29368338      -0.00213057      -0.00075319       0.00021556      -5.71718520
Ni      15.99023552      24.38770795      15.68246894       0.60000000       1.24866681       0.78527812      -0.00525485       0.00077074       0.00425615      -0.00379492      -5.68235910
Ni      15.85889409      26.25722837      14.06160872       0.60000000      -2.14009045      -0.42123440      -0.62402965      -0.00199233       0.00050315      -0.00424588      -5.64230824
Ni      14.20032559      24.40217346      17.50310550       0.60000000      -0.19037846       2.50650499      -0.71009106       0.00026714      -0.00261683       0.00006704      -5.71905148
Ni      14.14874946      26.24991095      19.27071156       0.60000000      -0.48528508       1.01856774      -0.05862118      -0.00045496       0.00026860       0.00288226      -5.71786612
Ni      15.92690471      24.38948739      19.22889229       0.60000000      -0.43415093       1.53873640      -0.89125595      -0.00277733      -0.00122944      -0.00010363      -5.72147053
Ni      15.88742015      26.21072360      17.52671835       0.60000000       0.77095596      -0.25222683       1.40949225      -0.00289215       0.00157837       0.00170994      -5.71803021
Ni      14.17470467      24.45643633      20.98384980       0.60000000      -1.02908078      -1.83325274       1.21332522      -0.00167951      -0.00248136       0.00074717      -5.73389107
Ni      14.12276798      26.29641532      22.77098440       0.60000000       1.17062315      -0.00891085      -0.28421330      -0.00124869       0.00053706       0.00004065      -5.72444850
Ni      15.88112486      24.48750140      22.74266515       0.60000000      -0.35211458      -0.97202195      -1.62349037       0.00158325       0.00228558      -0.00160442      -5.73606795
Ni      15.87461269      26.25851184      21.01346148       0.60000000       0.27513080      -0.56722508      -0.14776149      -0.00024185      -0.00228090       0.00089077      -5.71728402
Ni      14.12827672      24.53046151      24.50646381       0.60000000      -0.03474794      -0.23349729       0.49249612       0.00122607      -0.00238929       0.00126703      -5.73465335
Ni      14.08089104      26.34898874      26.30835637       0.60000000       1.30068549       0.38455649      -0.48888141       0.00185390       0.00036251       0.00007345      -5.72533870
Ni      15.82700967      24.57933773      26.29868638       0.60000000       0.46704593      -1.15460201      -1.67518211      -0.00038134       0.00016077      -0.00239879      -5.74023640
Ni      15.83486562      26.32963518      24.54375611       0.60000000       0.10333750      -1.64181433      -0.40264278      -0.00092356       0.00031924       0.00112717      -5.72786069
Ni      14.07187413      24.60141500      28.06915060       0.60000000       0.45916061       1.15830875      -0.57753995       0.00155317      -0.00261220      -0.00290468      -5.72526574
Ni      14.05906743      26.38671209      29.85823017       0.60000000       0.83129333      -1.80574254       0.39103738       0.00214911      -0.00003173      -0.00147822      -5.72939456
Ni      15.81016588      24.62818691      29.85710970       0.60000000      -1.03531787      -0.93906980      -0.16460887       0.00284050      -0.00097871      -0.00291835      -5.72828186
Ni      15.81265636      26.37593038      28.09041241       0.60000000       0.15417601      -1.06694158       1.43084747       0.00375127      -0.00245517      -0.00206831      -5.72762913
Ni      14.05700103      24.63832203      31.62839206       0.60000000       1.36645933      -0.37040174       0.68462735       0.00170789       0.00017242       0.00079860      -5.73035008
Ni      14.05507158      26.40827134      33.40415029       0.60000000      -0.47483960       0.38711065      -0.99493222      -0.00068577      -0.00029057       0.00064355      -5.73053879
Ni      15.81118277      24.64981995      33.40292775       0.60000000      -0.61228956       0.00780307       0.22921969      -0.00006779       0.00019638       0.00255731      -5.73075551
Ni      15.80950737      26.40221752      31.63436995       0.60000000       1.15227734       0.68274979       1.14025467       0.00034676       0.00045140       0.00086163      -5.73041004
Ni      14.05469254      28.17496915      -0.02327063       0.60000000      -2.41098694       0.44785984      -1.82711282      -0.00043646       0.00048259      -0.00035780      -5.73053044
Ni      14.05548552      29.93939002       1.74751929       0.60000000      -2.03652234      -1.40919706      -0.33299387       0.00019297      -0.00019179       0.00000760      -5.73050392
Ni      15.81266036      28.17615992       1.74704858       0.60000000      -1.09158769      -1.20950579       1.05182221      -0.00044701       0.00141651      -0.00057324      -5.73067778
Ni      15.81077623      29.93855895      -0.02038713       0.60000000      -1.70239713       0.87529671      -0.35460019       0.00088688      -0.00012593      -0.00072450      -5.73046273
Ni      14.05855757      28.17493972       3.51617367       0.60000000      -2.03349752      -0.64626045      -0.77913516       0.00027589      -0.00114260      -0.00038399      -5.72966123
Ni      14.05947866      29.93393006       5.28281848       0.60000000       0.55564380       1.27426109       1.06504271       0.00021110      -0.00108469       0.00155570      -5.72945839
Ni      15.81596338      28.16457809       5.28993561       0.60000000      -0.05476788      -1.10963483      -0.70937669      -0.00080334      -0.00262780      -0.00007497      -5.72637653
Ni      15.81384152      29.93527968       3.51788078       0.60000000       1.13689974      -0.04462157      -0.50107773      -0.00086949       0.00094641      -0.00177453      -5.73013455
Ni      14.06545475      28.15988478       7.05263481       0.60000000       1.13789144       0.35796258      -1.08287816       0.00027117      -0.00383520       0.00312198      -5.73335385
Ni      14.06317963      29.91835131       8.81217203       0.60000000      -1.87423353       1.54917609      -0.34557900       0.00139973      -0.00108928       0.00044066      -5.72974366
Ni      15.81279724      28.13289706       8.82615956       0.60000000       1.65271527      -1.97108797      -1.12021547       0.00173503      -0.00226439       0.00210324      -5.74408984
Ni      15.81517434      29.92256122       7.05221517       0.60000000       2.58436455      -0.14216873       0.02513690      -0.00127687      -0.00247950      -0.00084384      -5.72729486
Ni      14.07372029      28.12289887      10.57748031       0.60000000      -0.05494017       1.62939491      -0.39679333       0.00065383       0.00032035      -0.00035735      -5.73419833
Ni      14.07091523      29.89689156      12.32701851       0.60000000      -0.00165217       2.60215994      -0.54687381       0.00075529      -0.00164973      -0.00063230      -5.73099160
Ni      15.81190458      28.09659255      12.32748054       0.60000000      -1.39771526      -0.84099058      -0.29057634      -0.00042133       0.00129400      -0.00208102      -5.74518847
Ni      15.81200191      29.90539730      10.57222675       0.60000000       0.45407323      -0.89301337       0.39351228      -0.00063176      -0.00323291      -0.00162083      -5.73144919
Ni      14.10046465      28.07798233      14.07440341       0.60000000      -1.00707545       0.61785481       1.58133392      -0.00148359      -0.00137540       0.00074961      -5.73794293
Ni      14.08428038      29.87375709      15.82472854       0.60000000       1.34922239      -1.42581876      -0.03183104       0.00238206      -0.00145214      -0.00114528      -5.72626954
Ni      15.84124083      28.06149553      15.81937729       0.60000000      -0.02255097       0.63780466       1.18803064      -0.00122305       0.00142440      -0.00150486      -5.73620456
Ni      15.81775110      29.88372766      14.07684665       0.60000000       0.46872942       1.06455812       1.08127062       0.00151641       0.00003463       0.00029034      -5.73049140
Ni      14.11471699      28.05968608      17.55561649       0.60000000       0.53040296       0.39800311      -0.06457134      -0.00103332       0.00236995      -0.00050695      -5.71963549
Ni      14.08905345      29.86894075      19.31423957       0.60000000       1.74548067      -0.61482534      -0.61565213      -0.00019260       0.00065893       0.00061330      -5.72760046
Ni      15.85056103      28.05731041      19.29606668       0.60000000       0.24679114       0.27047684       1.61492783       0.00191652       0.00338088      -0.00223418      -5.72017515
Ni      15.82903757      29.86888799      17.56981809       0.60000000      -1.14317579      -2.46921844       0.96639512       0.00053781      -0.00248671      -0.00003146      -5.72637928
Ni      14.10811714      28.07686320      21.04331538       0.60000000      -0.80082633       1.63142827      -0.46080159       0.00069164      -0.00008134       0.00039552      -5.72334772
Ni      14.08013814      29.88344554      22.81776694       0.60000000       0.12199129       1.41210975      -0.25418249      -0.00168371       0.00155491       0.00174437      -5.72888207
Ni      15.83445511      28.09507414      22.80057578       0.60000000       0.71182007      -1.38467618       3.21512458       0.00059545       0.00135141       0.00080122      -5.72554767
Ni      15.82812776      29.87580269      21.06447198       0.60000000      -0.99220365      -0.59071324       1.45392065      -0.00123192       0.00066420       0.00090598      -5.72841579
Ni      14.08381729      28.11110755      24.56019847       0.60000000       1.46050948      -0.06964063      -0.42021777       0.00135892       0.00044380      -0.00102587      -5.72697479
Ni      14.06586217      29.90378279      26.34097883       0.60000000      -0.80284018       1.35054172       0.60159613      -0.00025598       0.00016785      -0.00035191      -5.72970480
Ni      15.81728455      28.13094142      26.33176220       0.60000000       0.38925837      -1.63633559       0.83003819       0.00028297       0.00051216      -0.00017668      -5.72838616
Ni      15.81887726      29.89624180      24.58035237       0.60000000       1.61748810      -1.01214959       1.09425244       0.00053187      -0.00066485       0.00178339      -5.72973526
Ni      14.06298231      28.14141578      28.09589141       0.60000000      -0.39108297       1.80341180       0.14337369       0.00137632      -0.00063147      -0.00067794      -5.72930384
Ni      14.05678841      29.92199934      29.87369011       0.60000000       0.72892613      -0.14179942       0.89972350      -0.00077821      -0.00034139      -0.00118888      -5.73011440
Ni      15.81012382      28.15658183      29.86944482       0.60000000      -1.75356436      -0.06067813      -0.42795495      -0.00008756       0.00029924      -0.00023681      -5.73005968
Ni      15.81217953      29.91563516      28.10923534       0.60000000      -1.42227761       0.18195838       1.41651984      -0.00019585       0.00001181       0.00020806      -5.73001164
Ni      14.05513236      28.16320037      31.63638126       0.60000000      -0.90151885      -0.37350493       0.04108567      -0.00044911       0.00055140       0.00062799      -5.73026109
Ni      14.05387993      29.93485269      33.40982172       0.60000000       0.23779804      -0.28567850       0.17385459       0.00014513       0.00003393       0.00091999      -5.73032558
Ni      15.81005438      28.17192182      33.40802551       0.60000000      -0.27973166       0.37172103      -0.93681052       0.00001156       0.00052317      -0.00020805      -5.73049259
Ni      15.81011282      29.93080549      31.64307785       0.60000000      -1.46070215      -1.91046241      -0.93534824      -0.00080059       0.00025923      -0.00002805      -5.73034227
Ni      14.05412756      31.70337291      -0.01901034       0.60000000       0.99587717      -0.76914596       0.12921824       0.00083456       0.00052179      -0.00029928      -5.73029482
Ni      14.05548829      33.47120626       1.75003233       0.60000000      -1.89029735       1.05409540       1.73337442       0.00046203      -0.00089875       0.00027550      -5.73022360
Ni      15.81185445      31.70301326       1.74950955       0.60000000       0.14017863       1.03990920       1.16612314       0.00119011       0.00033832      -0.00027148      -5.73027009
Ni      15.81142555      33.46945314      -0.01702095       0.60000000      -2.31989487       0.50407052       1.50270310       0.00034722      -0.00046216       0.00025314      -5.73025668
Ni      14.05668799      31.70341193       3.51568583       0.60000000       0.39946602       1.74070586      -0.29903373       0.00019419      -0.00001422       0.00039537      -5.73035347
Ni      14.05810168      33.46992632       5.28173920       0.60000000       0.23003058       0.30797470      -0.65284565      -0.00011309      -0.00001975       0.00017583      -5.73032522
Ni      15.81405612      31.69771244       5.28303787       0.60000000       0.90553463       0.24361144      -3.20409482      -0.00024321       0.00032969      -0.00106275      -5.73021859
Ni      15.81294066      33.46889415       3.51667704       0.60000000       0.35845166      -0.40332508      -1.43336844       0.00045696      -0.00000534       0.00037258      -5.73020518
Ni      14.05962250      31.69679427       7.04560924       0.60000000       0.66034623      -0.48349597      -1.37508250      -0.00070388       0.00057608       0.00071241      -5.73001605
Ni      14.06030934      33.46585010       8.80607439       0.60000000       0.95387255      -0.26095058       0.32370358      -0.00067524       0.00041356      -0.00051633      -5.73067594
Ni      15.81328189      31.68942071       8.80757667       0.60000000      -0.10518910       0.16737375       2.66887403       0.00071546      -0.00031717       0.00081520      -5.72996420
Ni      15.81406362      33.46572185       7.04467548       0.60000000      -0.12136302      -0.33089883       2.30939189      -0.00098894       0.00036534      -0.00028347      -5.73057806
Ni      14.06192148      31.68648788      10.56670247       0.60000000      -0.73764965       0.62208640      -1.50310044       0.00088921       0.00106266       0.00019571      -5.72986776
Ni      14.06256159      33.45868701      12.32141692       0.60000000      -0.00456309      -1.39102900      -0.17381894       0.00005956       0.00115935      -0.00029488      -5.73118114
Ni      15.81340961      31.67881152      12.32224486       0.60000000       0.83351471      -2.37781259       0.12647048       0.00066365       0.00040526       0.00014344      -5.72978628
Ni      15.81400052      33.46025557      10.56363980       0.60000000      -0.02907410       1.06638265       0.67911883      -0.00063019       0.00105712       0.00076599      -5.73111176
Ni      14.06771623      31.67359997      14.07703964       0.60000000       2.55572857      -1.22111761      -0.25645326      -0.00059673      -0.00043891      -0.00104151      -5.72971481
Ni      14.06510944      33.45109667      15.82883931       0.60000000      -0.47561749      -0.28579744       0.00690303       0.00097955      -0.00140216      -0.00094270      -5.73124057
Ni      15.81755085      31.66770327      15.82694090       0.60000000      -0.22454144      -1.38187945      -0.00396385       0.00017105       0.00075578       0.00073529      -5.72981906
Ni      15.81526864      33.45314042      14.07491944       0.60000000      -0.59393252       2.55897182      -0.10963560      -0.00035294       0.00109312       0.00017581      -5.73137891
Ni      14.07290766      31.66326946      17.57652474       0.60000000       0.44097598      -1.37466060       0.21705548       0.00163047      -0.00021223      -0.00104553      -5.73006397
Ni      14.06588468      33.44635243      19.33263590       0.60000000      -0.22091908      -2.18298757       1.90120020       0.00064619      -0.00058927      -0.00037091      -5.73093200
Ni      15.82011648      31.66365583      19.32676118       0.60000000       1.00226573       1.47094015       1.04624081       0.00098440       0.00174490      -0.00131559      -5.73045951
Ni      15.81670386      33.44795234      17.58088485       0.60000000      -0.84783614      -0.26809513      -0.51865061       0.00054140      -0.00106043      -0.00158934      -5.73144585
Ni      14.07191235      31.66421259      21.07748352       0.60000000       0.87506295      -1.94465818       0.67777027       0.00177051      -0.00139468      -0.00105922      -5.72995478
Ni      14.06339879      33.44778671      22.84162436       0.60000000       1.65399929      -1.39153637      -0.73151243       0.00128309      -0.00136760      -0.00116688      -5.73058343
Ni      15.81790182      31.66974152      22.83405154       0.60000000      -1.14154088       1.06820043      -0.63769713       0.00024964       0.00008628      -0.00041007      -5.73026633
Ni      15.81659441      33.44714212      21.08718639       0.60000000       0.15403092      -2.89207509       1.52048082       0.00029012      -0.00064874      -0.00048715      -5.73098963
Ni      14.06548664      31.67337979      24.59053418       0.60000000      -1.38899393      -0.46645439      -0.63373500      -0.00028576      -0.00043150       0.00013685      -5.73003823
Ni      14.05925077      33.45345175      26.35918384       0.60000000       0.83847368       2.08222120      -0.68120716       0.00057157      -0.00062638      -0.00059182      -5.73048717
Ni      15.81380224      31.68095278      26.35359386       0.60000000       0.06203525       0.90462960       1.26900573      -0.00067078      -0.00010200      -0.00017685      -5.73019338
Ni      15.81459930      33.45139671      24.60057367       0.60000000       0.53669908       0.98502073      -0.01529009       0.00067397      -0.00141262      -0.00124483      -5.73056638
Ni      14.05836953      31.68540232      28.11488880       0.60000000       0.90592322      -0.74026482      -0.73669315       0.00014018      -0.00049064       0.00037550      -5.73019940
Ni      14.05599420      33.46121620      29.88444253       0.60000000      -0.98880957       0.75356694       1.09872389      -0.00061626       0.00010904       0.00022697      -5.73035580
Ni      15.81119121      31.69267374      29.88103653       0.60000000       1.63689088      -0.51456822       1.07039205      -0.00085165      -0.00012162       0.00016760      -5.73029399
Ni      15.81257383      33.45833125      28.12165815       0.60000000       0.03815774       2.70801156      -1.00733990      -0.00060570      -0.00010046      -0.00018825      -5.73045242
Ni      14.05465680      31.69670864      31.64603217       0.60000000       0.08332929       0.14155206       0.56228385      -0.00042078      -0.00032498       0.00023706      -5.73027259
Ni      14.05453667      33.46790173      33.41599112       0.60000000      -0.88707953       0.23977014       1.80320738      -0.00010483       0.00055318      -0.00045811      -5.73024374
Ni      15.81051574      31.70125136      33.41387775       0.60000000      -0.50312578      -1.67652107       0.27486404       0.00001176       0.00000464       0.00001514      -5.73036438
Ni      15.81124806      33.46546249      31.64981278       0.60000000       0.96190634      -0.02363828      -1.00261532      -0.00001526       0.00017310      -0.00008617      -5.73034215
Ni      17.56879285       0.03551287      -0.01646516       0.60000000      -0.28822389      -0.86605901       1.57218929       0.00018886       0.00011782      -0.00054781      -5.73019695
Ni      17.56947933       1.80313850       1.75090842       0.60000000      -0.17955229      -1.44287724      -1.72706961       0.00016868      -0.00025558      -0.00050018      -5.73024786
Ni      19.32556185       0.03344037       1.75017510       0.60000000      -2.13235544       0.69687218      -0.24097431       0.00058892       0.00007069      -0.00036808      -5.73016858
Ni      19.32580349       1.80140263      -0.01801204       0.60000000      -1.07892081      -0.33949658      -1.69693156       0.00023292      -0.00007600      -0.00036084      -5.73019695
Ni      17.56918954       0.03536504       3.51686599       0.60000000       1.04997817       2.60591821      -1.27415173       0.00072008      -0.00029455       0.00052825      -5.73024201
Ni      17.57053970       1.80548352       5.28443144       0.60000000       1.39503765      -0.21395264      -0.23679129      -0.00012467       0.00065542       0.00019441      -5.73029363
Ni      19.32496806       0.03195592       5.28090061       0.60000000       1.00715110       1.14644184       1.32409322       0.00029749      -0.00035002       0.00079354      -5.73033506
Ni      19.32574474       1.80111859       3.51642155       0.60000000      -1.67408900       0.79328284      -0.04545147      -0.00011482      -0.00042623      -0.00020199      -5.73031372
Ni      17.56950341       0.03497726       7.04487103       0.60000000       0.99013065       0.00409930      -1.37597519       0.00036009      -0.00002519       0.00020897      -5.73046023
Ni      17.57230161       1.80852627       8.81062031       0.60000000       0.72391104       0.12684774       0.62715344      -0.00046587       0.00079954       0.00125931      -5.73033863
Ni      19.32381914       0.02971152       8.80364250       0.60000000      -0.04853448       0.08842054       0.07992187       0.00032175       0.00076636       0.00035915      -5.73073655
Ni      19.32569073       1.80286210       7.04616977       0.60000000      -1.57326234       1.00543766      -1.37445959      -0.00016684       0.00085095      -0.00021189      -5.73036718
Ni      17.56955577       0.03204803      10.56360229       0.60000000      -1.07948672       1.19076591       1.30450222      -0.00016109       0.00191618       0.00017825      -5.73089057
Ni      17.57391489       1.80622303      12.32527452       0.60000000       0.72606979      -0.16341149       0.89454162       0.00074140      -0.00029794       0.00184474      -5.73076135
Ni      19.32339920       0.02538324      12.31807933       0.60000000      -0.37067710      -0.03022694      -2.42945038       0.00053549       0.00160814      -0.00087611      -5.73121989
Ni      19.32622316       1.80223881      10.56602882       0.60000000       1.35926944       1.40866286       0.83554199      -0.00019094       0.00108604       0.00036803      -5.73066711
Ni      17.57005334       0.02687992      14.07486395       0.60000000       0.22646284      -0.09223092       0.22946386       0.00017729       0.00125640       0.00003963      -5.73138171
Ni      17.57467208       1.80007162      15.83215501       0.60000000      -1.79224193       1.41058621       0.52254370       0.00056064      -0.00077469       0.00175778      -5.73090279
Ni      19.32422791       0.02128695      15.82815146       0.60000000      -0.03214288       0.62770509       0.81935049       0.00026902       0.00127454       0.00002681      -5.73139781
Ni      19.32734752       1.79684286      14.07677106       0.60000000      -0.35973372      -0.14860900      -0.59702826       0.00084182      -0.00000282       0.00043867      -5.73036557
Ni      17.57094654       0.02307787      17.58300536       0.60000000      -0.85801951      -0.14631590      -1.22481836      -0.00111195       0.00089324       0.00108160      -5.73149407
Ni      17.57414460       1.79685579      19.33865024       0.60000000      -0.10457939       0.13281799       1.86748344       0.00059703       0.00029906       0.00054786      -5.73120916
Ni      19.32533360       0.02148790      19.33761078       0.60000000       1.40187795       2.25546835      -0.63962549      -0.00081696      -0.00096432       0.00130366      -5.73130876
Ni      19.32826772       1.79352993      17.58451546       0.60000000       0.18816160      -0.13158933       3.83315822       0.00033783       0.00004977       0.00028932      -5.73044932
Ni      17.57099598       0.02326272      21.09206409       0.60000000      -1.05443709       1.69963439       0.56172841      -0.00137157      -0.00016780       0.00127700      -5.73118681
Ni      17.57290367       1.79842363      22.84761071       0.60000000      -0.31452198       2.98970937       0.56643733      -0.00014956       0.00021748       0.00030753      -5.73099029
Ni      19.32564869       0.02512232      22.84857169       0.60000000      -0.93026622       0.64858140       2.52367424      -0.00051815       0.00008944       0.00099866      -5.73100632
Ni      19.32821458       1.79626549      21.09270973       0.60000000       0.77959883      -0.53577303      -0.96894343      -0.00001871       0.00043286      -0.00067647      -5.73120111
Ni      17.57013616       0.02646861      24.60485773       0.60000000      -0.60873101      -1.38715004      -1.76584682      -0.00051957       0.00003058       0.00084067      -5.73081326
Ni      17.57103144       1.80119272      26.36233167       0.60000000      -1.51202637       0.16685551       0.02851621       0.00070437       0.00003049      -0.00032631      -5.73072422
Ni      19.32551227       0.03017937      26.36385557       0.60000000       1.25642706      -0.43438593       2.25607283      -0.00007723      -0.00027803       0.00051945      -5.73070341
Ni      19.32717521       1.80104087      24.60343086       0.60000000      -0.78842404      -1.43423550       0.96905543       0.00092294       0.00029736       0.00023946      -5.73088223
Ni      17.56913132       0.03094007      28.12403514       0.60000000       0.11659215      -0.59911589      -0.00990868       0.00040424      -0.00035931       0.00049499      -5.73055762
Ni      17.56964094       1.80292706      29.88484340       0.60000000       0.47303881      -2.92313718       1.24987836       0.00017463       0.00057142      -0.00012285      -5.73038989
Ni      19.32548659       0.03383949      29.88646342       0.60000000       0.12342763      -3.38908547       0.09362716       0.00035049      -0.00001199      -0.00025473      -5.73041463
Ni      19.32607658       1.80377824      28.12151661       0.60000000       0.89393354       0.44339147       2.46567889       0.00070507      -0.00016407       0.00033829      -5.73049122
Ni      17.56870603       0.03436398      31.65084485       0.60000000      -0.57029447       0.23140490      -0.73545415       0.00007305       0.00022479      -0.00049221      -5.73033351
Ni      17.56926326       1.80306174      33.41567673       0.60000000       1.07272197       0.49031789       0.48965397      -0.00027652      -0.00041687      -0.00027956      -5.73020267
Ni      19.32571918       0.03484381      33.41642368       0.60000000       1.33247369       0.27938048      -0.35900492       0.00019311       0.00004088      -0.00026568      -5.73022252
Ni      19.32578710       1.80336724      31.64849443       0.60000000       0.49824877      -0.95387714      -0.80490029       0.00025996      -0.00029161       0.00020636      -5.73023552
Ni      17.56966707       3.56952700      -0.01762703       0.60000000       0.74644038      -0.03318696      -1.21823754      -0.00013853       0.00046047      -0.00078978      -5.73022789
Ni      17.57080184       5.33536553       1.75261271       0.60000000       0.13593222       0.20451271      -2.15583905      -0.00014205       0.00062823       0.00018876      -5.73034406
Ni      19.32571517       3.56731855       1.74918219       0.60000000       0.30602959       1.08633112       0.84873838       0.00039782       0.00036416      -0.00032251      -5.73034501
Ni      19.32522883       5.33309103      -0.02104373       0.60000000       0.31079742       0.41778238      -2.30977667      -0.00002788       0.00057104      -0.00076882      -5.73029107
Ni      17.57089463       3.57167264       3.52072014       0.60000000       0.50153353       0.92316849      -0.37159894      -0.00030489       0.00074647      -0.00057876      -5.73032272
Ni      17.57413070       5.34286949       5.29489607       0.60000000      -0.46926859       1.34664397      -0.56254652      -0.00053566       0.00087359       0.00064173      -5.73013258
Ni      19.32634999       3.57048699       5.28536343       0.60000000       0.64731971       0.20491707      -0.48115407      -0.00065340       0.00068672      -0.00018584      -5.73029602
Ni      19.32623076       5.33372421       3.51948745       0.60000000       2.51420932       0.94008048      -0.36364786      -0.00072523       0.00133570       0.00060994      -5.73040903
Ni      17.57394951       3.57929142       7.05597121       0.60000000      -0.47424942       0.40823721       1.04961804      -0.00085951       0.00049129       0.00073650      -5.73002696
Ni      17.58209621       5.35887370       8.83528298       0.60000000       0.26875498       2.57211984      -0.45407455      -0.00207626      -0.00113463      -0.00208735      -5.72910631
Ni      19.32793346       3.57730215       8.81589384       0.60000000       0.38523972      -0.37092215      -0.61336824      -0.00093372      -0.00044249       0.00009349      -5.72992349
Ni      19.32824272       5.34304677       7.05917252       0.60000000      -1.58336580       1.54608128      -1.18897967      -0.00027315       0.00030531      -0.00042307      -5.72999746
Ni      17.57894280       3.58673889      10.58182085       0.60000000       0.00209730       0.79260215       1.62315304      -0.00017827       0.00023606      -0.00009124      -5.72944695
Ni      17.59432996       5.37406461      12.36025266       0.60000000       0.14909311       1.38168157      -0.04175563      -0.00148020      -0.00010945      -0.00131308      -5.72593337
Ni      19.33083645       3.57707700      12.33251717       0.60000000      -1.55938024       1.99828587       0.73389586       0.00035523       0.00145470      -0.00014117      -5.72854692
Ni      19.33379664       5.35778227      10.59356169       0.60000000      -0.17302844       0.95087401       2.40220763       0.00170185      -0.00157714      -0.00101415      -5.72661549
Ni      17.58244780       3.58345056      14.08938797       0.60000000      -2.80059115      -1.80562685       0.78900114      -0.00052153      -0.00007947       0.00019251      -5.72870612
Ni      17.59510202       5.36617909      15.85140988       0.60000000       0.41796166      -1.87001106      -1.00191252       0.00179458       0.00341927       0.00101569      -5.73696083
Ni      19.33303001       3.57061458      15.83591537       0.60000000       0.28519624      -0.48711762       0.43461614       0.00021831       0.00184882      -0.00056116      -5.73076999
Ni      19.34229175       5.36003321      14.10230203       0.60000000      -1.19190060       1.90432262       1.85782220       0.00077945       0.00235183      -0.00051087      -5.74583906
Ni      17.58070511       3.57449004      17.58842905       0.60000000       0.48738673       0.20962046       0.45135192       0.00003884       0.00156910      -0.00153611      -5.72815484
Ni      17.58852617       5.35483902      19.33639150       0.60000000      -0.20882091      -0.18380207      -0.61493690      -0.00205003      -0.00004777       0.00041591      -5.72914189
Ni      19.33162830       3.56909234      19.33720746       0.60000000       0.65681691       0.72213838      -0.34594750       0.00073634       0.00084000      -0.00040538      -5.72787774
Ni      19.33949739       5.35150702      17.58811043       0.60000000       0.24154855       0.53494408      -1.83815871       0.00036977       0.00418059       0.00022948      -5.75045717
Ni      17.57745457       3.57271705      21.09006429       0.60000000       0.55402610      -0.47188712       1.06593143       0.00099981      -0.00132918      -0.00067206      -5.72911549
Ni      17.57912275       5.34991392      22.83550573       0.60000000       1.90002187      -0.34989450      -1.69870415      -0.00126293      -0.00023772       0.00057480      -5.73041230
Ni      19.32957887       3.57425853      22.84195390       0.60000000       0.24204320       0.69431346       1.10182056      -0.00070711      -0.00027641       0.00016729      -5.72967869
Ni      19.33289117       5.35248252      21.07998223       0.60000000       0.86082386      -2.99113298      -0.47853908      -0.00139098      -0.00082900      -0.00051015      -5.72998452
Ni      17.57421195       3.57382050      24.59949252       0.60000000      -0.84342327       2.31042874      -0.18474442      -0.00030969      -0.00038934      -0.00038970      -5.73027134
Ni      17.57294827       5.34907987      26.34811003       0.60000000      -0.07399804      -0.71415623      -1.10178844      -0.00078988       0.00001206      -0.00215609      -5.72963500
Ni      19.32693886       3.57683086      26.35482065       0.60000000      -0.18851756      -0.80068960      -0.85064290      -0.00037567      -0.00030899       0.00142663      -5.73038471
Ni      19.32721893       5.35423894      24.58579345       0.60000000      -1.10667352       1.09023643       1.67568288      -0.00163282       0.00105343      -0.00136693      -5.72833574
Ni      17.57096996       3.57438646      28.11733200       0.60000000       2.79796758      -1.11164619       0.47597148       0.00114137      -0.00071521       0.00079189      -5.73045564
Ni      17.56990962       5.34372345      29.87314867       0.60000000       0.05961521      -0.88310733      -2.16699176       0.00095057       0.00040171      -0.00053305      -5.73004401
Ni      19.32532153       3.57430526      29.87876127       0.60000000      -0.17432325      -0.06640478      -0.87788599       0.00088642      -0.00042198       0.00091065      -5.73020130
Ni      19.32417765       5.34930867      28.10605669       0.60000000       0.40919282      -0.79131055      -1.22636949      -0.00054292      -0.00021170       0.00013033      -5.72989631
Ni      17.56962387       3.57194282      31.64587403       0.60000000      -0.98143516       0.01458322      -0.61331386       0.00026059      -0.00054362       0.00029675      -5.73017788
Ni      17.56953814       5.33663881      33.41054976       0.60000000       0.71245611      -0.63955504       0.70735254       0.00025687       0.00059351      -0.00047408      -5.73013526
Ni      19.32550229       3.56960792      33.41201457       0.60000000       0.44674013       1.25127646       0.50879957      -0.00000800       0.00000677      -0.00007239      -5.73017043
Ni      19.32410019       5.33990957      31.63906820       0.60000000       1.64715732       0.94487636      -1.60416960       0.00033133      -0.00016422      -0.00009772      -5.73002040
Ni      17.57035410       7.09856193      -0.01949542       0.60000000       0.81623218      -0.95820523      -0.39497587      -0.00009517       0.00014323       0.00027529      -5.73030084
Ni      17.57286643       8.86063085       1.75603145       0.60000000      -0.18429455       1.05980281       0.62703175      -0.00128009       0.00037706      -0.00015911      -5.73045194
Ni      19.32568208       7.09579364       1.74993382       0.60000000       0.28455005       0.64506996      -0.21541897      -0.00044339       0.00042530       0.00057795      -5.73044890
Ni      19.32425943       8.85764909      -0.02350668       0.60000000       1.08933322       0.07941403      -2.35602724       0.00043503       0.00039043       0.00102536      -5.73044050
Ni      17.57357686       7.10259377       3.52779511       0.60000000       0.62238565       0.68298029      -1.36323353      -0.00038493       0.00084489       0.00024783      -5.73029900
Ni      17.57933581       8.87346351       5.30910209       0.60000000      -0.89235658      -2.29902274      -0.93347977      -0.00092559       0.00087896       0.00048896      -5.72998834
Ni      19.32757966       7.10227237       5.29419061       0.60000000       0.13153002      -1.03423017       1.47960591      -0.00058108       0.00086422       0.00087252      -5.73030829
Ni      19.32694141       8.85996453       3.52518986       0.60000000      -1.05043751      -0.59717493      -2.19442881      -0.00082676      -0.00037161      -0.00034790      -5.73042047
Ni      17.58154842       7.11850441       7.07658864       0.60000000       0.52194136       0.38950332       0.17671059      -0.00112312       0.00195632      -0.00012061      -5.72971177
Ni      17.59931564       8.90208048       8.87131403       0.60000000       0.75800664       1.21572016      -0.56281822       0.00077380      -0.00126186      -0.00048025      -5.72736365
Ni      19.33405979       7.12062271       8.84121754       0.60000000      -0.12627720      -0.81173146       0.80067005      -0.00080121      -0.00216340      -0.00056983      -5.72783303
Ni      19.33117889       8.87395885       7.07555674       0.60000000      -0.32322369      -1.24082049       0.91055010      -0.00076420       0.00010793      -0.00071072      -5.72989446
Ni      17.60191227       7.14831501      10.62773972       0.60000000       0.83064007       0.14995742      -1.62443181      -0.00205253      -0.00280097      -0.00258764      -5.72505772
Ni      17.65580188       8.95522057      12.44840424       0.60000000       1.12572395       0.46322932       2.11100877      -0.00003126      -0.00302857       0.00232751      -5.72291023
Ni      19.35628678       7.15333189      12.38940968       0.60000000       0.24785119       2.07429813      -1.28301512       0.00047223      -0.00144919       0.00115724      -5.73815697
Ni      19.35277060       8.90475398      10.64192014       0.60000000      -0.45960563       1.22485683      -0.92585177       0.00380542      -0.00101790      -0.00010855      -5.72463417
Ni      17.63245604       7.18147821      14.14711111       0.60000000       0.75884833      -0.97690682       1.08174570       0.00150121      -0.00007890      -0.00157714      -5.73636955
Ni      17.68283455       8.99564626      15.92872364       0.60000000      -0.58904688      -0.04694919       0.27792887      -0.00339085      -0.00116140       0.00099677      -5.72147906
Ni      19.36672965       7.14956946      15.86548715       0.60000000       0.89794469      -1.01046178       1.37773074      -0.00530864      -0.00101505      -0.00277502      -5.62261385
Ni      19.46621523       8.98201894      14.24560426       0.60000000      -1.07887786       1.99216416      -0.21412945       0.01010617       0.00981722       0.00770656      -5.57746947
Ni      17.62086177       7.16339713      17.60360678       0.60000000       0.37556520      -0.08858323      -2.21613277       0.00081961       0.00158190      -0.00070255      -5.75861561
Ni      17.63710998       8.95395350      19.36118398       0.60000000      -0.58936795       1.66800879       0.05797661       0.00031671       0.00136635      -0.00547896      -5.62599033
Ni      19.34528778       7.14704241      19.32376786       0.60000000       0.70230039       1.97095483       0.16747850      -0.00270706      -0.00146150      -0.00065124      -5.76457012
Ni      19.41973516       8.95506017      17.59393270       0.60000000       0.09426394       0.28696665       0.01593568      -0.00072926      -0.00376098       0.00352699      -5.51698810
Ni      17.59051327       7.13528814      21.07529448       0.60000000      -0.71783828      -0.14502881      -0.39298162      -0.00253627      -0.00216728       0.00082735      -5.73674273
Ni      17.57417822       8.91379632      22.79438971       0.60000000       0.33453009       0.82541644      -1.12215905      -0.00176464       0.00029286      -0.00022202      -5.64833158
Ni      19.32479036       7.14126614      22.81123317       0.60000000       0.49412707      -0.51945154       0.55980132       0.00019444      -0.00145145      -0.00062295      -5.74217254
Ni      19.30623160       8.95444629      21.03416830       0.60000000      -1.00350322       0.91305622      -1.11895833      -0.00298678      -0.00221164       0.00323261      -5.61744803
Ni      17.57406505       7.12807263      24.57571446       0.60000000      -0.56970650      -1.23735498      -1.66999506       0.00065163       0.00286693      -0.00401234      -5.73501575
Ni      17.56503343       8.90819687      26.30713005       0.60000000      -0.31484244       0.53609593       0.68196177       0.00076292      -0.00024460       0.00141734      -5.72782719
Ni      19.31973376       7.13123141      26.32782097       0.60000000      -0.41009082      -0.12826130       1.03275926      -0.00257444      -0.00001045      -0.00242887      -5.72737271
Ni      19.30549921       8.92468833      24.53553103       0.60000000      -1.04397208       0.23615504       1.48177145      -0.00332062       0.00192956      -0.00021512      -5.73966968
Ni      17.56942758       7.12085558      28.09513046       0.60000000       0.28096624       0.68259532      -1.14544096      -0.00103886       0.00190524      -0.00098867      -5.72893292
Ni      17.56608719       8.88177329      29.85122423       0.60000000       0.05730139       1.14971765      -0.81995431       0.00129126      -0.00083873       0.00122166      -5.72910899
Ni      19.32055620       7.11452650      29.86139207       0.60000000       1.72497887       0.24691206       0.99636072      -0.00029968      -0.00106090      -0.00066729      -5.72958714
Ni      19.31156638       8.89623248      28.07532599       0.60000000      -0.23843993      -1.60753204       1.03211848      -0.00019541       0.00079443       0.00026285      -5.72750032
Ni      17.56873950       7.10654155      31.63426850       0.60000000       0.37389758       0.83487155      -0.30864201       0.00115629      -0.00062540       0.00089818      -5.72986972
Ni      17.56897786       8.86282191      33.40393223       0.60000000       0.42108998       0.19362094      -0.30556442       0.00125173       0.00116423       0.00037463      -5.73016173
Ni      19.32355246       7.10005811      33.40477213       0.60000000      -0.52187708       0.75116413      -1.31218393       0.00005461       0.00107935      -0.00028289      -5.73011553
Ni      19.31932873       8.87041477      31.62522711       0.60000000      -1.24745323      -1.40980630      -0.03132962      -0.00003120       0.00079097       0.00092120      -5.72963500
Ni      17.57119971      10.61824080      -0.01981091       0.60000000       0.10023308      -1.29120531       0.24654699       0.00007773       0.00034727       0.00040512      -5.73062545
Ni      17.57504687      12.37722795       1.75915863       0.60000000      -0.28237744      -1.24347316       0.48665194      -0.00157605      -0.00027000       0.00117415      -5.73076749
Ni      19.32625973      10.61643256       1.75256957       0.60000000      -0.00261422       0.65022119      -1.11797659      -0.00091205       0.00026729       0.00013064      -5.73060006
Ni      19.32418971      12.37262284      -0.02340878       0.60000000       1.54761739       0.61181515       1.73129302       0.00017850      -0.00031349       0.00090814      -5.73084015
Ni      17.57711603      10.62612163       3.53595864       0.60000000      -0.12995515       0.49674313      -0.27028836      -0.00063365      -0.00021389       0.00079033      -5.73031485
Ni      17.58574037      12.39671514       5.32323543       0.60000000      -0.27326303       1.04112352       0.10336263       0.00034824      -0.00006375      -0.00090799      -5.72931671
Ni      19.32873928      10.62683769       5.30464251       0.60000000      -0.53781543       0.49755393       1.21186511      -0.00043077       0.00015933      -0.00062437      -5.73008686
Ni      19.32817293      12.37881505       3.53089798       0.60000000       1.40756198      -0.73481868      -0.71360717      -0.00057379      -0.00163302      -0.00025902      -5.73033130
Ni      17.59274617      10.65073782       7.10130958       0.60000000      -0.90572144      -0.50206984       0.50561549       0.00178430      -0.00046700      -0.00101096      -5.72859794
Ni      17.63036727      12.44198052       8.91456064       0.60000000      -0.29512690       0.33155565      -1.73199728      -0.00218733      -0.00174743      -0.00238915      -5.71782815
Ni      19.34265559      10.64850185       8.86961742       0.60000000      -3.28894137      -1.37312196      -0.28023012       0.00329042       0.00012726       0.00208818      -5.72569913
Ni      19.33379422      12.39751779       7.09223542       0.60000000      -0.57496188      -1.31016601      -0.82185278       0.00403501       0.00132143       0.00045837      -5.72698885
Ni      17.64580257      10.69845931      10.69135617       0.60000000      -0.58428997      -0.59886445       1.12267676      -0.00157122      -0.00310533      -0.00112543      -5.71663469
Ni      17.76304625      12.54471707      12.53002967       0.60000000       0.88803160       0.51532094       0.26802737       0.00319591      -0.00316737      -0.00372481      -5.71135437
Ni      19.41539183      10.69443385      12.48803745       0.60000000       1.22830771       1.26383736       1.35080345      -0.00389381      -0.00185705      -0.00163633      -5.73647803
Ni      19.37824547      12.43074849      10.68796435       0.60000000      -0.10461634      -1.48307937       0.95311382       0.00105287       0.00340137      -0.00325760      -5.73188818
Ni      17.75084072      10.78761275      14.27396866       0.60000000       0.15977634       0.35056315      -0.74458217       0.00015215      -0.00295915      -0.00266050      -5.72210199
Ni      17.81298247      12.57818988      16.08322156       0.60000000      -0.55596284       0.41556643      -1.36728089       0.00148525      -0.00806961       0.00216815      -5.74431109
Ni      19.57805517      10.79092887      16.05153467       0.60000000       0.36610493       2.05801733       0.18826022       0.00126381       0.00060920      -0.00156813      -5.54853463
Ni      19.56851977      12.55725508      14.31423461       0.60000000       0.87050467      -1.27011619      -0.34741646      -0.00066090      -0.00628218       0.00005444      -5.72512841
Ni      17.79200121      10.79482843      17.78932052       0.60000000       0.94017094       0.11487557       0.53685023       0.00934318       0.00186352       0.00604211      -5.68361181
Ni      18.28497123      11.30915588      20.35092762       0.60000000      -1.23711046      -2.50722719       1.22873460      -0.00600645      -0.00489890       0.00395207      -5.44667000
Ni      17.58924329      12.49680283      22.60952772       0.60000000       1.45547475      -1.38502570       1.47250253       0.00681063       0.00302078       0.00304754      -5.58928716
Ni      19.24109879      10.72285629      22.69208010       0.60000000       0.42905886      -0.55729715       1.89115584      -0.00088550      -0.00236045      -0.00254878      -5.61330420
Ni      20.06546287      13.18211737      20.37931579       0.60000000      -0.05043721      -0.05483237       0.03459799      -0.00394633       0.00048023       0.00279354      -5.54675549
Ni      17.55642945      10.70956806      24.49775411       0.60000000      -0.52113258      -0.94314249      -1.46570426      -0.00238398      -0.00034709       0.00398694      -5.72434837
Ni      17.53722657      12.46441797      26.23210869       0.60000000      -2.01786293      -0.13941664      -0.30888628      -0.00004481      -0.00413637       0.00435484      -5.71969050
Ni      19.29140557      10.68989975      26.27373768       0.60000000       1.13976081       1.04345082       0.25025137      -0.00219615      -0.00168321      -0.00021421      -5.72718161
Ni      19.25248334      12.49220005      24.43653145       0.60000000       0.46622742       0.08625970       0.03639275       0.00206405       0.00196628       0.00313672      -5.73374760
Ni      17.55820238      10.66591577      28.05523106       0.60000000      -1.56817048      -1.27613954      -1.71909550      -0.00119512       0.00012539       0.00274214      -5.72588629
Ni      17.55779430      12.40354667      29.82604746       0.60000000      -1.39529144      -0.78207202      -2.61532440       0.00140468      -0.00065689       0.00199810      -5.72762769
Ni      19.30951059      10.64660913      29.83671340       0.60000000      -2.46893364      -0.67843411       1.02638642       0.00059266      -0.00116446       0.00072707      -5.72845519
Ni      19.29031219      12.42942962      28.03151897       0.60000000       0.26683777      -0.11615797       0.80628152       0.00021619      -0.00030184       0.00455257      -5.72417343
Ni      17.56610743      10.63071086      31.62126632       0.60000000      -1.32650348      -0.17845124       0.30367107      -0.00068891       0.00148729      -0.00134303      -5.72960210
Ni      17.56838716      12.37668363      33.40060394       0.60000000       1.74774927       1.75405123       1.02644414       0.00042808       0.00149906      -0.00035199      -5.73061204
Ni      19.32103988      10.62057244      33.39893817       0.60000000      -0.64247707      -0.75035260       0.29553078       0.00002359       0.00141455      -0.00082855      -5.73027670
Ni      19.31386017      12.38558386      31.61458958       0.60000000      -2.64134339       0.77383148      -1.31755965      -0.00095688       0.00259344      -0.00018756      -5.72956049
Ni      17.57203804      14.12852750      -0.01922456       0.60000000      -0.90163993       0.29069058       0.87891009      -0.00024744      -0.00040808       0.00020703      -5.73112941
Ni      17.57599169      15.88578363       1.75854240       0.60000000       0.22123555      -1.45602588      -0.33846321      -0.00109664       0.00009193       0.00038229      -5.73129696
Ni      19.32736793      14.12946588       1.75423504       0.60000000      -0.26581019      -1.13313934       0.34880899      -0.00094373      -0.00066545       0.00155986      -5.73091298
Ni      19.32491732      15.88067289      -0.02308689       0.60000000       0.52332364      -2.25479186       0.67904658      -0.00006890      -0.00203188       0.00035498      -5.73120254
Ni      17.58024693      14.14048631       3.54085390       0.60000000       0.26346017      -0.47487067       0.60068999      -0.00039450       0.00055110      -0.00079597      -5.73046434
Ni      17.58975899      15.90774427       5.32904235       0.60000000       0.20199657       0.32750507      -0.51262315       0.00072758      -0.00028982       0.00035141      -5.72677809
Ni      19.33034421      14.14421365       5.31300865       0.60000000      -1.29921757       1.09640623       0.01864543       0.00121492       0.00021013       0.00031160      -5.72829598
Ni      19.32919741      15.88955704       3.53235298       0.60000000       0.05473688       0.29394049       0.13245994      -0.00081424       0.00023402      -0.00178394      -5.72963464
Ni      17.60791125      14.17645340       7.12610727       0.60000000       0.94269287       0.89629044      -0.98089757      -0.00015675      -0.00032484      -0.00290588      -5.72290075
Ni      17.68258129      15.97989783       8.97256092       0.60000000       0.56487809       1.45367534      -0.04404003       0.00146285      -0.00121707      -0.00422325      -5.71759486
Ni      19.35790288      14.18333826       8.89817125       0.60000000      -0.63985721      -0.52453767       1.15023997      -0.00246221       0.00046820       0.00290761      -5.73513949
Ni      19.33780701      15.91499283       7.10569908       0.60000000       1.07676057      -1.59533596      -2.07016515       0.00026022       0.00173801      -0.00295708      -5.74189132
Ni      17.76640363      14.29581691      10.77326402       0.60000000       1.35352042       1.04416781      -1.62414120       0.00357561       0.00050397      -0.00068562      -5.70786542
Ni      17.86133002      16.12569226      12.56831222       0.60000000       0.41555249       0.58353926       0.72115498       0.00485411       0.00386350       0.00173014      -5.72221339
Ni      19.59482530      14.33188948      12.55350499       0.60000000       0.53537297       0.25797422       2.16438601       0.00531830       0.00260550       0.00229618      -5.60843229
Ni      19.59181764      16.08965117      10.79604850       0.60000000       0.32745161       0.85955038       0.27621037       0.00277375       0.00373766      -0.00171718      -5.55149233
Ni      17.83209337      14.35418178      14.31966845       0.60000000       1.28043957       2.31321930      -1.02226299      -0.00079317       0.00071925       0.00207471      -5.73026890
Ni      16.67158169      14.91972360      18.45869836       0.60000000      -0.47663669      -1.82780926      -0.28723836       0.00379398       0.00027525      -0.00066472      -5.62729114
Ni      18.37824508      13.08843427      18.52199145       0.60000000      -2.98739901       0.75190261      -0.00160561       0.00849152      -0.00466613       0.00349129      -5.56268913
Ni      18.44341624      14.92441440      16.69978858       0.60000000       1.69045591      -0.24275661      -0.97773586      -0.00591615       0.00050882      -0.00324224      -5.72072941
Ni      15.90448792      12.49610227      20.95621917       0.60000000      -0.67066353       1.10195602       0.33054265      -0.00278804      -0.00304297       0.00036351      -5.49621236
Ni      17.57145466      14.20309855      20.68178046       0.60000000       0.97308293      -0.57756152      -1.35791566       0.00264759      -0.00232387      -0.00204225      -5.53824848
Ni      19.24929793      14.26923244      22.53358863       0.60000000       0.42880889       1.63810225       1.45475927      -0.00015976      -0.00300454      -0.00414141      -5.61437351
Ni      19.27417318      15.96199738      20.68513832       0.60000000       1.53770329       0.15904160       0.43287319       0.01156622      -0.01300230       0.00601924      -5.55826163
Ni      17.48864314      14.27319660      24.34555394       0.60000000       0.04308293      -0.03490477      -0.96294027      -0.00101854      -0.00089006      -0.00367474      -5.71264392
Ni      17.50471149      15.95406199      26.15830868       0.60000000       0.17235196       1.62567570       1.96220229       0.00134815      -0.00245248      -0.00030928      -5.71735787
Ni      19.25554201      14.21707271      26.19795509       0.60000000       0.38668924       0.75107840      -0.48504791       0.00038976       0.00072967      -0.00338930      -5.71551520
Ni      19.20787225      16.00584580      24.34146950       0.60000000      -0.40276298      -0.17473765       0.25058294      -0.00139339       0.00127081      -0.00750739      -5.72536361
Ni      17.54004408      14.17872778      28.00859015       0.60000000      -0.80782339       0.41672171      -0.52456346      -0.00168025      -0.00017227       0.00346258      -5.71868676
Ni      17.55413098      15.89143418      29.82016170       0.60000000      -1.13660245      -0.12760751       1.90021778       0.00116299       0.00107376      -0.00142516      -5.72623873
Ni      19.30034353      14.15105576      29.81966702       0.60000000       0.38963718      -0.24466227      -0.41211984       0.00110865      -0.00054834       0.00167166      -5.72771531
Ni      19.28178308      15.90902646      28.01235779       0.60000000       1.09152246       1.10034329       1.69314643      -0.00001182       0.00026005       0.00404260      -5.72082371
Ni      17.56313683      14.13575910      31.61488440       0.60000000       0.24723979       0.67528022       0.47287498      -0.00063941       0.00172564       0.00055193      -5.72997057
Ni      17.56839747      15.87970232      33.40099731       0.60000000       0.30293981       0.18295198      -0.15950913      -0.00060481       0.00115579      -0.00057049      -5.73133522
Ni      19.32007394      14.12847699      33.39785008       0.60000000       0.44477453       1.07601158      -0.13068608      -0.00052803       0.00082771      -0.00067154      -5.73083889
Ni      19.31315561      15.88203822      31.61473387       0.60000000      -2.90351496      -0.01290349      -0.28810075      -0.00090420       0.00221541       0.00226722      -5.73032033
Ni      17.57195712      17.63432995      -0.02146708       0.60000000      -0.69862776      -1.02384517       1.92794674       0.00022615      -0.00165661       0.00126172      -5.73140377
Ni      17.57481088      19.39115440       1.75228886       0.60000000      -2.12172171       0.60577009      -0.33000031      -0.00146976       0.00039774      -0.00190241      -5.73075885
Ni      19.32775345      17.63727619       1.75217269       0.60000000      -0.79711571      -0.19807900      -0.89039860      -0.00034270      -0.00072377      -0.00007622      -5.73120183
Ni      19.32529838      19.38792327      -0.02460224       0.60000000      -0.01089418       1.96689271      -0.64170934       0.00109376      -0.00263940      -0.00031492      -5.73124862
Ni      17.58001097      17.64485703       3.53612962       0.60000000       1.12929457      -0.66035648       1.54651064      -0.00089725       0.00145552       0.00173051      -5.72881740
Ni      17.58431380      19.40320343       5.31762103       0.60000000      -0.65800749       0.00425901      -1.35343354       0.00078357       0.00213582       0.00243315      -5.74115974
Ni      19.32936878      17.65122546       5.31403669       0.60000000       1.01509273       0.30654267       1.09485293      -0.00071612       0.00034782      -0.00148258      -5.72952956
Ni      19.32796259      19.39417813       3.52637062       0.60000000       1.70214841      -1.23462800       1.43256887      -0.00236971       0.00062483      -0.00044771      -5.72770709
Ni      17.61281608      17.67612227       7.13626401       0.60000000      -0.27602732       0.01026934      -0.13502010       0.00065000      -0.00136492      -0.00083789      -5.74232554
Ni      17.63459742      19.44879621       8.93496145       0.60000000       0.20875241       0.27853261       0.52686330       0.00184927       0.00239382       0.00108106      -5.63701034
Ni      19.38807728      17.68715626       8.93441384       0.60000000       0.45625373       1.67561311       0.79699216      -0.00111481      -0.00218419       0.00320015      -5.62323105
Ni      19.31908981      19.41074676       7.10980135       0.60000000      -2.16009587       0.98379633      -1.57981046       0.00191528       0.00152964      -0.00137831      -5.76205671
Ni      17.82648170      17.86006803      10.79674414       0.60000000       0.05940032      -0.06664075      -0.93099463       0.00463092       0.00266200       0.00365613      -5.69121069
Ni      16.65812237      18.55035026      14.92186704       0.60000000      -1.00168983      -1.10401391       0.16314351      -0.00026527       0.00138691       0.00070220      -5.70813131
Ni      18.46289129      16.75548089      14.92744841       0.60000000       1.26030737      -0.78018022      -0.28840465       0.00488954      -0.00316218      -0.00844932      -5.70394266
Ni      18.49126430      18.54512741      13.12704151       0.60000000       1.57235562      -1.47574205      -0.79129407       0.00630817      -0.00632450       0.00164826      -5.66943395
Ni      16.66796495      16.73243039      16.69743384       0.60000000      -0.81094791      -0.02142244       1.15463736       0.00685789       0.00509070       0.00111580      -5.74545354
Ni      16.65784700      18.47894103      18.51230149       0.60000000       1.08896541      -3.52684408       1.43788637       0.00033320       0.00081103      -0.00327580      -5.65107214
Ni      18.44310929      16.72230984      18.46468850       0.60000000      -3.41419310      -0.93450100      -0.21893292      -0.00263739      -0.00178566       0.00022545      -5.63260227
Ni      18.41960405      18.55690457      16.71864972       0.60000000      -0.66099012      -2.88510750      -2.89167839       0.00030684       0.00115085      -0.00607303      -5.71146673
Ni      16.70952991      16.64805365      20.26069596       0.60000000       1.47175899       0.38969632       0.16144699       0.00173452      -0.00230588      -0.00216432      -5.68417466
Ni      16.72258937      18.49656577      22.04869798       0.60000000       0.28967501       0.97460436      -1.36860429      -0.00071302       0.00368281       0.00080061      -5.55758321
Ni      19.15369209      17.78755610      22.56173382       0.60000000      -0.25477260      -1.91530240       1.01287189       0.00007092       0.00139548      -0.00057875      -5.64839625
Ni      18.46473778      18.43586523      20.28866296       0.60000000      -2.16723424       1.26807996       0.58660973       0.00959405      -0.00069688       0.00332939      -5.59224355
Ni      17.39326616      17.80182988      24.33337207       0.60000000      -2.09759846      -0.36303586       0.10367656      -0.00742687       0.00424410      -0.00613658      -5.65759552
Ni      17.52634718      19.39462370      26.20650357       0.60000000      -1.07187652       0.41102391       0.14729631      -0.00106651      -0.00180627       0.00010999      -5.60800773
Ni      19.25821951      17.65338669      26.20398591       0.60000000       1.66195293       1.48975781       0.12494858      -0.00178716      -0.00144892      -0.00155868      -5.73644447
Ni      19.21816551      19.40351975      24.46797630       0.60000000      -0.49093355      -1.22818169      -0.49451987       0.00208082       0.00334410      -0.00200427      -5.60385299
Ni      17.54278280      17.63976723      28.01405076       0.60000000       0.52503008      -0.84558746       2.04218866       0.00020699      -0.00113613      -0.00099425      -5.73896444
Ni      17.55913985      19.37023568      29.83827067       0.60000000       0.56489467      -0.78284923      -1.85307510       0.00129097       0.00233433      -0.00163951      -5.73046035
Ni      19.30391548      17.62922126      29.82858780       0.60000000      -0.38134465      -2.56313550      -1.33392626      -0.00019546       0.00219490      -0.00066546      -5.72723097
Ni      19.29423784      19.36722800      28.04308429       0.60000000       0.61534952       0.84471003      -1.08252632      -0.00118788      -0.00032133       0.00025931      -5.74063683
Ni      17.56372985      17.62779456      31.61965702       0.60000000      -1.36248093      -1.17710609       0.56706207      -0.00061506       0.00283626       0.00120098      -5.72977233
Ni      17.56831496      19.38272598      33.40114636       0.60000000       1.97829029       0.83601391       0.12123151      -0.00018200       0.00029408       0.00154750      -5.73127824
Ni      19.32140748      17.63065937      33.39960211       0.60000000       0.10716002       0.00962070      -1.07189039      -0.00072457      -0.00031096       0.00020491      -5.73124272
Ni      19.31704931      19.37716620      31.62312534       0.60000000      -2.23953971       0.01700082      -0.57808920      -0.00065861       0.00206744       0.00061653      -5.72968328
Ni      17.57059208      21.14224354      -0.02471230       0.60000000       0.75831271      -1.08469554       0.69139670       0.00032615      -0.00091782      -0.00052934      -5.73112816
Ni      17.57179305      22.90081772       1.74668767       0.60000000       1.58939246      -0.14717423       0.30142205      -0.00149197      -0.00188956      -0.00257036      -5.72960031
Ni      19.32704735      21.14548680       1.74799483       0.60000000      -0.62314112      -1.61845885      -0.74428861      -0.00155581      -0.00169500      -0.00033718      -5.73019695
Ni      19.32497792      22.89865522      -0.02504119       0.60000000       0.80757383       1.16900185      -0.32279869       0.00108114       0.00013860      -0.00031047      -5.73102307
Ni      17.57562832      21.14733426       3.52449453       0.60000000       1.84659690      -0.50329424       0.96347392      -0.00039762       0.00188508       0.00114582      -5.73067552
Ni      17.57237979      22.89821782       5.30257967       0.60000000      -0.61527006       1.23446928      -0.03709029       0.00067697       0.00174945       0.00096400      -5.74464661
Ni      19.32062320      21.14704418       5.30609949       0.60000000      -0.14913165       0.31339260       2.01926116      -0.00016939       0.00182145       0.00224680      -5.75062931
Ni      19.32394295      22.89912373       3.52254185       0.60000000       1.08834917       1.89963486       1.36127834      -0.00177674       0.00052886       0.00088515      -5.73079365
Ni      17.58336253      21.17065461       7.09559726       0.60000000       1.22837426      -0.66328684       0.58633081      -0.00325429      -0.00093156       0.00220541      -5.62212861
Ni      19.23113725      21.16532873       8.90993049       0.60000000      -0.52117101       0.03079138       0.38517058       0.00442618      -0.00157104      -0.00392228      -5.51932847
Ni      19.29098372      22.88078828       7.09425597       0.60000000       0.06227820       1.33921776       0.81752939       0.00230893       0.00363888      -0.00063998      -5.62409472
Ni      16.61549152      22.10747384      11.35575471       0.60000000       0.23308994       0.08350531       2.95433727       0.00509255       0.00093828      -0.01751962      -5.50807291
Ni      18.44894974      20.30983095      11.25889566       0.60000000       0.31763886       1.51718105       0.83015467       0.00014641      -0.00326390      -0.00426971      -5.63869387
Ni      19.06361494      22.71064005      10.74904514       0.60000000      -2.15934751      -1.21955586       0.24596161       0.00041623      -0.00014672       0.00145338      -5.55350256
Ni      16.64084714      20.32009703      13.13630411       0.60000000      -0.09361867      -0.66363630       1.31693968      -0.00299502       0.00803229      -0.00276306      -5.67745256
Ni      15.95345228      22.56235960      17.46056323       0.60000000       0.59348835       0.51597813       0.26179600      -0.00292553      -0.00281804      -0.00369955      -5.69703114
Ni      18.43429906      20.34391807      14.92778039       0.60000000       0.78231615      -1.69914216       1.38861881      -0.00129105       0.00625854       0.00068399      -5.66157198
Ni      19.08366973      24.44626620      12.50104767       0.60000000      -0.11734707      -0.42328617       1.33246079      -0.00092446       0.00018087       0.00060292      -5.70495671
Ni      16.58226409      20.30028430      16.76509119       0.60000000      -0.17571376      -0.82938890       2.65626028       0.00058966       0.00185641       0.00006430      -5.66687536
Ni      17.67844808      22.58294880      19.21196755       0.60000000      -0.23180779      -0.50352629       0.51312379       0.00180753      -0.00418495      -0.00452792      -5.70929503
Ni      18.33307806      20.31716468      18.60277289       0.60000000       0.42206436       1.27172083       1.07380984       0.00087046       0.00186403       0.00795983      -5.67839861
Ni      18.35611434      22.15087571      16.74289600       0.60000000      -2.03967238      -0.61003268       0.55515999      -0.00207240       0.00698885       0.00250390      -5.66433436
Ni      17.56893315      20.69755910      21.05869647       0.60000000      -1.22191088       0.84492358       0.46905360      -0.00372718      -0.00691796       0.00481480      -5.53858984
Ni      17.55929211      22.65549756      22.74103263       0.60000000       0.59652303      -1.49448193       1.01077959      -0.00802639       0.00551074      -0.00164420      -5.59421009
Ni      19.26298483      21.01256767      22.73595322       0.60000000      -0.69301258       1.18323129      -1.44866163       0.00692884      -0.00481669       0.00170867      -5.49834549
Ni      19.41406857      22.64603098      20.94052187       0.60000000       0.23468588       1.25651698       0.49271519       0.00508643      -0.00021395      -0.00711901      -5.66354507
Ni      16.85983811      20.36112149      23.82319225       0.60000000       0.05455327      -0.74944479      -0.22158805       0.01070628       0.01314693       0.01049596      -5.42761296
Ni      17.56659518      22.83511223      26.30557135       0.60000000       1.55583544      -1.45505901       0.52103386       0.00128519      -0.00064761      -0.00237459      -5.64597476
Ni      19.28976110      21.10284987      26.28856045       0.60000000       1.64659983      -0.38382966       1.92346945      -0.00018323       0.00236019       0.00066121      -5.64790767
Ni      19.27282901      22.78898769      24.52275645       0.60000000      -1.43878354      -1.02548906      -0.06556802      -0.00307428      -0.00217574       0.00142983      -5.65376014
Ni      17.55759584      21.10595226      28.06074267       0.60000000      -0.11739981       0.03193441      -0.44009782      -0.00003709       0.00084921      -0.00089975      -5.73756933
Ni      17.56209006      22.87338200      29.85596470       0.60000000      -0.43778608      -1.84634701      -0.30414655       0.00047291      -0.00020426      -0.00256553      -5.73043638
Ni      19.31276124      21.12055329      29.85006525       0.60000000       2.31091323       0.50143647      -1.96358529      -0.00109205       0.00093367      -0.00168065      -5.72974485
Ni      19.31035672      22.86509395      28.08762256       0.60000000       1.53678256      -2.54510604      -0.87172311       0.00014533      -0.00025929      -0.00364994      -5.74171180
Ni      17.56507468      21.12892335      31.62645534       0.60000000       1.55591544       0.23812281       1.63698719      -0.00027935       0.00055670       0.00194623      -5.72946817
Ni      17.56732022      22.89309826      33.40213733       0.60000000       1.53040680       2.72526286      -1.35501897       0.00023111       0.00006962       0.00213287      -5.73080432
Ni      19.32260061      21.13759237      33.40128444       0.60000000       0.37305224      -0.00643264       1.96731510       0.00056654      -0.00018019       0.00211390      -5.73091799
Ni      19.31995525      22.88694609      31.63145554       0.60000000       0.29360185      -0.82256902      -2.48118305      -0.00120196      -0.00045411       0.00079202      -5.72977513
Ni      17.56862447      24.65567101      -0.02500666       0.60000000      -2.60958509       0.56092551       1.10345044       0.00021822       0.00156511      -0.00032352      -5.73088509
Ni      17.56948725      26.41582132       1.74730446       0.60000000       0.90499357       1.67932460       0.88390695      -0.00051289      -0.00229180      -0.00160282      -5.73045576
Ni      19.32549419      24.65700271       1.74780661       0.60000000      -1.21733266      -1.06269693      -1.10760795      -0.00130607      -0.00182853       0.00054820      -5.73018301
Ni      19.32451528      26.41508969      -0.02182694       0.60000000       1.24742412      -0.74460932       1.10830319       0.00044313       0.00047919       0.00014036      -5.73091024
Ni      17.57076297      24.65506819       3.51875246       0.60000000      -0.01156257       0.24490948       0.52025504       0.00035991      -0.00339900       0.00150776      -5.73086512
Ni      17.56724717      26.40156948       5.29476986       0.60000000       0.55638573      -1.68051144      -0.08775165      -0.00064809      -0.00388094       0.00268659      -5.73813951
Ni      19.31331245      24.64052741       5.30608222       0.60000000       0.29358653       1.12244487      -0.43243098      -0.00008194       0.00008142       0.00205421      -5.74655265
Ni      19.32289888      26.40787550       3.52457700       0.60000000       0.04780537      -2.11928495      -1.71818179      -0.00053948       0.00002584      -0.00097794      -5.72881395
Ni      17.55548590      24.62378486       7.07990838       0.60000000       1.24568962      -0.03971397       1.51120241       0.00202700       0.00199601       0.00323089      -5.62523013
Ni      17.53711542      26.32778581       8.86444334       0.60000000      -0.03363832       0.65051065      -0.39704673       0.00539365       0.00195769      -0.00096832      -5.73417407
Ni      19.17509948      24.50263755       8.93070316       0.60000000      -0.44121808       0.29495409      -0.68776599      -0.01343597      -0.01032162       0.00911924      -5.56900704
Ni      19.29424753      26.35897844       7.09753465       0.60000000       1.03881959       0.85010622      -1.25369138       0.00119847      -0.00219507      -0.00278405      -5.73683500
Ni      15.82617363      24.57157542       8.88396525       0.60000000       0.55672777       2.58275628      -0.17483800      -0.00096388       0.00113161      -0.00302467      -5.48728770
Ni      17.50154614      26.28510160      12.34892767       0.60000000      -0.74935343       0.03510232       1.23534086      -0.00441311      -0.00601173      -0.00375031      -5.65594959
Ni      17.34753841      24.43444390      10.74162586       0.60000000      -0.14900818       0.63180479       0.45920519      -0.00705548      -0.00352905       0.00111245      -5.51609111
Ni      19.22448603      26.26899823      10.63846945       0.60000000      -0.47647340      -0.96806961       2.48561822       0.00009524      -0.00076553      -0.00058018      -5.73046744
Ni      16.59961352      22.09468229      14.93204697       0.60000000       1.34878718      -0.63022295       1.03263960      -0.00363886      -0.00125342       0.00500125      -5.64672166
Ni      17.59755852      26.25035270      15.80785816       0.60000000      -1.18080662      -0.36552511       2.30333296      -0.00254650       0.00228748       0.00165079      -5.64605951
Ni      18.41195104      23.97158951      14.94584421       0.60000000       1.20344813       0.82581534       1.26061073       0.00574939       0.00255360       0.00396128      -5.61911064
Ni      19.24625637      26.29229555      14.10386181       0.60000000      -2.28701389       0.20947782      -0.03756553       0.00098029      -0.00044702      -0.00028436      -5.64910781
Ni      17.72061590      24.39917160      17.43811478       0.60000000       1.44998942       0.84967848      -1.76858997       0.00226980       0.00222739       0.00344354      -5.68977273
Ni      17.61033314      26.23006330      19.26948814       0.60000000       0.18908585      -0.66742738      -0.01864160       0.00090934      -0.00124217      -0.00002160      -5.72855407
Ni      19.42788686      24.44898880      19.20314975       0.60000000      -0.28115407       2.21897195      -0.55872015       0.00196970      -0.00152775      -0.00201831      -5.59748751
Ni      19.33675765      26.26228561      17.55183783       0.60000000       0.43889472       1.01194230      -0.93923915      -0.00022784       0.00084440      -0.00005619      -5.62319928
Ni      17.63226233      24.42266819      20.97964531       0.60000000      -1.81970386      -0.12630037      -1.34859711       0.00305242      -0.00873261      -0.00396560      -5.73191941
Ni      17.57620474      26.30619095      22.78410632       0.60000000       0.07508290       0.55400439       0.16028101       0.00189928       0.00002674       0.00248589      -5.72233802
Ni      19.28985811      24.51643111      22.77324619       0.60000000       0.15670101       0.88182726       0.04076747      -0.00355892      -0.00065618      -0.00463963      -5.75038993
Ni      19.31088591      26.28734517      21.03650697       0.60000000      -0.93540669       1.22030734       1.87211687      -0.00324388      -0.00069020      -0.00020858      -5.74073613
Ni      17.56765806      24.55139423      24.53373514       0.60000000       0.19275997       0.35877466       0.01970886       0.00136038       0.00022116       0.00062538      -5.72720712
Ni      17.56288984      26.36244239      26.32508878       0.60000000       0.32794050       0.48264892       0.84346178       0.00112438      -0.00008635      -0.00138779      -5.72890812
Ni      19.30522021      24.60225519      26.31906247       0.60000000      -0.35027502       0.03187788      -1.10724294       0.00082410      -0.00281602      -0.00209151      -5.73798060
Ni      19.30295939      26.34929169      24.56249616       0.60000000      -1.12952393       0.94498012       1.49620330       0.00211440      -0.00163451      -0.00125658      -5.72449321
Ni      17.56232297      24.62015536      28.09189014       0.60000000      -0.40155443       0.42227353      -0.70629672      -0.00231926      -0.00389886      -0.00523232      -5.73570150
Ni      17.56314650      26.39625436      29.86831692       0.60000000       2.04799173      -0.95966858      -1.06477362       0.00094621      -0.00185177      -0.00277167      -5.72968769
Ni      19.31720236      24.63742507      29.86683192       0.60000000      -1.47008927      -1.48117588      -0.75279515      -0.00090241       0.00138261      -0.00101071      -5.72935671
Ni      19.31444268      26.38773444      28.10147502       0.60000000      -1.10086679       0.04882734      -2.54542744      -0.00141928      -0.00086933       0.00031936      -5.72843862
Ni      17.56471860      24.64418590      31.63316069       0.60000000      -1.13152463      -0.86843485       0.64616382      -0.00077570      -0.00165240       0.00165738      -5.73010683
Ni      17.56647146      26.41138342      33.40656123       0.60000000      -1.75722281      -1.51587300       0.27621473      -0.00011654       0.00050855       0.00024293      -5.73067701
Ni      19.32296482      24.65241695      33.40548129       0.60000000      -0.15754297       1.41823642      -1.68497451       0.00055955       0.00086107       0.00021638      -5.73079318
Ni      19.32130530      26.40735006      31.63968566       0.60000000      -0.60220329       1.11244998       1.77241520      -0.00096767       0.00096667       0.00102719      -5.73065698
Ni      17.56779733      28.17582482      -0.02143212       0.60000000       1.04011382       0.41716812      -1.17993987       0.00019238       0.00021947       0.00067776      -5.73071027
Ni      17.56868252      29.93712160       1.75001007       0.60000000      -0.87996251      -0.52231043       0.06118506       0.00069042       0.00012593      -0.00012925      -5.73046839
Ni      19.32488398      28.17329509       1.75158121       0.60000000       0.52036594       1.64405112       1.62511886       0.00009337       0.00120885      -0.00063175      -5.73060358
Ni      19.32474881      29.93778385      -0.01736052       0.60000000       0.65829504      -0.78547588      -2.08720206       0.00079764      -0.00007426      -0.00033334      -5.73050314
Ni      17.56952961      28.17080638       3.52017964       0.60000000      -1.28822638       0.06360835      -1.15647775      -0.00043471      -0.00188628       0.00100015      -5.72936159
Ni      17.56882157      29.92475741       5.28974540       0.60000000       1.69193706       0.39769143      -0.51613716      -0.00095491      -0.00045345       0.00048900      -5.72879535
Ni      19.31842666      28.15260742       5.30203704       0.60000000      -0.29179042       1.32828368      -0.73838198      -0.00194368      -0.00049281      -0.00137221      -5.72686583
Ni      19.32399580      29.92891802       3.52349614       0.60000000      -2.22593206      -1.41005711       0.80287110       0.00033622      -0.00002046      -0.00092634      -5.72992927
Ni      17.56317549      28.14157623       7.06881576       0.60000000      -0.52173381      -2.18018868       0.79604755      -0.00012195      -0.00154995       0.00160848      -5.72803235
Ni      17.56160825      29.90725571       8.81845669       0.60000000      -1.26147972      -0.03797694      -1.30432619      -0.00200025      -0.00182528       0.00071025      -5.72732151
Ni      19.29202643      28.11126464       8.84571822       0.60000000       1.05267229      -2.26716777       0.31776060      -0.00061126       0.00087265       0.00059528      -5.72286987
Ni      19.31546417      29.90939017       7.06196564       0.60000000       0.16392878       1.59213272       0.03314720      -0.00024683      -0.00116348      -0.00080775      -5.72795451
Ni      17.54016018      28.10302112      10.58821199       0.60000000       1.04206191      -0.26427941       0.20910627       0.00083591      -0.00236535      -0.00065543      -5.74348402
Ni      17.55517014      29.89209224      12.32644138       0.60000000       0.07962710      -1.03412289       0.41392661       0.00046802      -0.00125616      -0.00128837      -5.73081017
Ni      19.27646920      28.09133399      12.33934679       0.60000000       1.50271999       1.13500046       1.24726487      -0.00369354      -0.00113779       0.00082895      -5.73799533
Ni      19.30155584      29.89277347      10.57813297       0.60000000       1.33093834       1.04986609      -2.14627345       0.00079645      -0.00264658      -0.00007112      -5.72678059
Ni      17.55155767      28.08892639      14.07924155       0.60000000      -0.52928725      -0.33753019       0.82577851      -0.00037688      -0.00330835      -0.00340866      -5.74216926
Ni      17.56245161      29.87979886      15.82614239       0.60000000      -0.56876857       1.59462111       0.74361728       0.00037648       0.00000315      -0.00052415      -5.73000985
Ni      19.29567067      28.09158126      15.82918532       0.60000000      -0.09497962       0.28351147       0.39256305       0.00053095       0.00114351       0.00197157      -5.74574763
Ni      19.30100328      29.88742650      14.07724640       0.60000000       0.25006354      -1.43227548       0.42291039       0.00032475      -0.00049877      -0.00053780      -5.73076576
Ni      17.57764444      28.06211042      17.56223014       0.60000000       1.40090319       0.83668259       1.14913009       0.00069053      -0.00139608       0.00169549      -5.73892164
Ni      17.56804160      29.87732359      19.31866345       0.60000000       0.12564838      -0.80592412      -0.47399072       0.00016891      -0.00147329       0.00105245      -5.72713363
Ni      19.30586246      28.08983004      19.31248929       0.60000000       1.80742091       0.57771906      -1.33952061      -0.00084661      -0.00188339      -0.00227391      -5.74177629
Ni      19.30746869      29.88668545      17.57569703       0.60000000       0.96418783      -0.99922900       2.12854349       0.00118005      -0.00093498       0.00058898      -5.73074299
Ni      17.57471950      28.08278301      21.05010551       0.60000000      -0.29666382       1.35358351      -1.19872758       0.00163509      -0.00060878       0.00029565      -5.72198457
Ni      17.56661255      29.89071859      22.82474971       0.60000000       1.62312559      -1.54583734       0.42023646       0.00007086       0.00005659       0.00109570      -5.72940779
Ni      19.30695538      28.11317792      22.81622457       0.60000000      -0.73781800       1.47307574       0.14233052       0.00315680       0.00035775      -0.00124028      -5.72442186
Ni      19.31051493      29.89226319      21.07606661       0.60000000       0.45821875      -0.51882590       0.83107508       0.00085283      -0.00125302      -0.00153531      -5.72762328
Ni      17.56510482      28.12069219      24.57081483       0.60000000      -0.32902538       1.57382548      -1.19692603       0.00249905       0.00092155       0.00059493      -5.72757834
Ni      17.56495917      29.90990699      26.34758281       0.60000000       0.29970650       0.78734362      -1.00040743      -0.00055828      -0.00057286       0.00022669      -5.72993928
Ni      19.31259519      28.14227612      26.34196969       0.60000000       0.53513207       1.95172946      -0.75472978       0.00118045      -0.00064071       0.00000658      -5.72831267
Ni      19.31439796      29.90550936      24.58916936       0.60000000       1.20896264      -0.70213893      -1.42086465       0.00007389       0.00096933       0.00133542      -5.72971481
Ni      17.56345123      28.14906356      28.10493049       0.60000000       0.02234649      -2.22947160       0.14496555       0.00029885       0.00041003      -0.00179317      -5.72939342
Ni      17.56558336      29.92633278      29.87806564       0.60000000      -0.85616546       0.57475028      -0.17074927      -0.00116205      -0.00037592      -0.00049991      -5.73030871
Ni      19.31981587      28.16312674      29.87566699       0.60000000      -0.38595312      -0.06136743       1.50745092      -0.00092943      -0.00004787       0.00045521      -5.73033762
Ni      19.31945928      29.92190147      28.11503522       0.60000000       1.64980240      -0.05450748      -2.19880048      -0.00097683      -0.00075875      -0.00061112      -5.73017317
Ni      17.56549928      28.16805071      31.64117236       0.60000000      -0.65952068      -0.44764308      -1.07543199      -0.00141782      -0.00011942       0.00014062      -5.73055869
Ni      17.56680822      29.93666169      33.41263014       0.60000000       0.79530946      -2.62612329      -0.79620899       0.00058103       0.00012145      -0.00075493      -5.73052102
Ni      19.32362134      28.17411277      33.41145420       0.60000000      -1.35263950      -1.64513835      -0.54355880      -0.00006262       0.00057873       0.00034448      -5.73067391
Ni      19.32308462      29.93394266      31.64683400       0.60000000      -0.17869611      -0.52110474       0.73867008      -0.00064011       0.00079074      -0.00073263      -5.73051333
Ni      17.56783149      31.70272073      -0.01757022       0.60000000      -1.77587477       1.70479726       2.44550068       0.00115522      -0.00055076       0.00021952      -5.73036188
Ni      17.56858902      33.46778590       1.75059334       0.60000000       1.55844317       0.50226998       0.94059485       0.00112590       0.00035740      -0.00019699      -5.73018205
Ni      19.32515581      31.69949050       1.75209077       0.60000000       3.44399103      -0.13026712      -0.59283464       0.00056842       0.00038067       0.00014232      -5.73015660
Ni      19.32537181      33.46750379      -0.01613534       0.60000000      -0.39624941      -0.34560040      -0.35687259       0.00078002       0.00004126      -0.00005764      -5.73021603
Ni      17.56910755      31.69824274       3.51849601       0.60000000      -0.36397200      -0.59033848       1.05131310      -0.00005058      -0.00015489      -0.00000953      -5.73014814
Ni      17.56889765      33.46456243       5.28198751       0.60000000      -0.56270139       1.65493139      -0.07596722       0.00072226      -0.00035814       0.00006256      -5.73030025
Ni      19.32298688      31.68982737       5.28715131       0.60000000      -0.96725930      -1.74659432       1.79769708      -0.00044282       0.00059698      -0.00063870      -5.73005283
Ni      19.32489572      33.46361909       3.51775968       0.60000000       0.61863708       1.32541535      -0.18067975       0.00107122       0.00021380      -0.00049225      -5.73010951
Ni      17.56761650      31.68944670       7.04847803       0.60000000      -0.13568043      -0.34500607      -0.37352569      -0.00040154       0.00014284       0.00015504      -5.73027122
Ni      17.56748857      33.45976964       8.80463952       0.60000000      -2.07718824       2.02202661      -1.31969788       0.00028372       0.00164578       0.00120527      -5.73096496
Ni      19.31679302      31.67996894       8.81096721       0.60000000       0.01770422      -0.29096969      -3.84424202      -0.00021300       0.00012913      -0.00045472      -5.73065382
Ni      19.32284917      33.45841378       7.04480826       0.60000000      -0.63928215       2.54386761       0.05569833       0.00005071       0.00020534       0.00075882      -5.73056972
Ni      17.56339637      31.68101498      10.56636714       0.60000000      -1.77939990       0.52604022       0.64364187      -0.00115412       0.00025899       0.00014948      -5.73008770
Ni      17.56633688      33.45401862      12.31889768       0.60000000      -1.60564433      -0.57263490      -1.03924154       0.00014083       0.00155669       0.00083196      -5.73125738
Ni      19.31212951      31.67354070      12.32126745       0.60000000      -0.24549022       0.93391230      -0.82298893      -0.00072801       0.00114429      -0.00091505      -5.72993177
Ni      19.31999271      33.45338908      10.56194969       0.60000000       2.55104494      -2.14955458      -1.18258705      -0.00052259       0.00079858       0.00139104      -5.73121017
Ni      17.56273164      31.67228960      14.07488158       0.60000000      -0.50705823       1.77365245      -0.97125364      -0.00004481      -0.00019656      -0.00082473      -5.72944999
Ni      17.56732172      33.44887303      15.82771371       0.60000000       0.20420871       1.08947217      -0.21716241      -0.00074352       0.00099413      -0.00146523      -5.73142874
Ni      19.31309238      31.67056328      15.82629120       0.60000000       0.55445593      -0.27502821      -1.00944791      -0.00043880       0.00195347       0.00080324      -5.72935152
Ni      19.31928434      33.44888238      14.07255199       0.60000000      -0.08440787      -0.97022180       0.08945648      -0.00122577       0.00109549       0.00032332      -5.73121697
Ni      17.56556739      31.66766922      17.57770972       0.60000000       0.38045188       0.40542029       1.30446339       0.00117615       0.00087986      -0.00031272      -5.72996819
Ni      17.56832811      33.44726356      19.33464507       0.60000000      -1.32268870      -0.15433547       2.17406861      -0.00044415       0.00122217      -0.00133511      -5.73142123
Ni      19.31565343      31.67155803      19.33174822       0.60000000      -2.28765590       0.30580941       0.40222197      -0.00066746       0.00041169      -0.00141985      -5.73005754
Ni      19.32045307      33.44700192      17.58128384       0.60000000       0.13102870       0.41510061      -0.75719159      -0.00000223       0.00226225      -0.00098490      -5.73131949
Ni      17.56664374      31.66918200      21.08178888       0.60000000       0.81460565       1.46063642      -0.56400277       0.00159930       0.00133723      -0.00145607      -5.73068285
Ni      17.56849623      33.45017247      22.84469403       0.60000000       1.60684066      -0.86121908       1.00108230      -0.00095106      -0.00054468      -0.00093719      -5.73082358
Ni      19.31766872      31.67680136      22.84073304       0.60000000       2.16669315       0.84124369       1.59104734       0.00006107       0.00043041      -0.00023223      -5.73060346
Ni      19.32174207      33.44927797      21.09043761       0.60000000      -0.31798818      -0.33862997      -1.02878273      -0.00039981       0.00097820       0.00074674      -5.73109818
Ni      17.56664363      31.67787649      24.59538881       0.60000000      -0.32461213       0.72308417      -0.26936397      -0.00046726      -0.00095215      -0.00052458      -5.73031372
Ni      17.56821218      33.45624206      26.36148926       0.60000000       0.06674077      -1.27982821       0.81133423      -0.00080058      -0.00057856      -0.00066784      -5.73053974
Ni      19.32076027      31.68597994      26.35830258       0.60000000      -1.04761170       0.88052964      -0.72333388      -0.00108220       0.00025807      -0.00028386      -5.73033053
Ni      19.32308512      33.45481908      24.60390023       0.60000000       0.63024747      -1.32622735      -0.28442755      -0.00129268      -0.00048120      -0.00053701      -5.73068571
Ni      17.56669879      31.68895520      28.11834546       0.60000000       2.76479612      -0.27264643      -0.75165342      -0.00122223       0.00014397       0.00047448      -5.73028821
Ni      17.56790236      33.46323781      29.88557499       0.60000000      -1.19405566      -1.05870814       0.59715812      -0.00035211      -0.00003580      -0.00007825      -5.73041874
Ni      19.32325610      31.69599419      29.88407494       0.60000000       0.27670953       0.35731430       0.23521574      -0.00093167      -0.00000252      -0.00015219      -5.73040628
Ni      19.32424134      33.46153858      28.12359655       0.60000000       1.24482418      -1.72238544      -0.43465844      -0.00115378      -0.00087306      -0.00019900      -5.73049575
Ni      17.56703622      31.69852651      31.64808332       0.60000000       0.09648069       0.25881870      -0.16987624      -0.00035723       0.00064785       0.00003648      -5.73040628
Ni      17.56801518      33.46794723      33.41618630       0.60000000       0.59851436       0.52142932       0.16797485       0.00029195      -0.00013658       0.00059031      -5.73032373
Ni      19.32461239      31.70182392      33.41599360       0.60000000       0.21929401       0.98985665      -1.22805069       0.00072476      -0.00042345       0.00022725      -5.73042929
Ni      19.32495227      33.46663880      31.65077044       0.60000000      -0.84209692       0.02015717       0.37040328       0.00032299       0.00038853       0.00031499      -5.73038101
Ni      21.08316127       0.03321557      -0.01691201       0.60000000       1.54304140       0.44942315      -1.81852761       0.00018971      -0.00009441      -0.00005162      -5.73015070
Ni      21.08274063       1.79865883       1.74834396       0.60000000      -0.13098019       0.72273098      -0.81450708       0.00046403       0.00027893      -0.00032064      -5.73024255
Ni      22.84068154       0.03009378       1.74976797       0.60000000       0.81689407       0.17527758      -0.29061607       0.00030987      -0.00054382      -0.00001753      -5.73013848
Ni      22.84099295       1.79880913      -0.01910388       0.60000000       1.43121029      -0.06902144      -0.78977832       0.00015178       0.00012150      -0.00052175      -5.73014718
Ni      21.08201767       0.02999778       3.51592848       0.60000000      -2.14507977       0.66803182       0.57251288       0.00060709      -0.00034972      -0.00039604      -5.73021263
Ni      21.08193579       1.79828502       5.28009476       0.60000000       0.32844802       2.34160990       1.88027712      -0.00067779      -0.00039738       0.00012987      -5.73040253
Ni      22.83821383       0.02561277       5.27950917       0.60000000      -0.67830698      -0.40378320      -0.46901423       0.00053225       0.00011500       0.00001575      -5.73032635
Ni      22.84013835       1.79550552       3.51371059       0.60000000      -0.75081915      -0.29003177       2.17214990       0.00025080       0.00005967      -0.00066176      -5.73032200
Ni      21.08017533       0.02719309       7.04215955       0.60000000      -0.96828100      -0.57170041       0.77775127      -0.00030901       0.00002056       0.00105365      -5.73054570
Ni      21.08099548       1.79801589       8.80402623       0.60000000       0.68290641      -0.08788303      -0.51870866      -0.00034263       0.00127589       0.00071920      -5.73065937
Ni      22.83589901       0.02221316       8.80061294       0.60000000       0.21415806      -1.83614790      -0.66118312      -0.00057259      -0.00048198       0.00033130      -5.73072487
Ni      22.83854825       1.79461729       7.04088612       0.60000000       1.07545328      -0.73065004       0.86578427      -0.00082858      -0.00002482       0.00036254      -5.73050839
Ni      21.07865234       0.02362099      10.55973410       0.60000000      -1.33095754       1.63383314       0.96051618       0.00003339       0.00127571       0.00032764      -5.73104584
Ni      21.08144653       1.79436324      12.31859107       0.60000000      -0.31863404      -1.57128187       1.54704775      -0.00020221       0.00008600       0.00201259      -5.73059869
Ni      22.83520307       0.01866495      12.31449247       0.60000000       2.56055689       1.83794475       0.24950652       0.00023896       0.00140714      -0.00030769      -5.73111808
Ni      22.83767130       1.79233885      10.55945369       0.60000000      -0.77316373       0.50266166      -2.14388157       0.00043663      -0.00004045      -0.00138431      -5.73090255
Ni      21.07880661       0.01965148      14.07172971       0.60000000      -0.51561861      -2.37634531      -1.57417457       0.00103978       0.00206039      -0.00062584      -5.73122710
Ni      21.08254089       1.79016914      15.82882226       0.60000000       2.57209768       0.69247158      -1.95520160       0.00092631       0.00010758       0.00050520      -5.72983831
Ni      22.83608493       0.01768600      15.82622355       0.60000000       0.68472510       1.31044233       0.49539463       0.00075218      -0.00014563      -0.00043320      -5.73109859
Ni      22.83865393       1.78818804      14.07162312       0.60000000       1.03489958      -0.13868803      -0.37915563      -0.00044633       0.00269420       0.00159643      -5.73020029
Ni      21.07999935       0.01919019      17.58249084       0.60000000      -1.77661103      -2.11325657      -1.12387522       0.00029265      -0.00059762       0.00010591      -5.73123646
Ni      21.08304547       1.79292794      19.33784972       0.60000000       0.42790654       0.06665709       2.70126399       0.00006019      -0.00002035      -0.00066329      -5.73082596
Ni      22.83689554       0.02089316      19.33762303       0.60000000       0.65417879       0.29969467      -0.13799903       0.00047228       0.00036381       0.00057216      -5.73122072
Ni      22.83858883       1.78948860      17.58244504       0.60000000       0.78039263      -2.29084641      -0.29641405      -0.00039690       0.00114617      -0.00045368      -5.73048192
Ni      21.08101965       0.02302455      21.09317362       0.60000000       2.65846954       0.91241331      -0.43823570      -0.00023008       0.00079333       0.00063505      -5.73112470
Ni      21.08287477       1.80003541      22.84674848       0.60000000       0.87526978      -0.23144859       0.51591597      -0.00017418      -0.00056222      -0.00067127      -5.73112071
Ni      22.83787034       0.02785488      22.84923109       0.60000000       1.46810802      -1.13376886      -0.91620792      -0.00006626      -0.00027206      -0.00028252      -5.73093009
Ni      22.83799790       1.79770655      21.09111347       0.60000000       1.99485099      -0.52410850       2.45096105      -0.00151346      -0.00025760      -0.00055176      -5.73119426
Ni      21.08170854       0.02933617      24.60584783       0.60000000      -1.35674491       0.10994068      -0.99113865      -0.00020761      -0.00056744       0.00009074      -5.73083413
Ni      21.08210105       1.80467073      26.36049586       0.60000000      -0.23903220       0.82551337       0.13029570       0.00126581       0.00030752      -0.00011416      -5.73060328
Ni      22.83903373       0.03383346      26.36430973       0.60000000      -1.27211031      -1.19964520      -1.31692352      -0.00000854      -0.00045453      -0.00039071      -5.73062205
Ni      22.83790075       1.80526171      24.60164629       0.60000000      -0.19379874       0.40582922      -0.49753182      -0.00081536       0.00050934      -0.00076967      -5.73067969
Ni      21.08227217       0.03376887      28.12430775       0.60000000      -0.09037141       0.73858316       0.87794052       0.00014385       0.00010327      -0.00002539      -5.73052859
Ni      21.08227611       1.80480348      29.88328499       0.60000000      -0.06325868      -1.66147205      -0.31944562       0.00067371      -0.00027373       0.00076132      -5.73027545
Ni      22.84036389       0.03584236      29.88670275       0.60000000       0.06865748      -0.14824811      -1.64949667       0.00029423       0.00004245       0.00064470      -5.73031342
Ni      22.83842634       1.80674925      28.12028786       0.60000000      -1.50540695       0.19033196       0.16309793       0.00105870      -0.00032870       0.00039959      -5.73031425
Ni      21.08297408       0.03504683      31.65064267       0.60000000      -0.02395734      -0.68964143      -1.57609877       0.00040261       0.00017501       0.00023917      -5.73025721
Ni      21.08297367       1.80175342      33.41419051       0.60000000       0.65509801      -1.30966675       1.15673267      -0.00001706      -0.00008716      -0.00013442      -5.73014754
Ni      22.84136587       0.03413942      33.41670076       0.60000000       0.34270841      -1.52861335       0.52675939       0.00021524       0.00036891       0.00008818      -5.73015440
Ni      22.84013439       1.80351133      31.64786169       0.60000000      -0.73964410      -1.91121756       0.21418734       0.00015454       0.00002806       0.00029722      -5.73011959
Ni      21.08235574       3.56629084      -0.02082972       0.60000000      -1.26486151       0.19465438      -1.10252119       0.00035145      -0.00027313      -0.00057530      -5.73023057
Ni      21.08180487       5.32952346       1.74672579       0.60000000       0.00997267       0.29991936      -0.26760609       0.00045345       0.00033981      -0.00064434      -5.73043686
Ni      22.84029596       3.56261723       1.74600723       0.60000000       1.10816709      -0.44082739      -0.33991818       0.00023335       0.00031655      -0.00062365      -5.73031437
Ni      22.83872013       5.32940397      -0.02391919       0.60000000       0.34843437       0.25922414      -1.61230644       0.00052370       0.00003476      -0.00009771      -5.73026955
Ni      21.08229152       3.56476554       3.51493683       0.60000000      -2.14375911       2.11751585      -1.49493570      -0.00005585       0.00064157      -0.00027462      -5.73042089
Ni      21.08177207       5.33193966       5.28437437       0.60000000      -1.26266198       0.04396722      -1.14636713      -0.00122921       0.00131218       0.00027184      -5.73041075
Ni      22.83931300       3.56224611       5.27888152       0.60000000       0.91019216      -0.06093452       0.59654868      -0.00035259       0.00054864      -0.00048417      -5.73043591
Ni      22.83945863       5.32623332       3.51289360       0.60000000      -0.86178585      -0.48972504       1.87763796      -0.00026134       0.00076507      -0.00049486      -5.73051852
Ni      21.08163860       3.56830530       7.04734218       0.60000000       1.90204335      -0.73321056       0.52638574      -0.00034759       0.00145627       0.00045327      -5.73028189
Ni      21.08180814       5.34156764       8.81999242       0.60000000       0.38317117      -0.64153616      -0.49345336       0.00020074       0.00151416      -0.00051296      -5.72851062
Ni      22.83782101       3.56467524       8.80552474       0.60000000       2.89278769      -0.41574141       0.45783466      -0.00032572       0.00062230      -0.00002656      -5.73016292
Ni      22.83743663       5.33029039       7.04702770       0.60000000      -0.96935252      -0.41075524       1.63120940      -0.00011157      -0.00012370      -0.00026816      -5.73023278
Ni      21.08220833       3.57012101      10.56951235       0.60000000       0.46224391       0.08904098       0.88173833      -0.00013751       0.00263543       0.00202061      -5.72922343
Ni      21.08592639       5.34552997      12.33972710       0.60000000      -1.24155796      -1.25597810      -1.06738237       0.00011861       0.00234234       0.00294944      -5.73724592
Ni      22.83884628       3.56131878      12.32080887       0.60000000      -0.07014105      -0.40154055      -1.64060768      -0.00188310       0.00230434       0.00014759      -5.72814190
Ni      22.83638876       5.33725448      10.57491345       0.60000000       1.02116193       0.25581168       1.41202612       0.00077327       0.00072500       0.00111887      -5.72598404
Ni      21.08408566       3.56525375      14.08022879       0.60000000      -1.14663770       1.50726996      -0.02885953      -0.00007651       0.00342638       0.00145313      -5.73058480
Ni      21.08621075       5.34700421      15.83724948       0.60000000       0.70580431      -0.67863687      -0.88685828       0.00041094       0.00172839      -0.00131809      -5.74377972
Ni      22.83797487       3.55990649      15.82922956       0.60000000       0.15463172       0.81178986       0.71445129      -0.00239738       0.00325792       0.00106924      -5.73085636
Ni      22.83641534       5.33437207      14.08346943       0.60000000      -0.47991686       0.98244127       2.10180129       0.00143443       0.00455388       0.00145373      -5.75173479
Ni      21.08427764       3.56478199      17.58326769       0.60000000       0.38134647       1.05665532       2.14453162       0.00031019       0.00141410      -0.00120041      -5.73075980
Ni      21.08243580       5.35076793      19.32727085       0.60000000      -0.44540276      -0.07611064       0.83122386      -0.00495112       0.00314043      -0.00334658      -5.74218071
Ni      22.83519466       3.56883817      19.33247660       0.60000000      -0.48210858      -0.37231971       0.20142707       0.00093101       0.00251492       0.00025481      -5.72869295
Ni      22.82856305       5.34528744      17.57546937       0.60000000      -0.99070190      -1.18820377       0.20027877      -0.00038879       0.00252746      -0.00233596      -5.74836528
Ni      21.08283170       3.57241659      21.08680506       0.60000000       1.10117434      -0.88978987      -1.22513963       0.00251546       0.00304778      -0.00150489      -5.72892290
Ni      21.07737741       5.35957637      22.82567493       0.60000000      -0.25378503      -1.75134422      -0.47708511       0.00006456      -0.00068921      -0.00141923      -5.72721356
Ni      22.83339729       3.58075052      22.83646450       0.60000000       0.78042605      -0.95957487       0.48751717       0.00036241       0.00227140      -0.00267595      -5.73004657
Ni      22.82293628       5.36515614      21.06633674       0.60000000      -0.58638837       0.88144412       0.85403751      -0.00111337       0.00091948      -0.00128660      -5.72554475
Ni      21.08124288       3.57919790      24.59466051       0.60000000       2.24156085       1.14018740      -0.29791772      -0.00027268      -0.00053612       0.00003527      -5.73029876
Ni      21.07613932       5.35617635      26.34081249       0.60000000       0.72566306      -0.57441383      -0.56972591      -0.00099049       0.00006257       0.00008422      -5.72930831
Ni      22.83426339       3.58153313      26.35121235       0.60000000      -0.84932610       0.61711957       0.95542950      -0.00050830       0.00064819       0.00045752      -5.73010874
Ni      22.82429504       5.36338817      24.57739443       0.60000000      -0.17344124      -0.30626946      -0.18068601      -0.00056579       0.00003402       0.00068038      -5.72866046
Ni      21.08046654       3.57776081      28.11387785       0.60000000      -0.71392596       0.11265566      -0.81377044       0.00057454       0.00016162       0.00094190      -5.73019695
Ni      21.07766937       5.34518080      29.87004338       0.60000000      -0.92677609      -1.27988508       0.50153738       0.00075980       0.00060086       0.00006341      -5.72989780
Ni      22.83665622       3.57553886      29.87726666       0.60000000       0.18777596       0.69153269      -1.67381274       0.00046313      -0.00003328       0.00032184      -5.73002112
Ni      22.82932911       5.35205292      28.10280771       0.60000000       1.73893686      -1.88108023       1.17619030       0.00011053       0.00038383       0.00044587      -5.72961986
Ni      21.08141812       3.57182455      31.64367500       0.60000000      -1.36638625      -0.10901872      -0.60123332       0.00026536      -0.00000232       0.00016433      -5.73010343
Ni      21.08051091       5.33468354      33.40729238       0.60000000      -0.29085583       1.10544327       0.22430436       0.00022836      -0.00006054      -0.00012372      -5.73014247
Ni      22.83940203       3.56783987      33.41066944       0.60000000      -0.77705029       0.52081516      -1.26533654       0.00007725      -0.00010026      -0.00040893      -5.73009992
Ni      22.83512469       5.33881937      31.63775742       0.60000000      -0.11802771      -1.32879914       2.33165371       0.00010654       0.00020812       0.00000447      -5.72994733
Ni      21.08023026       7.09436875      -0.02463696       0.60000000       1.54204463       0.83882379      -0.42834692       0.00023031       0.00054806      -0.00018060      -5.73036867
Ni      21.08065637       8.85368929       1.74714910       0.60000000       0.55867491      -1.26227521      -0.98310903       0.00006729       0.00036131       0.00112619      -5.73052967
Ni      22.83844420       7.08962015       1.74443840       0.60000000       2.00592263      -0.20119124       2.48894684       0.00039836       0.00090357       0.00028584      -5.73048913
Ni      22.83571657       8.85304389      -0.02688044       0.60000000       1.22329836      -0.70908395       0.40976534       0.00031947       0.00065239      -0.00011480      -5.73044682
Ni      21.08154047       7.09297305       3.51704092       0.60000000      -0.42105975      -0.36945392       1.50598651      -0.00093837       0.00107739       0.00062760      -5.73053795
Ni      21.08092482       8.85755351       5.29031517       0.60000000      -1.72321975       2.52519005      -1.06588826      -0.00140572       0.00073799       0.00004425      -5.73074591
Ni      22.83784155       7.09028745       5.28177037       0.60000000       1.02048437      -0.06575474      -0.20328972      -0.00003242      -0.00028365      -0.00047822      -5.73074669
Ni      22.83801352       8.85052217       3.51496577       0.60000000       1.03983702       1.36861731       0.92907570      -0.00110884       0.00049849       0.00057654      -5.73058802
Ni      21.08128589       7.10104060       7.05795490       0.60000000      -1.83074893       0.81552243      -0.92463220      -0.00144558       0.00035781      -0.00027774      -5.73010451
Ni      21.08270400       8.87120104       8.83835825       0.60000000      -2.36800505       1.64558782       0.64647214       0.00200867      -0.00085353       0.00039337      -5.72652042
Ni      22.83488180       7.10013381       8.81959023       0.60000000      -0.41292948      -0.36910753      -1.89347759       0.00046308      -0.00067730       0.00093693      -5.72697258
Ni      22.83557164       8.85359561       7.05228245       0.60000000       1.17766411       0.67422697      -0.78496140      -0.00082684      -0.00096637      -0.00167533      -5.73010278
Ni      21.08565597       7.12129687      10.60315821       0.60000000       1.15163763      -2.11320141      -0.76555989       0.00152883       0.00020261      -0.00019591      -5.72723007
Ni      21.10807565       8.91341603      12.41673156       0.60000000      -0.96744900      -0.77614665       1.33614125       0.00042084      -0.00027407      -0.00029081      -5.73722219
Ni      22.83434638       7.11902519      12.35708659       0.60000000       0.47793730      -0.47390649      -2.40629607      -0.00162898      -0.00181713       0.00109353      -5.75788742
Ni      22.83469024       8.87221838      10.60582608       0.60000000      -1.54782799       0.30360930      -0.29207516      -0.00042852       0.00112227       0.00073689      -5.74135840
Ni      21.09912828       7.13148651      14.11948025       0.60000000       1.65690591      -0.14783294      -1.07350960      -0.00119123       0.00114375      -0.00147722      -5.62529474
Ni      22.65469021       9.01416075      17.39540926       0.60000000      -0.09644297      -0.74126661       0.28130037      -0.00012214      -0.00664199      -0.00499932      -5.42629284
Ni      22.81822041       7.11929046      15.82761832       0.60000000      -1.73704121       0.04912537       0.30371621       0.00158869       0.00915254       0.00015298      -5.62785637
Ni      22.83581546       8.91961820      14.15879871       0.60000000      -1.00344879      -0.10553332      -1.96224616       0.00406888      -0.00231576       0.00703922      -5.48942012
Ni      21.08190120       7.13489379      17.56402662       0.60000000      -0.54901891       0.32400285      -1.39878735       0.00264097       0.00578263      -0.00278119      -5.62311780
Ni      21.05073492       8.95800095      19.27924857       0.60000000      -0.86816676      -0.91664159      -1.38478096       0.00177670      -0.00160494       0.00557515      -5.63785827
Ni      22.79509497       7.16814603      19.28023712       0.60000000      -0.55430530       0.48223229       1.56062218       0.00294540      -0.00875302       0.00718632      -5.74354029
Ni      21.06673586       7.15384411      21.05195687       0.60000000       0.26398472       1.66046851      -0.08543199      -0.00180581      -0.00099213       0.00484699      -5.74585897
Ni      21.03237709       8.95328203      22.75929279       0.60000000       0.36156869       1.18016457      -0.14302624       0.00040945       0.00107567      -0.00034267      -5.73696697
Ni      22.80176511       7.15857346      22.79478825       0.60000000       0.79995351      -1.65560241      -0.43937170       0.00008091      -0.00292490       0.00103671      -5.72331429
Ni      22.74783685       8.98106051      20.99208481       0.60000000       0.69779932      -1.18646204       0.88393520       0.00483791      -0.00750148       0.00354709      -5.71773607
Ni      21.06471895       7.14418031      24.56022841       0.60000000      -1.04252365      -1.45535395       0.09112716      -0.00205247       0.00002868      -0.00137276      -5.72580850
Ni      21.05098407       8.91309188      26.30101384       0.60000000       0.56211379      -0.55879669      -0.87253163      -0.00114719       0.00036241       0.00083166      -5.72529417
Ni      22.81403500       7.13646724      26.32142205       0.60000000      -0.46690299       2.13459330       3.57329592      -0.00135523      -0.00025076      -0.00016814      -5.72781509
Ni      22.78099624       8.93333192      24.52474756       0.60000000       1.29889868      -0.86032512       0.64943485      -0.00068660       0.00224841       0.00073621      -5.72173262
Ni      21.06960208       7.12454716      28.09084250       0.60000000       0.17365817       2.97120290      -2.10638685      -0.00099415      -0.00026824       0.00028409      -5.72904718
Ni      21.06601829       8.88167902      29.84913983       0.60000000       0.97295918      -0.51231540      -1.30488188       0.00052123       0.00088865       0.00011703      -5.72907323
Ni      22.82618133       7.11360847      29.86034454       0.60000000      -1.84012029      -1.70994694       1.09778394      -0.00071314       0.00077762      -0.00020217      -5.72947586
Ni      22.80828550       8.89438254      28.07520547       0.60000000      -0.40019429       0.71432131       0.89533638       0.00125655       0.00080863       0.00093584      -5.72810274
Ni      21.07610717       7.10574205      31.63149489       0.60000000      -0.33690233       0.17505398       0.53151098      -0.00071677       0.00032804      -0.00045283      -5.72983891
Ni      21.07648090       8.86046671      33.39998332       0.60000000      -0.10734713      -0.56789434       1.16854904      -0.00028338       0.00089477      -0.00049676      -5.73015314
Ni      22.83475953       7.09724381      33.40313534       0.60000000       0.76478570       1.56986359      -0.57656444       0.00042195      -0.00001345      -0.00038059      -5.73013288
Ni      22.82659811       8.86724598      31.62548280       0.60000000      -0.94301838       1.05485513      -2.01217928      -0.00063566       0.00074461      -0.00036805      -5.72967899
Ni      21.07844696      10.61402469      -0.02629664       0.60000000      -0.59291747       0.99183630      -0.65331371       0.00029705       0.00015162       0.00144466      -5.73060155
Ni      21.08041517      12.37041394       1.74941896       0.60000000      -0.17765635      -0.40292316       0.97402930       0.00009565       0.00014604       0.00154940      -5.73070461
Ni      22.83674529      10.60989301       1.74549139       0.60000000       0.45337174      -0.79258678       0.09675352       0.00027074       0.00034502       0.00159809      -5.73057127
Ni      22.83414209      12.36832096      -0.02697626       0.60000000      -1.33091841      -0.65876404       0.60062546      -0.00013581      -0.00020013       0.00065634      -5.73071188
Ni      21.08101011      10.61474254       3.52163063       0.60000000      -0.34410549       0.09267384      -0.91094152      -0.00091927      -0.00114824      -0.00040594      -5.73054796
Ni      21.08000215      12.37639593       5.29771203       0.60000000       0.63602895       0.17565350      -1.45387666      -0.00131863       0.00131288      -0.00067322      -5.72899193
Ni      22.83605160      10.61221695       5.28745443       0.60000000       1.53581029       1.31106121      -0.73035579       0.00030957      -0.00066446      -0.00050832      -5.73060721
Ni      22.83635883      12.36901690       3.51932844       0.60000000       1.36887337       1.83592801      -0.27531665      -0.00075468      -0.00129337      -0.00069146      -5.73045999
Ni      21.07983484      10.62177259       7.06633055       0.60000000       1.44841568       1.16998470       0.57408012       0.00006812       0.00162327       0.00118644      -5.72842598
Ni      21.08085972      12.38124611       8.84848564       0.60000000      -0.70846148      -0.61274206       0.59841045      -0.00015306      -0.00013067       0.00191889      -5.74366647
Ni      22.83318769      10.61100193       8.82435640       0.60000000       0.23894551      -2.14986063      -0.04579869      -0.00097812      -0.00084997       0.00130358      -5.73029941
Ni      22.83154666      12.37318188       7.06252446       0.60000000       0.62196072       0.94623773       0.12029835      -0.00262905      -0.00140422      -0.00064348      -5.72709614
Ni      21.09635447      10.63525612      10.63780019       0.60000000       2.19592921       1.45490106       0.63357006      -0.00127164      -0.00136240       0.00214548      -5.74738681
Ni      21.12448886      12.38170611      12.43829066       0.60000000      -0.19329123       0.27084500       2.77747029       0.00210291      -0.00172462       0.00004636      -5.66086662
Ni      22.86416969      10.63563228      12.43588907       0.60000000       1.10883614      -0.43733775       0.83362143      -0.00282343      -0.00244989       0.00474983      -5.63315308
Ni      22.82739087      12.34585236      10.60266022       0.60000000      -0.50374672      -0.39290257      -0.45801994       0.00233591       0.00526144       0.00394657      -5.76656729
Ni      21.28424392      10.75455789      14.30407594       0.60000000      -0.42917084      -0.13489573      -0.05196171       0.00674408       0.00157494       0.00297673      -5.51290411
Ni      20.19183203      11.28728009      18.49455782       0.60000000      -0.31330248       1.19178010      -1.60828319       0.01107364      -0.01425358      -0.01356483      -5.60966378
Ni      22.61276947      10.81324977      19.09174424       0.60000000       0.09778563       0.73600578      -2.26820923       0.00273428      -0.00153343       0.00555319      -5.68337542
Ni      22.03879579      11.39177619      16.65006841       0.60000000      -0.35989665      -2.23710153      -1.44533777       0.00703158      -0.01413589      -0.00145583      -5.49185169
Ni      20.87418027      10.81315273      20.87066060       0.60000000      -2.60358512       0.78602504       1.33161314      -0.00793224       0.00655602      -0.00165870      -5.65292621
Ni      20.94582253      12.50052864      22.65704401       0.60000000      -1.55935657      -2.03610424       0.42161831       0.00200562       0.00086511      -0.00101594      -5.65917665
Ni      22.70784769      10.74550145      22.69019151       0.60000000      -0.85192378       0.70247721      -1.79467154       0.00046941       0.00057915      -0.00719124      -5.71810585
Ni      22.59309206      12.57067184      20.84515719       0.60000000      -0.98562122      -0.54369688       0.41590601      -0.00379394       0.00429688       0.00429717      -5.68091446
Ni      21.00657451      10.71224131      24.48685782       0.60000000       0.15660204      -0.08499837      -0.46245853      -0.00126435      -0.00052109      -0.00436041      -5.73557973
Ni      21.01327373      12.45472537      26.24202490       0.60000000      -0.59218995       1.72617307      -0.16970542       0.00087623       0.00027385       0.00357283      -5.72383755
Ni      22.77674259      10.68111105      26.27713103       0.60000000      -0.80639931       0.33820748       0.36954198      -0.00267810       0.00133854      -0.00129912      -5.72291106
Ni      22.73230374      12.46688360      24.46412860       0.60000000       0.17823060       0.39904626      -0.07120689       0.00073822      -0.00148324       0.00184429      -5.73390347
Ni      21.04710972      10.66458672      28.05578282       0.60000000      -0.70495540       0.48238993      -0.92362685      -0.00132414       0.00112034       0.00088140      -5.72600007
Ni      21.05306541      12.40061522      29.82832456       0.60000000      -0.19430465      -2.01316686       1.19709065       0.00187753      -0.00081554       0.00309063      -5.72815657
Ni      22.81130245      10.64052303      29.84107706       0.60000000      -0.75177798      -1.03318341      -1.23087951       0.00083425       0.00016834      -0.00028181      -5.72869205
Ni      22.78843904      12.41518125      28.04631978       0.60000000       1.20639855      -0.75074873       0.18553187       0.00031392       0.00084701       0.00145385      -5.72544962
Ni      21.06824096      10.62912321      31.61872304       0.60000000       0.20135774       0.31756007      -1.13985591      -0.00033438       0.00108624       0.00061079      -5.72951162
Ni      21.07367605      12.37435616      33.39673532       0.60000000       0.89645071      -0.66040686       0.11775773      -0.00100844       0.00102386      -0.00137662      -5.73045808
Ni      22.83024679      10.61673960      33.39783172       0.60000000      -0.76046886       0.88737332      -0.79807563      -0.00090912       0.00096019      -0.00071702      -5.73025417
Ni      22.81997028      12.38066792      31.61764757       0.60000000       2.55898581       1.07193867      -0.76008051       0.00037549       0.00064790       0.00105095      -5.72966117
Ni      21.07848516      14.12545741      -0.02533366       0.60000000      -0.19894033       0.59924949       0.32310505      -0.00033274      -0.00107439       0.00045060      -5.73093987
Ni      21.08069470      15.88161404       1.75055773       0.60000000      -0.43818388       1.80651677       0.92013858       0.00082313      -0.00045989       0.00156712      -5.73088676
Ni      22.83587210      14.12418236       1.74802135       0.60000000       1.24924115       0.74398061      -0.05000841       0.00011501      -0.00027883       0.00105600      -5.73077029
Ni      22.83453719      15.87822558      -0.02534427       0.60000000      -0.19544577      -0.42317711      -0.39628745      -0.00003449      -0.00156791       0.00058387      -5.73088640
Ni      21.08067723      14.12994093       3.52593615       0.60000000       1.75775434      -0.36425724       0.46894421      -0.00103761       0.00003630      -0.00067576      -5.72982311
Ni      21.07730337      15.89161832       5.30476746       0.60000000       0.44510343       0.91895469      -0.40228292      -0.00110260      -0.00127578      -0.00112971      -5.73055917
Ni      22.83230423      14.12904055       5.29407040       0.60000000      -0.64479600      -0.11738530      -2.11421436      -0.00176344      -0.00115932      -0.00099436      -5.72841150
Ni      22.83354527      15.88266845       3.52352583       0.60000000      -0.35298765       0.31363359      -0.40547429       0.00055241      -0.00048034      -0.00046073      -5.72988015
Ni      21.07760273      14.13747305       7.07611925       0.60000000      -1.55251036       1.17942049       0.61295578       0.00078258       0.00154677       0.00101782      -5.73961657
Ni      21.07694652      15.89976454       8.85300818       0.60000000      -0.36959421      -0.17467384       1.11433293      -0.00028455      -0.00295501       0.00416167      -5.64231873
Ni      22.81441864      14.13294118       8.84877889       0.60000000      -0.24650554      -2.00815930       0.06968785       0.00015650       0.00436543      -0.00053925      -5.75899184
Ni      22.81896312      15.88795383       7.07382186       0.60000000      -0.06314717      -0.25963280      -0.16619580      -0.00022294       0.00316571       0.00077668      -5.74288285
Ni      21.08447647      14.13317172      10.62700138       0.60000000      -0.37966490      -0.42777983       1.58126434       0.00542625      -0.00204984       0.00224548      -5.63368362
Ni      22.78149574      14.04022145      12.35089852       0.60000000       0.23563125       0.41137583       0.49581777      -0.00002911      -0.00517736      -0.00025568      -5.56771922
Ni      22.69895778      15.90685721      10.66478796       0.60000000      -0.39354312       0.56908641       1.29526471      -0.00029910      -0.00313429       0.00121098      -5.51286149
Ni      20.20608829      14.93131672      14.90038854       0.60000000       1.50129966       1.28445486      -1.12413093       0.00486780      -0.01030362       0.00221316      -5.60882503
Ni      22.04488809      13.09471492      14.68384918       0.60000000      -0.49251780       1.65524845      -0.24060018      -0.00571603      -0.00351789       0.00010020      -5.62923139
Ni      22.44781143      15.60463815      14.04898132       0.60000000      -0.96341702       0.62656215      -1.39544865      -0.00279639       0.00200523      -0.00476965      -5.51151443
Ni      20.21271574      13.11069595      16.69592974       0.60000000      -2.01672071       1.78881964      -1.64223186      -0.00410634      -0.00101291       0.00832259      -5.69170988
Ni      20.09594328      14.85731542      18.54063043       0.60000000       0.03736345      -0.55723186      -1.22120090       0.00002751      -0.00182180       0.00227593      -5.54671836
Ni      24.37708077      12.51651781      19.10991534       0.60000000      -0.46583086       0.58377554       3.17358988       0.00679948      -0.00200252       0.00617037      -5.68450063
Ni      22.03283554      16.25325582      18.32488841       0.60000000       0.95363619       1.50290842       2.12103474      -0.00098437       0.00546255       0.00510298      -5.53182799
Ni      22.00559880      13.22195612      18.49453825       0.60000000      -0.06783054      -0.34866839       0.55592031      -0.00343252      -0.01028107      -0.00916891      -5.64765185
Ni      20.97147777      16.00089557      22.54076763       0.60000000      -0.00204953      -1.11911990      -2.03546892       0.00381410      -0.00246491      -0.00322684      -5.59754443
Ni      22.69612615      14.24093623      22.65419836       0.60000000       0.86758610      -0.05226567       3.50994397       0.00371579      -0.00186880      -0.00063926      -5.65332264
Ni      21.86147377      15.00275714      20.41228632       0.60000000       0.26091907       0.16633844      -0.74876932       0.00757293       0.00344610      -0.00053116      -5.48739439
Ni      20.97010154      14.24548434      24.40382015       0.60000000       0.48518228      -0.42218935      -0.42152317       0.00206289       0.00290586      -0.00116344      -5.73190647
Ni      21.01054170      15.93105211      26.21207574       0.60000000      -0.24360324      -1.02219691       0.77116601       0.00154368      -0.00048977      -0.00204499      -5.71930647
Ni      22.76081374      14.18779749      26.23899546       0.60000000      -1.46743428      -0.68999856      -1.40903285       0.00127136       0.00059857      -0.00034507      -5.72386730
Ni      22.74187225      15.95508708      24.41074769       0.60000000       0.13137101       0.93839664       1.34735309      -0.00475694       0.00518890      -0.00048889      -5.72588575
Ni      21.03186370      14.17036440      28.02586183       0.60000000      -0.12694014       1.31089472       2.61077566       0.00042523      -0.00051890       0.00229270      -5.72345340
Ni      21.05243193      15.88844655      29.82696119       0.60000000       0.26019611      -0.54092741      -0.00425978       0.00076317       0.00061285       0.00228297      -5.72884130
Ni      22.80568356      14.14234148      29.83207594       0.60000000       0.23658389      -0.93138268      -0.68608799       0.00269607      -0.00131511       0.00293562      -5.72885972
Ni      22.79161464      15.89610369      28.04327092       0.60000000      -2.33868337       0.92962871       0.45652884      -0.00005857       0.00179979       0.00276779      -5.72603440
Ni      21.06466094      14.13374558      31.61456984       0.60000000      -0.03517704      -1.06803378       0.55953117      -0.00050778       0.00208371      -0.00090730      -5.72996014
Ni      21.07426056      15.87870536      33.39809619       0.60000000      -1.28726679       0.78726210       1.06179267      -0.00030575       0.00048899      -0.00085260      -5.73089451
Ni      22.82922467      14.12525497      33.39782827       0.60000000       0.02183910       0.50961956      -0.34742301      -0.00128305       0.00099452      -0.00128398      -5.73058999
Ni      22.82145032      15.87935726      31.62012443       0.60000000       2.45777959      -1.88791202       1.03435528      -0.00043309       0.00116623      -0.00077744      -5.73035413
Ni      21.07942522      17.63331463      -0.02485691       0.60000000      -0.87549009      -1.37474308       1.25341480       0.00130030      -0.00168693       0.00035578      -5.73111796
Ni      21.08101393      19.39032078       1.74940564       0.60000000      -0.52513060       0.86592454       1.34370885      -0.00066741      -0.00083785       0.00033176      -5.73105174
Ni      22.83521553      17.63495004       1.74986286       0.60000000       0.18871645       0.80885428       1.13211941       0.00125959      -0.00093962       0.00031487      -5.73099291
Ni      22.83573227      19.38727901      -0.02371063       0.60000000       0.00130547      -1.08547283      -1.36071276       0.00114756      -0.00131556       0.00001365      -5.73102319
Ni      21.07966044      17.63974581       3.52678770       0.60000000      -1.60146422       0.60145915       0.01551565      -0.00218803       0.00049429      -0.00173810      -5.72890544
Ni      21.06986629      19.39594905       5.30825407       0.60000000      -0.71209018       0.46158745       0.73082779      -0.00049807      -0.00030047      -0.00058185      -5.72929227
Ni      22.82391491      17.64069084       5.30330274       0.60000000       0.96464971       1.22356883       2.02125503      -0.00214313       0.00029421      -0.00185718      -5.72924566
Ni      22.83034276      19.39119574       3.52713192       0.60000000       0.78771265      -0.65809002      -1.13682598      -0.00084050       0.00034191      -0.00064954      -5.72927922
Ni      21.06600171      17.65282300       7.09197414       0.60000000      -0.34362774       0.76231514      -0.76540171       0.00015575      -0.00026300      -0.00104722      -5.74024975
Ni      21.01316343      19.39558974       8.90483216       0.60000000      -0.97494259       1.18964586       0.29491694      -0.00267569       0.00393283       0.00038188      -5.64028174
Ni      22.76574182      17.63527278       8.87401009       0.60000000       2.80980295       2.52981596       1.01251249      -0.00494669       0.00073878      -0.00158881      -5.65430462
Ni      22.79494890      19.38904415       7.09798113       0.60000000      -0.18521542       0.90609650      -0.30331558      -0.00218632      -0.00034118      -0.00089731      -5.74014771
Ni      20.29313063      18.50760697      11.26113408       0.60000000      -1.24134414      -0.20295599       1.85728282       0.00345930      -0.00691154       0.00206355      -5.47482604
Ni      20.28882960      20.28639558      13.15340711       0.60000000       1.75408127      -1.50990759       2.80214725       0.00151211       0.00302629      -0.00169942      -5.53320223
Ni      22.47531303      17.58132745      12.44270016       0.60000000      -0.84925904       0.19212206      -2.06588906      -0.00084344      -0.00185913       0.00266675      -5.41623782
Ni      22.65045436      19.29626416      10.68806832       0.60000000      -0.99538180      -1.37470817      -0.59945081      -0.00304345      -0.00491238       0.00313577      -5.61619568
Ni      20.27495682      16.74731011      13.15898968       0.60000000       1.36884631       1.46512331      -1.69558099       0.00172723      -0.00604533      -0.00358516      -5.42172210
Ni      20.24368942      18.54060412      15.00315678       0.60000000       0.28892599       0.35256811      -0.04981509       0.00878260      -0.00527759      -0.00305608      -5.53706241
Ni      22.45110346      17.12356921      15.80125326       0.60000000      -0.07690805       0.62855806      -0.54243782       0.00793180      -0.00940179      -0.00405700      -5.53273010
Ni      22.44743576      19.27669972      14.26907808       0.60000000      -0.55583913      -0.63186714       1.73665204       0.00141300      -0.00606056      -0.00672326      -5.52298987
Ni      20.21663897      16.71607642      16.73254290       0.60000000       0.46692254       0.17918513       0.53264063       0.00666835      -0.00829775      -0.00743606      -5.63504678
Ni      20.14567000      18.59490552      18.49616973       0.60000000      -0.14816762       0.74910496      -1.90673822       0.00464611      -0.00377216       0.00093450      -5.66813213
Ni      22.44796784      18.33525512      19.07042115       0.60000000       0.91701262       1.43887977       0.98948144       0.00068000       0.00757712      -0.00169358      -5.44709218
Ni      21.93983154      19.01886847      16.85210488       0.60000000      -0.35633175      -0.22301993       0.39609398      -0.00892032       0.01235084       0.00317529      -5.58826852
Ni      20.89939028      17.78493232      20.78281106       0.60000000       0.16860594       0.61564441       1.20908015       0.00607306      -0.00249141       0.00078176      -5.55218303
Ni      21.00307000      19.40153093      22.68495692       0.60000000      -0.14663922      -1.33162608       1.45935577      -0.00460838       0.00589710      -0.00155886      -5.66568226
Ni      22.76550117      17.67046628      22.48129571       0.60000000       0.97075000      -1.32347531      -2.44869667       0.00135584       0.00149256      -0.01186285      -5.50194401
Ni      22.56367840      19.72147483      20.92428968       0.60000000      -0.44392302       1.15326101      -0.77604975       0.00129954       0.00199325      -0.00049229      -5.58957225
Ni      20.99945962      17.66840011      24.39435711       0.60000000       0.70684829       0.57065669       0.26596387      -0.00220848      -0.00167346      -0.00728691      -5.74198729
Ni      21.03234790      19.36448348      26.25787992       0.60000000      -1.17710221      -1.84833565      -0.43776396       0.00146072      -0.00074153      -0.00081714      -5.74345577
Ni      22.78081497      17.63825711      26.25307428       0.60000000      -0.33216189       0.47447805       0.90683484      -0.00022869       0.00339885      -0.00191653      -5.72162551
Ni      22.77646299      19.36448711      24.46374590       0.60000000       0.07448398      -1.18667748       0.30783687      -0.00020570      -0.00130461      -0.00208744      -5.74682134
Ni      21.04072909      17.63257996      28.03895566       0.60000000      -0.48503078      -0.78481146       1.14011616       0.00158835       0.00123076      -0.00023388      -5.72408128
Ni      21.06146572      19.37240330      29.84329601       0.60000000      -0.37365065      -0.63646945       1.09986611      -0.00155966       0.00222526      -0.00065963      -5.72785282
Ni      22.81284384      17.62774308      29.84181179       0.60000000       2.07848232       0.79243207      -0.47703724       0.00100836       0.00164220      -0.00000984      -5.73000652
Ni      22.80593620      19.36933911      28.06690042       0.60000000      -1.77243182       1.87513424       0.04114650      -0.00182018       0.00248911       0.00106694      -5.72504491
Ni      21.06806453      17.62820385      31.61995871       0.60000000       0.59992297      -0.42854348      -1.44493949      -0.00036073       0.00231657       0.00083745      -5.73043019
Ni      21.07693310      19.38344793      33.40076212       0.60000000      -0.88796111       1.99851291      -0.05172828       0.00011445      -0.00022176       0.00111905      -5.73094583
Ni      22.83163591      17.63019759      33.40067742       0.60000000       2.65437245      -0.36294244      -0.74221042      -0.00139751      -0.00069754      -0.00024910      -5.73077822
Ni      22.82695592      19.37925763      31.62745874       0.60000000      -0.45900433       0.17189824      -0.15513781       0.00021228       0.00056265       0.00001743      -5.73048699
Ni      21.08043531      21.14272121      -0.02441525       0.60000000      -0.19540905      -0.96505246      -0.29820646       0.00160916      -0.00056563      -0.00021317      -5.73109633
Ni      21.08058225      22.90029471       1.74994844       0.60000000       0.33134246       0.30701536      -0.26018014      -0.00197189      -0.00254104      -0.00063177      -5.73065162
Ni      22.83507430      21.14429660       1.75150368       0.60000000      -1.39403788       1.14108736       0.03984401      -0.00007150      -0.00102007       0.00032186      -5.73105353
Ni      22.83715201      22.89885146      -0.02095951       0.60000000       0.66725018       0.14556495       1.77781917      -0.00053038      -0.00050301       0.00139626      -5.73101318
Ni      21.07724960      21.14498799       3.52536382       0.60000000       0.86328422      -0.24909433      -0.79744495      -0.00162403       0.00058279       0.00008422      -5.72808504
Ni      21.06326559      22.88952835       5.31064352       0.60000000       2.19927525      -0.43201642       0.62482584      -0.00214796      -0.00031970       0.00319177      -5.73753297
Ni      22.81394582      21.13943554       5.31418433       0.60000000      -0.88182771      -1.41615719      -0.08258431      -0.00180524       0.00032768      -0.00178426      -5.72576886
Ni      22.82772159      22.89564067       3.53147016       0.60000000       0.31087560      -0.54625434      -0.76393845      -0.00260329      -0.00027707       0.00155786      -5.72942775
Ni      21.03594974      21.13873697       7.10906488       0.60000000       0.70210708       0.73239708       0.87893789      -0.00121766       0.00100843      -0.00219456      -5.75757927
Ni      20.97026509      22.82375480       8.92790801       0.60000000      -0.16232354      -0.10425102      -0.98829762       0.00398541       0.00662192      -0.00067582      -5.71693516
Ni      22.74202554      21.10076328       8.91036948       0.60000000       0.44645192       1.76036933      -1.78927000      -0.00313532      -0.00057150       0.00106098      -5.73621720
Ni      22.78174654      22.86704526       7.11291815       0.60000000       2.02782582       1.77793052       1.55037281       0.00151893      -0.00016903      -0.00307859      -5.72476155
Ni      20.84097788      20.97436881      10.75550123       0.60000000       0.36881375      -0.76560743      -0.98377986      -0.00041699      -0.00233464      -0.00018622      -5.69159269
Ni      20.81667548      22.69776925      12.51229739       0.60000000      -0.81002995      -0.80669855      -1.05662122      -0.00417423      -0.00110236      -0.00317478      -5.71915030
Ni      22.60234025      20.99560992      12.46933973       0.60000000       0.38940081      -0.05391008       0.85008361      -0.00776911       0.00129655       0.00553208      -5.64111066
Ni      22.66563240      22.77299472      10.70253354       0.60000000       0.34407514      -0.34129226       0.29537391      -0.00511112      -0.00152761       0.00271791      -5.72207373
Ni      18.42572822      22.10786263      13.13566220       0.60000000       0.44311343      -0.76259931       0.20054197      -0.00245556       0.00359497      -0.00284752      -5.68089736
Ni      20.24007466      22.14328660      14.94393320       0.60000000      -0.77801289      -1.96052454      -0.16504180       0.00738569       0.00580514      -0.00068359      -5.54933792
Ni      22.40990870      21.16238218      15.94977342       0.60000000       1.45358036       0.07080349       0.51794796      -0.00072469      -0.00233843       0.00548160      -5.55748844
Ni      22.60683869      22.78434278      14.17454653       0.60000000      -2.53098609       1.02619883      -2.07230395      -0.00571840       0.00292698      -0.00543288      -5.64559996
Ni      20.09116902      20.47366561      16.78258628       0.60000000      -2.10568732      -1.20723623      -0.15634689       0.01088312      -0.00417605       0.00686377      -5.60998821
Ni      20.11806266      22.18495328      18.59731688       0.60000000      -1.08878644      -0.78675805      -0.52928423      -0.00182021       0.00358501      -0.00577122      -5.53834569
Ni      21.98689730      20.63812009      18.63313722       0.60000000       1.35803237       0.08219285      -1.39734595      -0.00042261       0.00000232       0.00186141      -5.59850591
Ni      22.42197839      22.85415870      17.71686004       0.60000000      -0.52178664       0.73467502      -0.75008724       0.00027907       0.00699994       0.00321974      -5.46421778
Ni      20.15955972      20.31368939      20.42100059       0.60000000       0.80801081      -0.35271792      -1.22884353       0.00246052      -0.00501843       0.00375961      -5.63030213
Ni      21.03929069      22.80716135      22.75773311       0.60000000       0.83148939       0.50694879      -2.45306765       0.00054259      -0.00178810       0.00227046      -5.63664734
Ni      22.77756093      21.18734913      22.77807872       0.60000000       0.18519806       0.10398712      -0.54246031      -0.00460423       0.00395386       0.00508775      -5.63767999
Ni      22.07326215      22.28136160      20.46853105       0.60000000      -0.21845814       0.70298031      -0.97653668      -0.00660069       0.00589768       0.00012225      -5.47568220
Ni      21.02864434      21.09894845      24.51748046       0.60000000      -0.03230413       1.55945678      -1.18987769       0.00125777      -0.00182361      -0.00406299      -5.75092196
Ni      21.04671431      22.85616443      26.31485487       0.60000000       0.53758469       0.34021745      -0.17025909      -0.00075518       0.00229095       0.00020256      -5.74148887
Ni      22.79992227      21.10963333      26.30179054       0.60000000      -0.66251737      -0.51290186      -0.22797869       0.00042167      -0.00002299      -0.00315000      -5.72991061
Ni      22.79647263      22.87303749      24.56727138       0.60000000       0.51830714      -0.06428026       1.23590946       0.00184369      -0.00217479       0.00002954      -5.73557311
Ni      21.05821526      21.11357106      28.07581789       0.60000000       0.74672073       0.23220669       1.11089035      -0.00274640       0.00027789      -0.00405916      -5.73265934
Ni      21.07048718      22.88043023      29.86252808       0.60000000      -0.22079877       1.37370764      -0.49936604       0.00031232      -0.00090084      -0.00134877      -5.72891599
Ni      22.82288156      21.12632285      29.85793286       0.60000000       0.88422580       0.19782140      -0.01885923      -0.00133089       0.00173435      -0.00196659      -5.72915167
Ni      22.81700755      22.87525355      28.09309088       0.60000000      -0.87834409       0.37470500       1.03003206       0.00055699      -0.00114553       0.00099666      -5.72680855
Ni      21.07373987      21.13168103      31.62884007       0.60000000      -0.55619141       0.25928852       0.39326428      -0.00115000       0.00030519       0.00119405      -5.73002219
Ni      21.07901248      22.89492592      33.40476955       0.60000000       0.38687956       1.89718681      -0.12152614       0.00104384       0.00002931       0.00013308      -5.73082262
Ni      22.83470424      21.13899533      33.40478290       0.60000000       0.56663385      -0.09493172       0.53461099      -0.00004478      -0.00063896      -0.00083135      -5.73082519
Ni      22.83250100      22.89052691      31.63602825       0.60000000       1.05298439       0.06673733       1.79984603       0.00040626       0.00044363       0.00148597      -5.73048013
Ni      21.08097781      24.65622604      -0.02173860       0.60000000      -0.96162279       1.26008292      -0.15621332       0.00066268      -0.00038003       0.00076265      -5.73102933
Ni      21.07992081      26.41270182       1.75337701       0.60000000       0.78112735      -0.47137683      -1.17469001      -0.00024446      -0.00105607      -0.00054613      -5.73075116
Ni      22.83452012      24.65471482       1.75547620       0.60000000       1.22369458       0.03038523       0.81458632       0.00044936      -0.00117961      -0.00027740      -5.73081672
Ni      22.83808173      26.41455488      -0.01625961       0.60000000       0.29796109       1.52428829       0.43530934      -0.00010568       0.00003874       0.00012694      -5.73078716
Ni      21.07424440      24.65033237       3.52894216       0.60000000      -0.49004393       1.46695840      -0.53451614      -0.00019352      -0.00175187      -0.00081413      -5.72877479
Ni      21.06133257      26.38721718       5.31461472       0.60000000       1.31976647      -1.97279325       1.63025350       0.00201672       0.00005784      -0.00119524      -5.72598255
Ni      22.80888801      24.63424377       5.32084577       0.60000000      -0.48338619       1.53686436       0.19688755      -0.00048823      -0.00159021      -0.00069016      -5.72596973
Ni      22.82685979      26.40245829       3.53507016       0.60000000       1.38655391       1.48786926       0.29315483      -0.00030283      -0.00044311      -0.00015521      -5.72944379
Ni      21.02286353      24.60412694       7.11868169       0.60000000      -0.67193080      -0.82923919      -0.06819730      -0.00195744       0.00106699      -0.00060127      -5.73491484
Ni      20.99717898      26.31322284       8.88467174       0.60000000       0.09719436      -0.77638586       1.09167392      -0.00365043      -0.00458485      -0.00039625      -5.71912134
Ni      22.74214282      24.57052829       8.90270249       0.60000000      -1.07925764      -0.55028377       0.66542872       0.00292058       0.00187725      -0.00221089      -5.71563774
Ni      22.78870101      26.36097218       7.10117374       0.60000000       0.20188897      -0.43186069       2.74887664       0.00018241       0.00071043      -0.00079657      -5.72309828
Ni      20.90150244      24.49295495      10.70074332       0.60000000      -1.95551893      -3.52703605       1.88554894      -0.00131703       0.00071194       0.00279134      -5.71561718
Ni      20.96516537      26.27751216      12.38829461       0.60000000       1.15898326      -0.14860222       0.01212726       0.00050588      -0.00145035      -0.00049526      -5.71966410
Ni      22.66521487      24.52322417      12.42235273       0.60000000      -1.64429782       0.79792890       0.93526961      -0.00426278      -0.00169759       0.00613933      -5.72117645
Ni      22.73728686      26.31003920      10.63572475       0.60000000       4.22289204      -1.45592996       1.59980529       0.00296435       0.00320121      -0.00425853      -5.71507061
Ni      20.83786176      24.46782742      14.24806854       0.60000000      -0.03126264       1.69359118      -1.67510797      -0.00170255      -0.00537518       0.00764394      -5.67291147
Ni      20.99645277      26.30605882      15.85423317       0.60000000      -1.36369190       2.70268826       1.75554697       0.00318728      -0.00392035      -0.00389179      -5.62833011
Ni      22.62633135      24.52395261      15.92505868       0.60000000       0.76943151       1.30733647      -2.74830983      -0.00407433      -0.00734905       0.00768325      -5.60872388
Ni      22.72324192      26.30130880      14.12165189       0.60000000      -0.33432213      -2.37540654      -0.55091561       0.00086722      -0.00142929       0.00137527      -5.73537189
Ni      20.23052520      23.97920940      16.75587757       0.60000000       0.38466978       1.82612374      -0.83840188       0.01218846       0.00478983       0.00758721      -5.46430194
Ni      21.03923806      26.33103835      19.31835775       0.60000000      -0.63205514      -0.83933991       0.42104259       0.00524984       0.00188171      -0.00004197      -5.64604861
Ni      22.71593558      24.57378073      19.35869785       0.60000000       1.80762139      -1.94051996      -0.63032192      -0.00227302       0.00559950      -0.00040731      -5.50722033
Ni      22.75163592      26.33872963      17.59358147       0.60000000       0.29390180      -1.17293352       0.05017311      -0.00127117       0.00011615      -0.00098556      -5.65727699
Ni      21.04777780      24.52774024      21.04996782       0.60000000      -0.04165435      -1.31423513       3.18507334      -0.00128908       0.00438960      -0.00012464      -5.60708082
Ni      21.04214054      26.34204021      22.81128589       0.60000000      -1.02370305       0.59076686      -1.14544036      -0.00161482      -0.00231570       0.00057060      -5.73977685
Ni      22.78984776      24.58953430      22.80206812       0.60000000       0.52558340      -0.30833859      -0.21714863      -0.00135787      -0.00269033      -0.00020996      -5.65308028
Ni      22.78702175      26.35931313      21.07812466       0.60000000      -0.22554540       1.69004555       0.63108901       0.00238730       0.00399888      -0.00222088      -5.74916387
Ni      21.03983530      24.59116613      24.55482776       0.60000000       2.21101461      -1.75877310       2.48989435      -0.00455603      -0.00340558      -0.00296611      -5.74274296
Ni      21.05949344      26.38052833      26.33784600       0.60000000      -0.39085344       0.14443674       0.51179819       0.00151016      -0.00164574      -0.00337051      -5.72580534
Ni      22.81106632      24.62983421      26.33960839       0.60000000       1.58492896       0.17559059      -0.61548668      -0.00023822       0.00335435       0.00018348      -5.72800243
Ni      22.80725169      26.37767900      24.58112251       0.60000000      -0.50049981      -1.12086946      -0.63927192      -0.00443302      -0.00426805      -0.00373708      -5.73021764
Ni      21.06478491      24.63071443      28.09972229       0.60000000      -1.38424088       0.14125554       0.24040548       0.00068140       0.00116531      -0.00112621      -5.72760993
Ni      21.07410874      26.40265104      29.87405690       0.60000000       0.82160752      -1.22021303       0.56735721       0.00035612       0.00119569       0.00022381      -5.73026353
Ni      22.82924848      24.64375622      29.87129174       0.60000000       0.30063233       2.96856625      -1.02945631      -0.00033858       0.00038093       0.00052666      -5.73000002
Ni      22.82516534      26.39969458      28.11106329       0.60000000       0.45478154      -0.36173676      -1.63407272       0.00078452       0.00103651       0.00044181      -5.72949821
Ni      21.07740715      24.64829954      31.63791026       0.60000000      -0.13593918       0.84555042      -0.43571358      -0.00148597      -0.00066229       0.00170586      -5.73059946
Ni      21.08047052      26.41340710      33.41078332       0.60000000       0.55562621       0.92972986       1.33919430       0.00041266       0.00033477      -0.00030037      -5.73078305
Ni      22.83720719      24.65411200      33.41023396       0.60000000       0.28271428      -1.09502899      -2.78771867       0.00039797       0.00071373      -0.00010479      -5.73077518
Ni      22.83601327      26.41081563      31.64449695       0.60000000      -1.57214535       0.59336850       2.34660789       0.00031933       0.00117296      -0.00000564      -5.73065335
Ni      21.08146357      28.17520435      -0.01694013       0.60000000       0.18833038      -0.61266085       0.37151625       0.00090548      -0.00072823      -0.00004080      -5.73070085
Ni      21.08095836      29.93329909       1.75496163       0.60000000      -0.58442805       0.23909787      -2.09841715       0.00036587      -0.00022858       0.00027179      -5.73023659
Ni      22.83577906      28.17021408       1.75800794       0.60000000       1.67068111       1.33470773      -0.49549745       0.00034190      -0.00031257      -0.00048182      -5.73038059
Ni      22.83953968      29.93660882      -0.01326572       0.60000000      -1.79646170      -0.64093493      -0.19898250       0.00026104      -0.00045927       0.00027395      -5.73039931
Ni      21.07594151      28.16273450       3.52977425       0.60000000      -0.65132181      -2.42517229      -0.37819037      -0.00003621       0.00022877      -0.00001482      -5.72953981
Ni      21.07250179      29.91545336       5.29773606       0.60000000       0.57595541       0.64649349      -1.15292209       0.00074810       0.00103093      -0.00099343      -5.72912645
Ni      22.81824214      28.14642878       5.30943344       0.60000000       0.64470713      -0.80054047      -0.27854633       0.00111824       0.00081476      -0.00115294      -5.72808313
Ni      22.83256931      29.92397329       3.52864558       0.60000000      -1.80740106       0.33428953      -0.41217412       0.00084201       0.00127603      -0.00112510      -5.72967392
Ni      21.05193690      28.12712502       7.08322917       0.60000000      -0.24113802      -0.29013511      -1.46814038       0.00216041       0.00125286      -0.00018043      -5.72437710
Ni      21.05566271      29.89326950       8.82748916       0.60000000      -0.32078586      -0.18927305       0.77640334       0.00133916       0.00079327      -0.00018994      -5.72767258
Ni      22.78551144      28.10865761       8.84948195       0.60000000      -2.44088752       0.45484350      -0.69345663      -0.00184157      -0.00097506      -0.00131196      -5.72403908
Ni      22.81587856      29.90143858       7.06678995       0.60000000      -0.31107706       1.99851420      -2.13940086       0.00263123       0.00073320      -0.00098457      -5.72840142
Ni      21.02093518      28.09065111      10.60472925       0.60000000       1.11849153       0.88828162      -0.64301220      -0.00086031      -0.00099101      -0.00233490      -5.71939707
Ni      21.04711561      29.88649562      12.32979190       0.60000000       0.38089215      -0.72263208      -0.57250372       0.00056345      -0.00091610      -0.00070364      -5.72719741
Ni      22.77082312      28.09563078      12.34976018       0.60000000      -0.57230236      -0.14871897       0.55112715      -0.00134726       0.00084212       0.00041414      -5.72267479
Ni      22.80083301      29.88601166      10.58194873       0.60000000      -0.24264459       1.77766742      -1.13176617       0.00199322      -0.00009396      -0.00153273      -5.72792202
Ni      21.02347247      28.09719468      14.08889181       0.60000000      -0.10337956       2.43982205       1.73476401       0.00060643      -0.00080197       0.00172696      -5.74151152
Ni      21.05158788      29.89251906      15.82778187       0.60000000      -1.74463835      -1.18463211       0.65698508       0.00132782      -0.00122169       0.00028854      -5.73155135
Ni      22.77857276      28.11196293      15.83457548       0.60000000       0.85243574      -1.11305372       1.13905620       0.00061782      -0.00048896       0.00330074      -5.74091411
Ni      22.80101795      29.89101128      14.07871108       0.60000000       0.49623669      -0.39168126       0.91178778      -0.00035619      -0.00082615       0.00028138      -5.72754115
Ni      21.04104589      28.10947702      17.57815382       0.60000000       0.38949529       2.29891286       0.56034021       0.00083597      -0.00107683       0.00154640      -5.73981732
Ni      21.05768235      29.89797406      19.33002751       0.60000000      -0.58883014       0.05476738      -0.78541458       0.00068012      -0.00210147      -0.00198111      -5.72943616
Ni      22.79745236      28.13103833      19.33112281       0.60000000       0.49705353      -1.11859131       0.54185996       0.00114269      -0.00238386      -0.00105457      -5.74558669
Ni      22.80882660      29.90135689      17.57943360       0.60000000       0.88624619       0.53015390      -0.15709967      -0.00138163      -0.00022412      -0.00064682      -5.72914290
Ni      21.04944156      28.12191397      21.07594416       0.60000000       0.90868672      -0.46062843      -0.68447875      -0.00117592      -0.00210335      -0.00187775      -5.73864925
Ni      21.06382836      29.90665480      22.83764847       0.60000000       0.76217988       0.54796033       1.97500841       0.00051520      -0.00186362      -0.00147000      -5.72858572
Ni      22.81029332      28.14024725      22.83493993       0.60000000      -0.42561889       0.60313592      -0.36553126      -0.00185953       0.00136587       0.00007462      -5.72789592
Ni      22.81746181      29.90936784      21.08699462       0.60000000       0.03187902      -0.46620340       1.30841940      -0.00170718      -0.00130874      -0.00031065      -5.72816867
Ni      21.05921762      28.13760192      24.58383968       0.60000000      -1.01642157       0.53623268      -0.32066910       0.00157106      -0.00178948       0.00052099      -5.72623724
Ni      21.07163255      29.91832198      26.35433816       0.60000000       1.21539014       0.79066402       0.31085553      -0.00058484      -0.00037610       0.00076581      -5.73003167
Ni      22.82299473      28.15522305      26.35160719       0.60000000      -1.63688687      -0.84206360      -0.95950448       0.00109616      -0.00096976      -0.00083269      -5.72903335
Ni      22.82510048      29.91729105      24.59842377       0.60000000       0.12169559      -0.69851954       0.22703833      -0.00038934       0.00100017       0.00094320      -5.72958028
Ni      21.07172852      28.15826171      28.11204596       0.60000000       0.71186554       0.80377242       0.70722935      -0.00032566       0.00172691      -0.00059690      -5.72989899
Ni      21.07857498      29.93125075      29.88268937       0.60000000      -0.00961060       1.87436604      -3.24515176      -0.00061272      -0.00030810      -0.00082121      -5.73042643
Ni      22.83421170      28.16916454      29.88162318       0.60000000       1.03085083       0.32174846       0.11545126       0.00003621       0.00044143      -0.00056992      -5.73056048
Ni      22.83338624      29.92860716      28.12035356       0.60000000      -1.49091033      -0.12118082      -2.29115505      -0.00040923       0.00043165       0.00083436      -5.73031521
Ni      21.07947814      28.17158217      31.64576070       0.60000000      -0.02440956       0.42758156       0.84870213      -0.00063928       0.00068539      -0.00066496      -5.73065484
Ni      21.08177926      29.93759934      33.41586310       0.60000000      -0.46456031      -1.51173097      -2.02992726       0.00021131      -0.00000078       0.00067465      -5.73056501
Ni      22.83923996      28.17536688      33.41604536       0.60000000      -1.55806193       0.60403067       0.71029123      -0.00075947      -0.00032907      -0.00054769      -5.73062193
Ni      22.83921178      29.93689926      31.65077076       0.60000000       0.72001774       0.00740489      -1.85464525      -0.00116261      -0.00037336       0.00009938      -5.73053718
Ni      21.08246508      31.70090662      -0.01482895       0.60000000       1.51219192      -0.73719564       1.17659670       0.00059185       0.00035990      -0.00003698      -5.73029798
Ni      21.08236115      33.46435397       1.75176404       0.60000000      -0.19203360       1.58453106      -1.08985841       0.00065829      -0.00052796       0.00006203      -5.73008668
Ni      22.83888006      31.69661972       1.75503439       0.60000000       1.03097994       0.24607143      -1.11718648      -0.00017796      -0.00061996       0.00005725      -5.73001611
Ni      22.84099817      33.46581932      -0.01476756       0.60000000       1.60762436       2.06469687      -0.96755649       0.00054129       0.00021641       0.00022541      -5.73016465
Ni      21.07992892      31.69267771       3.52205307       0.60000000      -0.29107074       0.52323349       1.40846228       0.00064068      -0.00029140       0.00022865      -5.72989506
Ni      21.07953338      33.45759630       5.28302288       0.60000000       0.91019048      -1.12601052      -1.18209910       0.00079899       0.00018715       0.00013217      -5.73016691
Ni      22.83162155      31.68382262       5.28997535       0.60000000      -0.53800542       1.54988995      -0.05413798      -0.00023109       0.00028773       0.00026901      -5.72964871
Ni      22.83827127      33.45929920       3.51863591       0.60000000       0.06440772       1.85117555       0.63826050       0.00000105      -0.00113231       0.00076431      -5.72999537
Ni      21.07275982      31.67993205       7.05290197       0.60000000       1.49883126       1.16759743       1.05918056      -0.00014987       0.00045752       0.00016901      -5.73006356
Ni      21.07560549      33.45185265       8.80442600       0.60000000      -0.17078064       1.27388289      -1.46808661      -0.00022824       0.00001895       0.00098552      -5.73077601
Ni      22.82189191      31.67180497       8.81273651       0.60000000       0.12941762       1.94051308      -2.05915333      -0.00031026       0.00033863       0.00141352      -5.72984624
Ni      22.83314179      33.45132314       7.04514918       0.60000000       1.51996444       1.51347740      -3.24844929       0.00056984       0.00013506       0.00060643      -5.73027307
Ni      21.06517838      31.67192086      10.56796637       0.60000000      -0.71028361       1.96380888       0.24769125      -0.00044240       0.00053264       0.00066459      -5.73050064
Ni      21.07344118      33.44787794      12.31676268       0.60000000      -0.79438350      -1.84538423      -2.12008381      -0.00130682       0.00081818       0.00040730      -5.73113686
Ni      22.81786843      31.66909766      12.32077472       0.60000000       1.10835418       1.12201923       1.36992651      -0.00045261       0.00135105       0.00003642      -5.73030049
Ni      22.82962899      33.44661718      10.56070347       0.60000000       0.87275554      -1.01073282       0.37557166      -0.00105794       0.00054371       0.00025687      -5.73076099
Ni      21.06394017      31.67075540      14.07340321       0.60000000      -1.77295944       0.38320423      -2.04298501      -0.00003823       0.00304843      -0.00034325      -5.72969157
Ni      21.07412904      33.44656015      15.82643065       0.60000000      -0.40419024       0.30404031       0.74774324      -0.00090214       0.00064014      -0.00092710      -5.73108512
Ni      22.82051374      31.67305007      15.82605654       0.60000000      -0.83675182       1.20363847       0.22297705      -0.00146461       0.00178029      -0.00025445      -5.72970861
Ni      22.82959347      33.44551012      14.07076558       0.60000000       0.84280395      -0.24764661       2.21174056      -0.00147115       0.00171639      -0.00036359      -5.73099959
Ni      21.06692308      31.67303780      17.57979272       0.60000000      -0.79454071       2.47013955      -0.69807133      -0.00147540       0.00173147      -0.00027173      -5.72947884
Ni      21.07598058      33.44814015      19.33628583       0.60000000      -0.51801902       2.19617930      -1.18462463      -0.00091913       0.00265322       0.00069786      -5.73101681
Ni      22.82493911      31.67791489      19.33517885       0.60000000      -0.34631199       1.02962723       0.68445483      -0.00176701       0.00148607      -0.00105716      -5.72987366
Ni      22.83148009      33.44740885      17.58115005       0.60000000      -0.38257399       0.32319746       0.13196000      -0.00034185       0.00154362      -0.00015783      -5.73092049
Ni      21.07019161      31.67721910      21.08865492       0.60000000      -0.47764953       0.46457772       0.06690967      -0.00092251       0.00159263      -0.00166690      -5.73027176
Ni      21.07793774      33.45357696      22.84797824       0.60000000       1.11045860       1.42481018      -0.01945526      -0.00104025       0.00004697       0.00063632      -5.73088628
Ni      22.82941046      31.68424399      22.84647610       0.60000000      -0.97915581       1.82214065      -0.35093591      -0.00029055       0.00077665       0.00096379      -5.73068428
Ni      22.83372395      33.45222482      21.09252294       0.60000000       0.19591571       0.56450873       0.57776252       0.00008882       0.00121144       0.00182697      -5.73090917
Ni      21.07421889      31.68472540      24.60137075       0.60000000       1.34494299       2.09766226      -1.36514892      -0.00033606      -0.00033801       0.00028324      -5.73058391
Ni      21.08026640      33.46030310      26.36411419       0.60000000       0.25857235       0.64573072      -0.34031978      -0.00163080      -0.00091872      -0.00049462      -5.73060971
Ni      22.83441911      31.69215634      26.36279315       0.60000000      -0.16021924      -0.24033451       0.72081020      -0.00067019      -0.00054636       0.00020904      -5.73045337
Ni      22.83643174      33.45910224      24.60639459       0.60000000      -1.60012818      -1.06458585      -1.69766030      -0.00095784       0.00022829       0.00036094      -5.73072064
Ni      21.07889928      31.69361195      28.12212324       0.60000000       0.05472806      -0.25158500       0.00907568      -0.00143149       0.00010236      -0.00008465      -5.73037833
Ni      21.08201716      33.46567619      29.88714222       0.60000000       0.19349459       0.96372511      -1.45031313      -0.00007054       0.00049665      -0.00005039      -5.73043483
Ni      22.83898472      31.69962218      29.88742100       0.60000000       1.07944825       0.36040950      -3.12969349      -0.00076791      -0.00022822      -0.00082022      -5.73043406
Ni      22.83916997      33.46505793      28.12566483       0.60000000       0.22592491      -0.25801989      -0.50357836      -0.00076736       0.00020750      -0.00031376      -5.73048478
Ni      21.08179239      31.70077736      31.65084950       0.60000000      -0.43920809       2.37413417       1.94116920      -0.00012899      -0.00027956      -0.00030871      -5.73046535
Ni      21.08294273      33.46760298      33.41763063       0.60000000       0.83955813      -1.54822287      -2.10248114       0.00043478       0.00033928      -0.00051377      -5.73028666
Ni      22.84072672      31.70198669      33.41885311       0.60000000      -0.51260942      -1.37918157       0.90596633       0.00070839       0.00071009      -0.00025717      -5.73040992
Ni      22.84098167      33.46801361      31.65257129       0.60000000       0.95516974      -0.12893075      -0.04046293       0.00013281       0.00004342      -0.00056794      -5.73033839
Ni      24.60025761       0.03162441      -0.01639567       0.60000000      -0.13133857       0.47647588      -2.48819408       0.00054692       0.00008809      -0.00042636      -5.73008388
Ni      24.59984417       1.79547983       1.74739900       0.60000000       2.44017324       0.03431903       0.03408403       0.00035099      -0.00049252      -0.00092882      -5.73019350
Ni      26.35967458       0.02839331       1.74997528       0.60000000      -1.39115332       0.07521621       2.10381456       0.00039492      -0.00021578      -0.00071365      -5.73005325
Ni      26.36006332       1.79720234      -0.01855832       0.60000000       2.34857302       0.73517615       0.68082760       0.00025089      -0.00036157      -0.00076249      -5.73002636
Ni      24.59832632       0.02622469       3.51511750       0.60000000       0.93390954      -1.25465093      -0.46664003       0.00010196      -0.00059975      -0.00007103      -5.73016882
Ni      24.59819668       1.79222868       5.27676838       0.60000000      -0.47063583       0.24018539       0.48833393       0.00028187       0.00027439      -0.00000817      -5.73040545
Ni      26.35669348       0.02284651       5.27807858       0.60000000       1.71713058       1.40882604      -0.27420157       0.00025164      -0.00053432      -0.00024213      -5.73019290
Ni      26.35965867       1.79233685       3.51231138       0.60000000      -0.96906392      -0.57910635       1.06505151       0.00018796      -0.00011942      -0.00026409      -5.73026353
Ni      24.59507611       0.02153680       7.04035151       0.60000000      -0.79912200      -0.33430428       0.43891725       0.00031819       0.00003685      -0.00063388      -5.73041451
Ni      24.59645005       1.79078258       8.79884056       0.60000000       0.13023363       0.35459779       0.95693461      -0.00054364       0.00026755       0.00057374      -5.73070335
Ni      26.35389089       0.01907191       8.79842618       0.60000000      -0.48327198       0.65296510       0.71137342       0.00016454      -0.00009398      -0.00070983      -5.73040533
Ni      26.35764143       1.78974466       7.03731224       0.60000000       0.20067910       0.33462829       0.94017945      -0.00016400      -0.00053376       0.00033592      -5.73043948
Ni      24.59340799       0.01841104      10.55681160       0.60000000       0.15727308       0.06240384      -0.15512056       0.00038467       0.00032051       0.00006996      -5.73077041
Ni      24.59643765       1.78811311      12.31390188       0.60000000       0.44065045       0.61909534       0.22483661       0.00018848       0.00036254       0.00048047      -5.73089308
Ni      26.35338590       0.01780013      12.31262830       0.60000000       0.81429289      -0.33344756       0.41985539       0.00039546      -0.00002395      -0.00039217      -5.73067796
Ni      26.35625210       1.78849402      10.55549852       0.60000000       0.54928487      -0.12871175      -0.88485733       0.00026699      -0.00099425       0.00001238      -5.73078400
Ni      24.59384491       0.01729526      14.06951283       0.60000000      -0.55462552      -1.09850408       0.09226987       0.00045796      -0.00041272      -0.00018532      -5.73097628
Ni      24.59642030       1.78806513      15.82638109       0.60000000      -1.45159007       0.49819070       1.97633222      -0.00174400       0.00190073       0.00111629      -5.73061883
Ni      26.35365836       0.01940378      15.82541111       0.60000000       0.70988548       0.42964674      -0.55618050       0.00032375       0.00106673       0.00020986      -5.73087162
Ni      26.35580491       1.78815329      14.06979256       0.60000000      -0.48999758       0.61846640      -0.75550486       0.00091672       0.00040648       0.00062249      -5.73083621
Ni      24.59432169       0.01957558      17.58159749       0.60000000      -0.15570404       0.53988831      -0.31281216       0.00099819       0.00091030       0.00023002      -5.73110640
Ni      24.59401587       1.79486745      19.33648307       0.60000000       0.55541994      -2.46493953       1.87148155      -0.00054789      -0.00004627      -0.00030442      -5.73125362
Ni      26.35330539       0.02489915      19.33744237       0.60000000      -0.01349515       0.16515002      -0.04048585       0.00043211       0.00005810       0.00093285      -5.73092628
Ni      26.35321731       1.79314068      17.58200159       0.60000000      -0.75224761       0.00146694      -0.10063844      -0.00102798      -0.00077650       0.00013714      -5.73096979
Ni      24.59471797       0.02604871      21.09325331       0.60000000      -0.64988212       1.36240458      -0.74507477       0.00010138       0.00018385       0.00017244      -5.73102075
Ni      24.59315686       1.80449828      22.84494596       0.60000000       0.19550257       0.90636352      -0.30902254      -0.00200089       0.00088977      -0.00121843      -5.73077095
Ni      26.35378166       0.03210911      22.84957985       0.60000000       0.11331341       0.99922542       0.73945979      -0.00056202       0.00001982      -0.00087268      -5.73069263
Ni      26.34997382       1.80228129      21.09059455       0.60000000       0.29615888       0.50112519       1.64388787      -0.00210982       0.00050264      -0.00121125      -5.73082054
Ni      24.59601421       0.03342225      24.60622873       0.60000000       0.83485351      -0.61187329      -0.63551651      -0.00084583      -0.00104916      -0.00101881      -5.73068482
Ni      24.59441486       1.80847054      26.35955832       0.60000000      -1.79891666      -1.28937895       0.48409944      -0.00010315      -0.00009099      -0.00028248      -5.73032248
Ni      26.35566498       0.03713538      26.36507475       0.60000000      -0.31708211       0.27909867       2.06918170      -0.00016403      -0.00079524      -0.00011338      -5.73043102
Ni      26.35061072       1.80884697      24.60140440       0.60000000      -0.62936083       1.36375023       1.96073424      -0.00162020      -0.00041202      -0.00065709      -5.73029470
Ni      24.59783781       0.03669435      28.12486065       0.60000000       0.69165788      -2.29000503       0.77684748      -0.00001992       0.00007587       0.00025667      -5.73038405
Ni      24.59703483       1.80587120      29.88347749       0.60000000      -0.20434257       1.19594266      -1.28811503       0.00024117       0.00032797       0.00004721      -5.73011953
Ni      26.35851802       0.03726139      29.88826561       0.60000000       0.34402701      -0.72578877      -0.60817100      -0.00013567       0.00041886       0.00025016      -5.73022544
Ni      26.35390850       1.80790692      28.12128050       0.60000000      -0.32336903       0.20941581       1.47227391       0.00003757       0.00075262      -0.00055598      -5.73011589
Ni      24.59984485       0.03570159      31.65159753       0.60000000       2.23845900       1.43075070       0.53899999       0.00015177       0.00055543       0.00032413      -5.73017418
Ni      24.59944714       1.80061724      33.41430353       0.60000000      -0.05547496      -0.59017015      -1.27884454       0.00040212       0.00014587       0.00006734      -5.73004580
Ni      26.36034173       0.03387135      33.41793979       0.60000000      -0.43568504      -0.11548886       1.90721216       0.00030271       0.00039602       0.00023241      -5.73003274
Ni      26.35785722       1.80309787      31.64918960       0.60000000      -0.34958652       0.43778872       0.59234352       0.00023373       0.00045671       0.00013233      -5.72999632
Ni      24.59896184       3.56339625      -0.02168473       0.60000000      -0.76466055       0.08276349       1.64657573       0.00023211       0.00007788      -0.00049250      -5.73015714
Ni      24.59860784       5.32489720       1.74401791       0.60000000       0.67340874      -0.08788087      -0.02656015      -0.00036240       0.00056098      -0.00023022      -5.73039174
Ni      26.35990915       3.55973113       1.74544876       0.60000000       1.00352053      -0.20935056       3.05427373       0.00005904      -0.00043879      -0.00093466      -5.73025906
Ni      26.35754655       5.32625042      -0.02331790       0.60000000      -1.02334541      -2.94349149       1.48701113       0.00020849       0.00020130      -0.00058115      -5.73020625
Ni      24.59929915       3.55946023       3.51162831       0.60000000       0.77639145      -0.44848837      -0.50894573      -0.00041565       0.00000990      -0.00079882      -5.73041224
Ni      24.59775470       5.32371119       5.27719609       0.60000000       0.44331045       1.34989561      -0.63628459      -0.00011091       0.00126302       0.00017656      -5.73059523
Ni      26.35931216       3.55713052       5.27507526       0.60000000       0.23145739       0.37819516       0.09336250      -0.00063591      -0.00016703      -0.00044297      -5.73047715
Ni      26.35945391       5.32201959       3.51050289       0.60000000       0.88398839       1.14949565      -0.72808143      -0.00072862       0.00016799      -0.00047725      -5.73049867
Ni      24.59728084       3.55956541       7.03981282       0.60000000       0.07236051       0.37387466      -0.38015018       0.00018700       0.00032344       0.00032614      -5.73052812
Ni      24.59463613       5.32717293       8.80560616       0.60000000      -0.47782220      -0.55778280       0.40786764      -0.00035275       0.00227465       0.00112834      -5.72937119
Ni      26.35687182       3.55712096       8.79844125       0.60000000      -0.72804540       0.17300603       0.11739651       0.00140902      -0.00085278      -0.00144884      -5.73063415
Ni      26.35717460       5.32223456       7.03923809       0.60000000      -0.02675832      -0.05499535       2.65896112       0.00094348      -0.00107469      -0.00050261      -5.73058659
Ni      24.59578501       3.55972358      10.56023918       0.60000000      -1.44254993      -0.77040877       1.27960719       0.00034807       0.00036391       0.00043821      -5.72969288
Ni      24.59234751       5.32974842      12.32450431       0.60000000      -0.01464266      -0.63072869      -0.22799838      -0.00123207       0.00032789       0.00032234      -5.72841305
Ni      26.35543397       3.55683533      12.31520060       0.60000000      -0.92394124       0.96285625       0.76577417       0.00068265       0.00140025       0.00040588      -5.72952896
Ni      26.35393421       5.32393013      10.56139648       0.60000000      -0.21287849       0.95638983      -0.44745059       0.00017127      -0.00043712      -0.00188162      -5.72898072
Ni      24.59584975       3.55763250      14.07305268       0.60000000      -0.73290219      -1.62142489       0.07972480      -0.00087633       0.00041482       0.00094516      -5.72817874
Ni      24.58620701       5.33401044      15.82914173       0.60000000      -0.24276860       1.83087725      -1.06740309      -0.00333461       0.00381675      -0.00336415      -5.74296188
Ni      26.35179221       3.56060557      15.82759200       0.60000000      -0.36034117       0.03544259       0.30776976      -0.00157182       0.00344653       0.00249714      -5.72880661
Ni      26.34852422       5.32855987      14.07544973       0.60000000       0.47193089      -0.22132557      -1.02215033      -0.00207933      -0.00033962       0.00105095      -5.72892493
Ni      24.59073676       3.56401463      17.58089497       0.60000000      -1.04464612      -1.05948280       0.71526786      -0.00203913       0.00356186       0.00042682      -5.72853076
Ni      24.56912221       5.36048843      19.31729064       0.60000000       0.42004373      -0.20604757       1.09418917      -0.00122470       0.00335422      -0.00043550      -5.72457075
Ni      26.34201462       3.57427839      19.33221234       0.60000000      -0.47016755      -0.13670181      -1.14433866      -0.00103200       0.00230452       0.00024029      -5.72975022
Ni      26.33096697       5.34725242      17.57738723       0.60000000       0.63036550      -0.33888978       0.43093100      -0.00320089       0.00065372       0.00013118      -5.72572362
Ni      24.58494391       3.57934490      21.08183644       0.60000000      -1.54270864      -0.23052097      -0.13962075      -0.00057188       0.00249009      -0.00051178      -5.72975242
Ni      24.56890006       5.36904051      22.81710193       0.60000000      -1.93364808      -1.30943724       0.05003342       0.00012600      -0.00002730       0.00003308      -5.72739208
Ni      26.33921596       3.58453325      22.83552970       0.60000000       1.66280491      -0.42380990      -0.55972319      -0.00009713      -0.00147284       0.00102108      -5.72972882
Ni      26.31965079       5.36438752      21.06844563       0.60000000       1.50902103       0.81812203      -0.28479481       0.00024982      -0.00044902       0.00172776      -5.72694701
Ni      24.58654565       3.58476553      24.59113179       0.60000000       0.78718196       0.09242155      -1.19656018      -0.00157941      -0.00001438      -0.00065981      -5.72985631
Ni      24.57842015       5.35865220      26.33806722       0.60000000       0.53873583      -1.05769411       1.16009089      -0.00044057       0.00102203       0.00056534      -5.72901064
Ni      26.34484422       3.58243393      26.35185148       0.60000000      -0.54164466       0.90022151      -0.42630147      -0.00121076       0.00084233      -0.00109626      -5.72960347
Ni      26.32690216       5.36224964      24.57776588       0.60000000      -1.16016243       0.52324100      -0.02432369      -0.00030407       0.00005797       0.00134344      -5.72826254
Ni      24.59091971       3.57947126      28.11305927       0.60000000       0.46103697       1.78781099      -0.83109332       0.00003193       0.00079284       0.00014708      -5.72987223
Ni      24.58814827       5.34429368      29.86988929       0.60000000       1.77329900      -2.07234607      -1.59925168       0.00012471       0.00058707       0.00079673      -5.72965610
Ni      26.35177764       3.57444613      29.87877591       0.60000000      -1.32179355       0.95871832      -0.33367233       0.00002376       0.00052330      -0.00003718      -5.72984344
Ni      26.34015137       5.34902523      28.10498797       0.60000000      -0.23702228       0.47368131      -1.63594347      -0.00045522       0.00118714       0.00064712      -5.72921729
Ni      24.59589210       3.57109427      31.64367100       0.60000000       1.23855660       0.48903879       0.62613302       0.00002802      -0.00026879       0.00034102      -5.72997320
Ni      24.59534785       5.33203441      33.40730812       0.60000000      -0.42673811      -0.76168575       0.47830295       0.00015660      -0.00011391      -0.00056845      -5.73006928
Ni      26.35737594       3.56593455      33.41174753       0.60000000      -2.04592767       0.06866332      -0.63884248       0.00037004      -0.00028804      -0.00013488      -5.72997671
Ni      26.35097956       5.33582132      31.63987884       0.60000000      -0.15407505      -0.17500606      -0.32508868       0.00022655       0.00009675       0.00024301      -5.72982448
Ni      24.59564727       7.09034162      -0.02575086       0.60000000       2.22159838       0.20724712      -1.42197593       0.00056010       0.00001042      -0.00042786      -5.73032445
Ni      24.59620900       8.84825790       1.74374683       0.60000000       1.74625302      -1.05856894      -0.87423908       0.00000993       0.00052017       0.00030675      -5.73048997
Ni      26.35788783       7.08572574       1.74364537       0.60000000      -1.56755541      -0.88766155      -1.06102040      -0.00057266       0.00094472      -0.00023060      -5.73043323
Ni      26.35400525       8.84877374      -0.02564566       0.60000000       0.10470823       1.53405405      -0.17154086       0.00042986       0.00080726      -0.00044445      -5.73036760
Ni      24.59779169       7.08621702       3.51151526       0.60000000      -0.90308862      -1.84766990      -0.10324338      -0.00048023       0.00092993       0.00001569      -5.73056602
Ni      24.59551434       8.84788287       5.28053476       0.60000000      -0.03100106      -1.65197061      -0.65162185       0.00041245       0.00120972      -0.00055425      -5.73087937
Ni      26.35744736       7.08441043       5.27695260       0.60000000      -0.68656739      -0.77048684       0.67873278      -0.00028258       0.00146605      -0.00007318      -5.73066413
Ni      26.35687220       8.84592367       3.51224873       0.60000000      -1.03946830      -1.93292962      -0.47669374      -0.00069169       0.00032279      -0.00045380      -5.73053032
Ni      24.59476932       7.08805825       7.04484606       0.60000000       0.10754767       1.04081952      -0.75140406       0.00100902       0.00092128      -0.00049208      -5.73028207
Ni      24.59035589       8.85128015       8.81515786       0.60000000       0.27925518      -0.34180560      -1.37581850      -0.00119618       0.00018856       0.00010226      -5.73012155
Ni      26.35309229       7.08683651       8.80527704       0.60000000      -1.12777833       2.92414964      -0.91712293      -0.00037600      -0.00102770      -0.00023222      -5.72939837
Ni      26.35285719       8.84738541       7.04491579       0.60000000       3.00443047       1.24684892      -1.90917654       0.00019803       0.00037483       0.00042081      -5.73008585
Ni      24.58920934       7.09598296      10.57608252       0.60000000      -0.49036986      -1.25524829       2.29813588      -0.00144199       0.00337251       0.00363997      -5.73253447
Ni      24.58042972       8.87042898      12.36232056       0.60000000       0.73045211       0.94260161      -1.37432611      -0.00180439       0.00195332       0.00536456      -5.65419847
Ni      26.34543565       7.09170432      12.32586283       0.60000000       0.64471255      -0.29301930      -0.68458726      -0.00017162       0.00421071      -0.00082017      -5.74018478
Ni      26.34324668       8.85035432      10.57545576       0.60000000       1.89170313       0.49392550      -0.99748316      -0.00199602      -0.00027642       0.00372579      -5.74090928
Ni      24.57886860       7.10873179      14.08795760       0.60000000       0.42236574      -0.86353632      -0.94557732      -0.00035481      -0.00412211       0.00084347      -5.75547582
Ni      26.32354038       7.11233415      15.82691386       0.60000000       0.61368741      -1.68439054      -1.57187521       0.00374882       0.00041733      -0.00069431      -5.74658996
Ni      26.32331895       8.86390969      14.07899364       0.60000000      -1.41424777       1.98411570       0.45026850      -0.00228135       0.00045530      -0.00307611      -5.65254158
Ni      24.53587318       7.15206645      17.54930766       0.60000000       0.47573028       0.83321278      -0.40535334       0.00862433      -0.00343285       0.00447267      -5.74544364
Ni      24.44399780       8.98334722      19.20301086       0.60000000       0.32314374      -0.39915910       0.76965757       0.00304455       0.01510378      -0.00006627      -5.71873981
Ni      26.29114384       7.14490383      19.30175302       0.60000000       0.08744690      -0.66244971      -0.33118157      -0.00331387       0.00136076       0.00141940      -5.71792310
Ni      26.27328524       8.90983967      17.54655540       0.60000000       0.62241979       0.11090849      -0.12200669       0.00159078      -0.00202746       0.00172140      -5.73791409
Ni      24.53242382       7.16716360      21.03148513       0.60000000       1.70033384      -0.79554655       0.13782010       0.00083097       0.00361995      -0.00554338      -5.71618921
Ni      24.50562003       8.94757277      22.75578296       0.60000000       1.60366514       0.09233068      -1.01069060       0.00531624      -0.00338590       0.00626783      -5.71523774
Ni      26.29561507       7.14791008      22.79801939       0.60000000       0.35653101       1.12823664       0.12684548       0.00185785      -0.00229902      -0.00056809      -5.72461975
Ni      26.24808732       8.93064955      21.01152511       0.60000000      -0.37969792       0.92049801      -2.26012134      -0.00604399      -0.00457901      -0.00299010      -5.71244866
Ni      24.55351929       7.14691573      24.55499053       0.60000000       0.21358524       0.83822382      -0.47315638       0.00023181      -0.00079184       0.00067564      -5.72629118
Ni      24.54620346       8.90639846      26.30301335       0.60000000       0.51128697      -0.35061379      -0.91598777       0.00033526       0.00071387       0.00084069      -5.72615367
Ni      26.31942749       7.12784051      26.32621140       0.60000000      -2.48868037       0.64844332      -2.00383571      -0.00040624       0.00056664       0.00106044      -5.72775674
Ni      26.28614077       8.90909252      24.54043545       0.60000000       2.00694649       0.92305156       0.06415940       0.00189261      -0.00171322       0.00434929      -5.72475660
Ni      24.57333545       7.12240159      28.09101437       0.60000000      -0.16545412      -1.86688339      -0.35493518      -0.00070871      -0.00013543       0.00043654      -5.72878677
Ni      24.57384690       8.87514753      29.85334180       0.60000000       0.91900020       1.14211032       0.77613121       0.00031894       0.00031487       0.00028758      -5.72910416
Ni      26.33930670       7.10757456      29.86451891       0.60000000      -1.06774290      -0.63963752      -0.67059810      -0.00023904       0.00053702       0.00059143      -5.72932613
Ni      26.32016839       8.88097562      28.08460651       0.60000000       0.78927025       1.74308693      -1.35332053       0.00067946      -0.00032037       0.00153173      -5.72826511
Ni      24.58785707       7.10222627      31.63284023       0.60000000       0.69348417      -1.04868843       2.12264325      -0.00045809       0.00069662      -0.00066657      -5.72979188
Ni      24.58985655       8.85599327      33.40108520       0.60000000      -0.28044326      -0.29481329       1.63130087       0.00008910       0.00030460      -0.00051406      -5.73016214
Ni      26.35207827       7.09298660      33.40556137       0.60000000      -0.10373273       0.48974415      -0.61645194       0.00025692       0.00034460      -0.00078464      -5.73006839
Ni      26.34260073       8.86001690      31.63104016       0.60000000      -1.94204575       1.97644720       0.04186986      -0.00038708       0.00051870      -0.00021772      -5.72973782
Ni      24.59276240      10.60930965      -0.02700431       0.60000000       1.24981550       0.89250583       0.15548784      -0.00007464       0.00063353      -0.00045763      -5.73053491
Ni      24.59395229      12.36556122       1.74560674       0.60000000      -1.71351439       0.26404297       2.07474140       0.00050332      -0.00064235       0.00187126      -5.73066223
Ni      26.35494982      10.60589035       1.74485806       0.60000000       0.43098756      -0.41847774      -0.57349416      -0.00033776       0.00031335       0.00068676      -5.73048854
Ni      26.35179908      12.36419250      -0.02515990       0.60000000      -0.25689331      -1.74278775       0.83817174      -0.00071732       0.00095779      -0.00019115      -5.73056197
Ni      24.59524919      10.60771640       3.51474900       0.60000000      -0.33164010      -0.96420231       0.40570571      -0.00041826       0.00056722       0.00056938      -5.73058170
Ni      24.59078244      12.36865668       5.28786642       0.60000000       1.39709073      -0.61697976      -0.30554128      -0.00065175      -0.00050025      -0.00073525      -5.73012155
Ni      26.35242929      10.60741879       5.28256607       0.60000000      -3.23010583       1.07051301      -1.41687262       0.00160523      -0.00023323      -0.00198180      -5.73079568
Ni      26.35214279      12.36528231       3.51692476       0.60000000       0.24949346      -0.79209584       0.27278373       0.00049176      -0.00039374      -0.00105230      -5.73067588
Ni      24.59098310      10.60939273       7.05104012       0.60000000      -1.67172434       0.57097057       0.09153578      -0.00020313      -0.00020100      -0.00142051      -5.72962707
Ni      24.57766937      12.36811339       8.82672369       0.60000000       0.75304493      -0.98488524      -0.70122317      -0.00073993      -0.00112106       0.00072781      -5.73013914
Ni      26.34154674      10.61030556       8.81709322       0.60000000      -0.56769859       0.62677807      -0.08819197      -0.00015391       0.00081766       0.00082965      -5.73012549
Ni      26.34174910      12.36976028       7.05565483       0.60000000      -1.00124800      -1.30685211       1.31924523      -0.00004761       0.00052947       0.00033105      -5.72886848
Ni      24.58052462      10.60633948      10.59521051       0.60000000       2.34926466      -0.40644366       0.53950977      -0.00102040      -0.00184282      -0.00066468      -5.73333669
Ni      24.53865714      12.31951786      12.40156715       0.60000000      -0.91359737       0.85186231      -2.37468932      -0.00104001      -0.00024406      -0.00034647      -5.61258733
Ni      26.31693845      10.60589207      12.34961901       0.60000000       1.85738037       0.91127898      -1.62643583      -0.00067699      -0.00236455      -0.00302098      -5.64577943
Ni      26.30808062      12.37031184      10.59990451       0.60000000      -0.73963715       0.40813065      -0.57973646      -0.00282165       0.00311355       0.00315107      -5.73978758
Ni      23.87188327      11.25971604      14.77445835       0.60000000      -0.56334826      -0.47858328       0.78621725       0.00064708      -0.01553493       0.00228509      -5.45685774
Ni      23.93821345      13.10813489      16.57512692       0.60000000       0.44574349      -0.87117480       1.24518921      -0.00764277      -0.01163110       0.00614603      -5.59829599
Ni      26.24486761      10.63741281      15.78624048       0.60000000       3.14852171      -0.37253922      -1.39492409       0.00125714      -0.00308397      -0.00041842      -5.61844438
Ni      26.22829998      12.33304921      14.11828570       0.60000000       0.19614027       1.22321591      -1.11319075       0.00000891      -0.00127116      -0.00487483      -5.60240561
Ni      24.54033226       8.92043990      15.79321486       0.60000000      -0.30555689      -0.95090656      -0.34266270      -0.00013014      -0.00016139       0.00122802      -5.60603118
Ni      24.38290928      10.76502476      17.36468258       0.60000000      -0.49896222      -0.32574707       0.03263752      -0.00539964       0.00617132      -0.00800767      -5.65486866
Ni      26.21321797      10.68281454      19.24611851       0.60000000       1.68494729       0.38421103       0.91272550       0.00549805       0.00058085       0.00212653      -5.71886647
Ni      26.22567894      12.38895456      17.51957705       0.60000000      -0.49777222       0.46833329       2.83414981       0.00261605      -0.00746652       0.00945073      -5.65904540
Ni      24.42049515      10.75369753      20.92635089       0.60000000      -1.38064719       0.80525570       1.29290179       0.00508020      -0.00061250       0.00566254      -5.69872487
Ni      24.44536787      12.47876294      22.68237605       0.60000000       1.02696156      -0.47176938       0.28209149       0.00305247       0.00091658      -0.00553350      -5.71721131
Ni      26.24356160      10.68173720      22.75245654       0.60000000       1.11782769      -1.02409038       1.05542386       0.00410124      -0.00201706       0.00309002      -5.71570301
Ni      26.20977310      12.43120146      20.98713963       0.60000000      -0.44903294       0.72729358      -0.53831901       0.00043890      -0.00110496       0.00115327      -5.71781862
Ni      24.50182750      10.69409354      24.50018776       0.60000000       0.52249015       0.10986737      -0.19087722      -0.00109069       0.00169214      -0.00213019      -5.71767116
Ni      24.52314952      12.42158153      26.27416812       0.60000000       1.27958287       1.37565840       0.13446860      -0.00116349       0.00258085      -0.00162692      -5.72294855
Ni      26.29359682      10.65240926      26.29997875       0.60000000      -0.77154474       0.39689421       0.20538901      -0.00052424      -0.00072279       0.00244026      -5.72602338
Ni      26.26445903      12.41444962      24.51538916       0.60000000      -0.30221879       0.44422593      -0.80693990      -0.00143746       0.00005822       0.00313307      -5.72070134
Ni      24.55179051      10.64960024      28.06731273       0.60000000      -1.24915716      -2.26194151       1.06805239      -0.00044819       0.00148939       0.00046518      -5.72755283
Ni      24.56426074      12.38761276      29.84209841       0.60000000       0.05090596      -1.01829445       0.25666788       0.00195104      -0.00074877      -0.00119876      -5.72892445
Ni      26.32810196      10.62661103      29.85326313       0.60000000      -0.02369980      -1.22402361       0.52328656       0.00039099      -0.00017713       0.00033915      -5.72917008
Ni      26.31050256      12.38944895      28.07299152       0.60000000       1.33913086       0.47952608       1.36151924       0.00003516       0.00055293       0.00100832      -5.72816944
Ni      24.57962846      10.62207897      31.62375019       0.60000000       1.76126360      -0.93166410       0.65974171      -0.00041171       0.00096091      -0.00009793      -5.72970867
Ni      24.58694616      12.36927490      33.39903171       0.60000000       0.75448060       0.47629675      -0.64166096      -0.00134831       0.00170362      -0.00093026      -5.73038852
Ni      26.34767297      10.61097076      33.40203622       0.60000000       0.16191053      -1.32753148       1.80187010       0.00001950       0.00064169      -0.00035553      -5.73023933
Ni      26.33830345      12.37178257      31.62721381       0.60000000       0.12425569       1.13488429      -1.41928491       0.00024993       0.00043989      -0.00009176      -5.72991580
Ni      24.59180834      14.12178359      -0.02577950       0.60000000      -0.02233488      -0.11594885      -0.28633426      -0.00073050       0.00014507       0.00099869      -5.73073268
Ni      24.59207014      15.87842937       1.74892939       0.60000000       0.87592319       0.05974371      -0.64191955       0.00096762      -0.00058465       0.00049170      -5.73082268
Ni      26.35189899      14.12095434       1.74782467       0.60000000       1.76110224       1.89782751       1.49297797       0.00045083      -0.00001639       0.00063511      -5.73069608
Ni      26.35092011      15.87564933      -0.02269213       0.60000000      -0.75958698       0.47134119      -0.29330943       0.00039460       0.00056235       0.00056991      -5.73069483
Ni      24.59145537      14.12410163       3.51951588       0.60000000      -2.35299398      -1.16085408       2.96788842       0.00067686       0.00038826      -0.00073508      -5.73064536
Ni      24.58236673      15.88303894       5.29618371       0.60000000       1.60888490      -0.15562192       0.69202248      -0.00173372      -0.00032309      -0.00040679      -5.72898036
Ni      26.34300038      14.12601142       5.29158470       0.60000000      -0.65434421       0.79088299       0.34879196       0.00098824      -0.00217609      -0.00023049      -5.73024142
Ni      26.34661483      15.87936215       3.52223119       0.60000000       0.12072322      -1.24837614       0.31808309       0.00049377      -0.00100505       0.00059713      -5.73064929
Ni      24.57693776      14.12940494       7.06645052       0.60000000       0.10993963      -0.41131633       0.51068560       0.00020094       0.00048956      -0.00060533      -5.72648925
Ni      24.53097578      15.88655375       8.86367797       0.60000000      -0.83634867      -0.73949559       1.80958236      -0.00299205      -0.00040443       0.00335691      -5.73976773
Ni      26.31321575      14.13030126       8.83883094       0.60000000      -0.70627788       1.43080089      -0.71522499      -0.00239195       0.00026421      -0.00071756      -5.72420573
Ni      26.32084944      15.88228580       7.07472450       0.60000000      -0.28343137      -0.10083407      -0.24923021      -0.00229920       0.00276614      -0.00107049      -5.72713012
Ni      24.52797657      14.12417779      10.61701396       0.60000000       0.18657290      -1.29118698       0.39829547      -0.00072736      -0.00042087      -0.00051748      -5.75940609
Ni      24.40096444      15.84165899      12.42701294       0.60000000       2.42768732       0.59282094       0.76527258       0.00461655       0.00126833       0.00579002      -5.72344530
Ni      26.23290020      14.11257242      12.39237636       0.60000000      -0.26891928      -0.71584357      -2.25123533      -0.00210212       0.00511022       0.00119989      -5.73727113
Ni      26.25879810      15.87405324      10.63344020       0.60000000       1.75016058      -1.74410289       1.39556230      -0.00218202       0.00387610      -0.00139160      -5.72308958
Ni      24.36227999      13.94492986      14.21317845       0.60000000      -0.73031458      -0.84598517      -0.93882342      -0.00780811      -0.01083297       0.01142898      -5.65302646
Ni      24.33878907      15.64544900      15.95868019       0.60000000      -1.93267722       3.33056703      -0.04353783       0.00210243      -0.00299369      -0.00133682      -5.68090600
Ni      26.21038808      14.07916884      15.84910056       0.60000000      -0.41563571       0.44796521       0.47641623      -0.00341318      -0.00424515       0.00120326      -5.65198004
Ni      26.15217532      15.82672082      14.15106771       0.60000000      -0.73638753       0.66676610       0.06982722      -0.00535942      -0.00176556       0.00303078      -5.71792811
Ni      22.05914316      14.75620029      16.48844864       0.60000000       1.26397343       1.01173829       0.05349231       0.00515671      -0.00188709       0.00240086      -5.64247662
Ni      23.99434993      14.87564381      18.38760126       0.60000000       0.76748236       1.39843720       0.19238329      -0.00244524      -0.00657138      -0.00166101      -5.60416871
Ni      26.23473011      14.13498940      19.27305181       0.60000000       0.75690245       0.92977362       0.29652767       0.00105857       0.00423309       0.00279376      -5.66574025
Ni      26.17991390      15.83961720      17.59908781       0.60000000      -2.65018609       1.17413119      -0.34252329      -0.00720005       0.00152976      -0.00373517      -5.64175099
Ni      24.35571110      14.28603404      20.84687964       0.60000000       2.14054059       0.62114203       1.40674756      -0.00222753       0.00404689      -0.00199758      -5.65410936
Ni      24.47201243      15.94837100      22.65816458       0.60000000       1.30049390       1.04804037      -1.22626259       0.00519244      -0.00282745      -0.00414025      -5.59118730
Ni      26.23832745      14.16143749      22.74084202       0.60000000       0.85045521      -1.46006494       1.16406700      -0.00089760       0.00197981       0.00154987      -5.73563981
Ni      26.22722674      15.88920001      21.00742778       0.60000000      -0.58184347      -0.36366363       1.03468575      -0.00054055      -0.00316450       0.00176163      -5.62155092
Ni      24.49406889      14.18782000      24.47532018       0.60000000       2.75977829       0.22469886       0.86780117      -0.00072734       0.00260198      -0.00366504      -5.73694813
Ni      24.53029147      15.90224762      26.26688692       0.60000000       0.35344005      -0.17499239       0.80088358       0.00061970       0.00002306       0.00210585      -5.72774130
Ni      26.29302271      14.14547183      26.29275150       0.60000000       1.53373450      -0.59309920       1.11912270      -0.00066710       0.00174791       0.00117935      -5.72522134
Ni      26.27698707      15.89369204      24.51538001       0.60000000       0.72629158      -0.90114587       1.20692434      -0.00263247       0.00034890       0.00050655      -5.74044716
Ni      24.54739423      14.14814100      28.05581936       0.60000000       1.08025009      -1.26313158       0.88820141      -0.00125415       0.00089083       0.00196469      -5.72662884
Ni      24.56782843      15.88126703      29.84462663       0.60000000       0.66461688       1.84625250       1.16228889       0.00160081      -0.00036217       0.00057514      -5.72990674
Ni      26.32725500      14.12931288      29.85110396       0.60000000      -0.70691991      -0.10242202      -1.46487732       0.00014576      -0.00014591      -0.00006631      -5.72950983
Ni      26.31613735      15.88160211      28.07539270       0.60000000      -0.63618516       0.04796631      -1.71108243       0.00024884       0.00049159      -0.00020368      -5.72802073
Ni      24.57792441      14.12760114      31.62247955       0.60000000       0.00495358       1.20209563       0.55524954       0.00065759       0.00013463      -0.00010087      -5.73000532
Ni      24.58805111      15.87624895      33.40132453       0.60000000       0.51609194      -1.08353534       0.45408207      -0.00140270       0.00073862      -0.00060185      -5.73062187
Ni      26.34698108      14.12103241      33.40285751       0.60000000      -0.50650542       0.49248408       0.38900990      -0.00087976       0.00100267      -0.00065490      -5.73045939
Ni      26.34067415      15.87568590      31.63022360       0.60000000       0.04725273       0.83509523       0.83933336       0.00002812      -0.00020713      -0.00027009      -5.73025209
Ni      24.59212177      17.63171182      -0.02308108       0.60000000       0.44305985       0.49086383      -0.64305337       0.00124851      -0.00037464       0.00008178      -5.73082817
Ni      24.59087309      19.38871887       1.75209908       0.60000000       2.46897647       0.37578365      -0.34866285      -0.00009079      -0.00073588       0.00168378      -5.73091471
Ni      26.34958411      17.63262025       1.75183452       0.60000000      -1.08223180       2.02596597      -0.69449545      -0.00051614       0.00047204       0.00021157      -5.73073721
Ni      26.35140757      19.38626355      -0.01912643       0.60000000      -0.61651513      -0.62716256      -0.70614899       0.00030870       0.00076042      -0.00011887      -5.73074210
Ni      24.58661864      17.63597142       3.52519071       0.60000000      -0.15576637      -0.27186452      -0.98033081       0.00074294      -0.00109997       0.00010226      -5.73033530
Ni      24.57118256      19.38814986       5.30878805       0.60000000       0.17746183       0.02731571       1.14303070      -0.00043242      -0.00058839      -0.00031819      -5.72790545
Ni      26.33300030      17.63465714       5.30179910       0.60000000       2.03840895       0.30955941      -0.46299754      -0.00259309      -0.00087211       0.00056386      -5.72940499
Ni      26.34098002      19.38799831       3.52916745       0.60000000      -0.53296703      -0.06860595       3.27605191       0.00145553      -0.00120094       0.00025825      -5.73035079
Ni      24.55713568      17.63544820       7.08354322       0.60000000      -2.01197024      -0.96957357      -0.01907545      -0.00395754       0.00050863       0.00223880      -5.73278564
Ni      24.50822317      19.36221523       8.88574227       0.60000000       0.13120350      -0.91471951       0.28456757       0.00013529       0.00126476       0.00129135      -5.73748189
Ni      26.28304836      17.62429365       8.86511062       0.60000000       1.32720933       2.15688621      -1.50799562      -0.00002123       0.00267956      -0.00229273      -5.72578990
Ni      26.30807148      19.37898040       7.08849038       0.60000000      -1.05195130       0.12016973       0.03405292      -0.00209599      -0.00155605      -0.00165568      -5.72674024
Ni      24.45207624      17.60639789      10.66929146       0.60000000       0.27477160       2.29030763      -2.11171046       0.00202855       0.00205171       0.00211728      -5.72723329
Ni      24.35582737      19.28328972      12.46364626       0.60000000      -1.54775675      -0.95974902       0.03392749      -0.00442400      -0.00183140       0.00490576      -5.72126883
Ni      26.18863408      17.58949883      12.41601528       0.60000000       1.50752940       1.38787069      -1.67425011       0.00464613       0.00183379      -0.00341558      -5.72107792
Ni      26.23478931      19.34276061      10.65319353       0.60000000      -0.63426105       0.88176212       0.16885721      -0.00078663       0.00091070      -0.00144381      -5.72363526
Ni      24.27532126      17.50478946      14.18982533       0.60000000       1.18176330      -1.09338050       3.05455963      -0.00363882      -0.00310471       0.00712654      -5.69445318
Ni      24.24632185      19.24876760      15.95632396       0.60000000       0.35949944      -1.64130566       0.36241716      -0.00073868       0.00101631      -0.00424174      -5.65171689
Ni      26.09340395      17.55720923      15.89545763       0.60000000       0.00734558      -2.28245084       2.86176070       0.00090027       0.00185336       0.00009875      -5.69770533
Ni      26.13287026      19.30354505      14.17494279       0.60000000      -0.29984781       1.84145134       3.54449983      -0.00265208       0.00311783      -0.00276771      -5.71023786
Ni      24.24173302      17.42986375      17.71395619       0.60000000       0.44381265       0.38017144      -1.37695347      -0.00009570       0.00043859       0.00404709      -5.66431034
Ni      24.48923228      19.33906985      19.42273943       0.60000000       1.27950168      -0.63244902       0.85868864       0.00074784      -0.00002150       0.00041300      -5.60580486
Ni      26.16591638      17.58470869      19.33521608       0.60000000      -0.38523888      -1.40275691      -0.61734616      -0.00434088       0.00238236      -0.00192028      -5.59615648
Ni      26.12976672      19.31565002      17.60103092       0.60000000       1.00927963       0.15849280      -0.16105094      -0.00160054       0.00377077       0.00233955      -5.69635034
Ni      23.88015636      16.69690171      20.22484999       0.60000000       0.60758873      -0.59477355      -0.61334940       0.00036972       0.00499228       0.00264567      -5.40532316
Ni      24.48806577      19.38302402      22.69810979       0.60000000       0.15688824      -0.62872525      -0.37772208      -0.00131045      -0.00573081      -0.00371241      -5.61357570
Ni      26.27230300      17.63716165      22.76341701       0.60000000       0.73022691      -2.26155340      -1.44572997       0.00124611      -0.00151928       0.00302523      -5.63749915
Ni      26.28189295      19.38160766      21.05909355       0.60000000       1.77042089       0.18293575       0.30661439      -0.00064771       0.00224340      -0.00302718      -5.64189851
Ni      24.51452606      17.64272393      24.46958019       0.60000000       1.27477515      -0.41727513      -1.49637253      -0.00030652       0.00240698       0.00141797      -5.71379673
Ni      24.54977260      19.36890113      26.29480068       0.60000000       0.92039322      -0.55073207      -0.45987339      -0.00108912       0.00025387      -0.00041589      -5.72395235
Ni      26.30510694      17.62881071      26.30133780       0.60000000      -0.27600914       1.21064463       1.24905690      -0.00051100       0.00027583       0.00074291      -5.72771406
Ni      26.29485615      19.37397886      24.53714598       0.60000000      -0.15038493       1.40622970      -0.38807063      -0.00029470       0.00029637      -0.00107014      -5.73612881
Ni      24.55841169      17.62846230      28.06781822       0.60000000      -1.22827830       0.47074446       0.08061206       0.00085212       0.00015925       0.00208461      -5.72831494
Ni      24.57629166      19.37617718      29.85634129       0.60000000      -0.96835460      -0.22729670       0.32650610       0.00132082       0.00131762       0.00044552      -5.73029220
Ni      26.33368159      17.62674371      29.85852113       0.60000000      -0.95170164      -0.39931854       0.80712829       0.00131414       0.00070349      -0.00047084      -5.73008448
Ni      26.32686032      19.37474266      28.09002227       0.60000000      -0.20758016       0.41525964       1.23844256       0.00028676       0.00179140      -0.00026630      -5.72851372
Ni      24.58260508      17.62808300      31.62813929       0.60000000       2.00043781      -0.35732456       1.33602792      -0.00095105       0.00014399      -0.00100627      -5.73047954
Ni      24.59098979      19.38416838      33.40525685       0.60000000      -1.25856781       0.26397947       0.15098158      -0.00082524      -0.00076809      -0.00038849      -5.73070967
Ni      26.34898652      17.62942268      33.40637455       0.60000000      -1.99275480      -1.09675117       0.56294653      -0.00086165      -0.00047390      -0.00028298      -5.73060107
Ni      26.34552492      19.38168759      31.63627719       0.60000000      -1.10227558      -0.95584009      -0.73477551      -0.00026879      -0.00094405       0.00011803      -5.73042107
Ni      24.59350858      21.14238066      -0.01992578       0.60000000       1.16121889       1.08441431       0.81026352       0.00001548      -0.00003102       0.00017862      -5.73089498
Ni      24.59024608      22.89832481       1.75647830       0.60000000      -1.87655350      -1.70184819      -1.80332304       0.00015959      -0.00073859       0.00050418      -5.73077816
Ni      26.34784363      21.14248123       1.75634539       0.60000000       0.70214262      -1.31071372       1.30495592       0.00056155       0.00070475       0.00061396      -5.73059833
Ni      26.35258271      22.89862781      -0.01488806       0.60000000       0.10043769       0.40403985       0.23553636      -0.00025206       0.00054064      -0.00041851      -5.73065585
Ni      24.58208745      21.14197415       3.53207067       0.60000000       0.33525855       0.83957293      -0.98063071       0.00059286      -0.00059980      -0.00134699      -5.73013824
Ni      24.56470600      22.88489381       5.31771713       0.60000000       0.41508477      -1.53115531      -0.36581615       0.00107650      -0.00000977       0.00001501      -5.72783160
Ni      26.32535049      21.13535611       5.31117433       0.60000000      -1.37224791       1.83025523       1.23222752      -0.00007016       0.00047624       0.00001561      -5.72915822
Ni      26.33838153      22.89377184       3.53466852       0.60000000      -1.41274739      -1.59350129       0.89626393      -0.00005984      -0.00097475       0.00119987      -5.73002774
Ni      24.54383846      21.12470502       7.10148629       0.60000000      -2.74347551       1.66935855       0.72437616      -0.00195316      -0.00020706      -0.00114431      -5.72426015
Ni      24.50712000      22.84044734       8.89271379       0.60000000      -1.94885024       0.52550941      -0.82195184      -0.00196801      -0.00303580       0.00361399      -5.71936202
Ni      26.27544603      21.10557844       8.87490201       0.60000000      -0.85244604      -0.97292402       0.73019301       0.00037649      -0.00017722       0.00035694      -5.72380561
Ni      26.30444455      22.87134889       7.09412783       0.60000000       0.08314126      -0.74540176       1.66076745      -0.00083380      -0.00112548       0.00037117      -5.72744769
Ni      24.45027795      21.05685378      10.67950512       0.60000000      -0.20987717       0.78182569      -0.27034674      -0.00708631      -0.00396311       0.00279889      -5.73118496
Ni      24.42929204      22.78602294      12.42786899       0.60000000       0.68890021       0.33596906      -0.70550485      -0.00426249      -0.00253940      -0.00185701      -5.73182005
Ni      26.19262514      21.05677106      12.42128166       0.60000000       1.56153603       2.24921720      -0.21961045      -0.00141663       0.00088390       0.00034279      -5.71803695
Ni      26.24881710      22.82755825      10.64478451       0.60000000      -0.55905711      -0.51764362       0.43122378      -0.00183515      -0.00330968       0.00125358      -5.72092623
Ni      24.32976361      21.02057274      14.21489595       0.60000000       1.09386773      -0.99511652       0.75188360       0.00121136       0.00200498      -0.00090819      -5.71405220
Ni      24.35891503      22.79661737      15.92197052       0.60000000      -0.38196204      -1.24799533       1.50421016      -0.00204807      -0.00361963       0.00218772      -5.72026604
Ni      26.14181449      21.05726509      15.89586902       0.60000000       0.72567315      -0.16238155      -0.63998247      -0.00252187       0.00171247       0.00114193      -5.70967555
Ni      26.19569777      22.80757237      14.15143697       0.60000000      -0.12709397       1.59949814       0.09267624      -0.00142604       0.00067238      -0.00027541      -5.72065872
Ni      24.27866416      21.05557898      17.64874517       0.60000000      -1.00193839      -1.70504498       0.97925186      -0.00227059      -0.00032145       0.00214648      -5.61496598
Ni      24.38332217      22.83632652      19.33023943       0.60000000       0.60968915      -0.55945403      -0.94675562      -0.00173059      -0.00850487       0.00280122      -5.60006720
Ni      26.21655570      21.11596769      19.31007593       0.60000000      -1.62561085      -0.74560727       0.29866066      -0.00257104      -0.00202957       0.00556854      -5.74037468
Ni      26.20063913      22.83342555      17.59432682       0.60000000      -0.11136393       0.51744645       0.10943784      -0.00181580       0.00487422       0.00085712      -5.72594750
Ni      24.47327685      21.18513447      21.04538519       0.60000000      -0.36020564      -0.85335460       0.00770343       0.00588596       0.00002414      -0.00319147      -5.60725874
Ni      24.54993192      22.88907998      22.81745556       0.60000000      -1.64359124       2.11696080      -1.70745869       0.00197928       0.00446903       0.00165541      -5.65447426
Ni      26.29233741      21.12911490      22.80096106       0.60000000      -0.29774820       1.89049227       1.25345437      -0.00019815      -0.00291113       0.00170551      -5.75669497
Ni      26.27949655      22.87710992      21.05474742       0.60000000      -0.92558053      -0.95818386      -1.18471830      -0.00065282       0.00113544      -0.00165560      -5.73275089
Ni      24.54725662      21.11980822      24.54554162       0.60000000       1.54259438      -2.28804193      -1.04659215      -0.00239024      -0.00534885      -0.00227358      -5.74813974
Ni      24.56888251      22.87688682      26.33533136       0.60000000      -0.43070667      -3.63997445       0.37936644      -0.00063660      -0.00243536      -0.00172486      -5.72859687
Ni      26.32361857      21.12393425      26.33034439       0.60000000       0.51439186       0.28510682       1.57422382      -0.00232079       0.00220011      -0.00137519      -5.72587806
Ni      26.32543879      22.88236702      24.58286642       0.60000000      -0.98271814       0.82483847       0.13644987      -0.00230409      -0.00164013      -0.00138079      -5.73443758
Ni      24.57075129      21.12320868      28.08980017       0.60000000       1.42919782      -3.14305657       0.37035170       0.00150072       0.00007720      -0.00114732      -5.72707105
Ni      24.58445646      22.88690845      29.86895236       0.60000000      -0.80492544       0.03452155       0.38365452       0.00003231       0.00025192       0.00060171      -5.72991520
Ni      26.34134330      21.13259192      29.86897321       0.60000000       2.19126992      -0.88317194      -1.00056341       0.00038650       0.00062067      -0.00040040      -5.73020822
Ni      26.33885329      22.88544489      28.10759892       0.60000000      -0.78208323       0.07459487      -1.31998492       0.00143941       0.00243688       0.00061151      -5.72940886
Ni      24.58811349      21.13536531      31.63542653       0.60000000      -0.94096566      -1.39474803       1.39222079      -0.00018397      -0.00055009       0.00052375      -5.73050201
Ni      24.59398579      22.89669493      33.41029132       0.60000000      -0.48484247       1.12584510       0.79525424       0.00009251      -0.00053525      -0.00002637      -5.73071957
Ni      26.35182222      21.14042840      33.41107847       0.60000000       0.72093391       1.57050856       1.89601519      -0.00050564      -0.00080151      -0.00123522      -5.73062646
Ni      26.35036273      22.89452860      31.64334111       0.60000000      -0.85282991       0.20321197      -0.66243029       0.00085861      -0.00053396      -0.00064695      -5.73036581
Ni      24.59478019      24.65599005      -0.01527660       0.60000000      -0.58245562       1.43115882      -1.75623422      -0.00009361      -0.00030226      -0.00108470      -5.73075420
Ni      24.59106805      26.41080155       1.76003075       0.60000000       0.43580097       0.14684827      -1.49727549      -0.00023139      -0.00110359       0.00074190      -5.73039007
Ni      26.34825928      24.65369793       1.76036942       0.60000000       0.65684009      -0.62353327      -0.63480896      -0.00010981      -0.00053905       0.00070609      -5.73032510
Ni      26.35439612      26.41459306      -0.01101606       0.60000000       1.95023134      -1.34461083       1.99988201      -0.00005824       0.00000352      -0.00056128      -5.73047680
Ni      24.58077834      24.64734098       3.53684742       0.60000000      -1.79884389      -2.18835060       1.01846205      -0.00129252      -0.00084648      -0.00003460      -5.72978246
Ni      24.56787497      26.38843109       5.31522849       0.60000000       1.35702674       0.38992793      -0.41187961       0.00081430      -0.00074462       0.00068825      -5.72809792
Ni      26.32491570      24.63682399       5.31361280       0.60000000      -2.51711034      -0.40712436      -0.22862774       0.00085310       0.00032965       0.00027244      -5.72888660
Ni      26.34087921      26.40352225       3.53543986       0.60000000      -0.70993033       0.57782737      -0.69676351      -0.00076878      -0.00022906       0.00004710      -5.72961628
Ni      24.54251606      24.61471162       7.10236925       0.60000000      -1.45799586       0.84075514      -0.32747024       0.00070884      -0.00127678       0.00052194      -5.72500318
Ni      24.52764349      26.34702786       8.86527428       0.60000000       0.30893407       0.09538733      -0.05910087       0.00419509       0.00219673      -0.00354552      -5.72423285
Ni      26.28586152      24.60246178       8.86531201       0.60000000      -0.01615490       0.23173177       1.03382502      -0.00018941      -0.00074132       0.00038455      -5.72585160
Ni      26.31327851      26.37746569       7.08357327       0.60000000       1.12954500      -0.34483302       1.17284468       0.00089895      -0.00039770       0.00069151      -5.72770882
Ni      24.48251207      24.56128938      10.65181251       0.60000000       0.27161325      -0.16100774      -0.91409758      -0.00101839       0.00057858      -0.00193037      -5.71708685
Ni      24.49895605      26.32550678      12.37188699       0.60000000       1.53316652      -0.44279972      -0.22110098       0.00217014      -0.00129114      -0.00063365      -5.72101504
Ni      26.24788713      24.57539871      12.38350611       0.60000000       0.28104696       0.72526582      -0.08924125      -0.00138915      -0.00117648       0.00000951      -5.72176933
Ni      26.28358870      26.34994540      10.61052556       0.60000000      -0.32402834      -1.39874392       2.34736831       0.00135889       0.00055773      -0.00033954      -5.72578233
Ni      24.44561711      24.55122676      14.14819005       0.60000000      -0.44027263      -1.16349498      -0.91039082      -0.00255691      -0.00143425       0.00438394      -5.73512208
Ni      24.49669895      26.33771185      15.84916935       0.60000000       1.59439927      -1.46282218      -1.10801463      -0.00021244      -0.00255398       0.00005603      -5.73571581
Ni      26.23788654      24.58431365      15.85739578       0.60000000       0.50695424      -2.12138073       2.16374850       0.00205527       0.00059413       0.00046636      -5.72564995
Ni      26.27274889      26.34934527      14.10234345       0.60000000      -0.75294922       0.44645413       1.42897448       0.00135869       0.00060125      -0.00085549      -5.72437251
Ni      24.44676620      24.57555154      17.59988890       0.60000000      -0.50021693       0.09085512      -0.96679950       0.00109532      -0.00180258       0.00062524      -5.73352706
Ni      24.52625296      26.36212225      19.32867210       0.60000000       0.27544210       0.43545891       1.96076104       0.00048389       0.00247912      -0.00101230      -5.75472701
Ni      26.26630085      24.60632300      19.31812129       0.60000000       0.82976576      -2.04189808      -0.53491624      -0.00172214      -0.00202302      -0.00251581      -5.73832273
Ni      26.28368082      26.36544258      17.58040006       0.60000000       0.76685477       0.75106559       1.74710067      -0.00014535      -0.00034818       0.00181490      -5.72684741
Ni      24.52233558      24.60495592      21.06805894       0.60000000      -2.19874154       0.94189232      -2.17714782      -0.00059938      -0.00256328      -0.00162516      -5.65457886
Ni      24.56052027      26.38062807      22.83019407       0.60000000       0.37740198      -0.67492007      -1.66539259       0.00202164      -0.00048768       0.00003546      -5.73744613
Ni      26.32068440      24.63668163      22.82747973       0.60000000      -0.12515874       1.15910265      -0.67517494      -0.00234460       0.00067914      -0.00226499      -5.73972857
Ni      26.31475604      26.38439141      21.07576200       0.60000000       0.67060678       1.05651527       0.46161855      -0.00196369      -0.00227922      -0.00022801      -5.73224974
Ni      24.56571814      24.63497741      24.58506161       0.60000000       0.52444806       0.96680047       0.47515052       0.00154627       0.00221120      -0.00178544      -5.73915023
Ni      24.57903963      26.39919640      26.35253640       0.60000000       0.12800454      -0.64260081       0.64001858      -0.00018950       0.00167916      -0.00035087      -5.72901458
Ni      26.33813793      24.64383496      26.35219258       0.60000000      -0.28751904      -2.77361768       0.57954679       0.00109691      -0.00114423      -0.00007494      -5.72927451
Ni      26.33734505      26.40041846      24.59567533       0.60000000      -1.50997822      -2.46110386      -1.40065468      -0.00030851      -0.00019929      -0.00016655      -5.72913390
Ni      24.58153558      24.64223703      28.10955867       0.60000000       2.64818430       0.50930059      -0.85017840       0.00077085      -0.00008266      -0.00117145      -5.72921336
Ni      24.59105207      26.40895717      29.88051952       0.60000000      -1.29312963       1.00027614      -1.80553474       0.00043168       0.00054726      -0.00025340      -5.73050189
Ni      26.34914563      24.65011757      29.87969267       0.60000000       1.17587848       1.08432492       0.46348305      -0.00062846       0.00073689      -0.00013656      -5.73029190
Ni      26.34823587      26.40861557      28.11989171       0.60000000       1.17575238       1.48340855       0.67885704      -0.00098882      -0.00051782       0.00035957      -5.73031753
Ni      24.59279631      24.65168638      31.64344448       0.60000000       0.15388406      -0.30708073      -1.85182738       0.00032905       0.00065350      -0.00045815      -5.73048317
Ni      24.59666384      26.41474600      33.41600548       0.60000000      -0.88653730       0.25261410      -1.66810313      -0.00051382      -0.00035601      -0.00034527      -5.73060060
Ni      26.35466273      24.65587860      33.41613191       0.60000000      -1.23560854      -0.39381693       0.56592539      -0.00032376      -0.00056596      -0.00007460      -5.73054111
Ni      26.35521567      26.41437218      31.65033518       0.60000000       1.99520720      -1.16694443       0.61835213      -0.00029147      -0.00105504       0.00000668      -5.73043883
Ni      24.59662408      28.17453048      -0.01191329       0.60000000      -2.35507183       1.04919648       0.57356283       0.00003402      -0.00052287       0.00029207      -5.73047101
Ni      24.59462476      29.93157936       1.75844290       0.60000000      -0.81254121       1.36442458      -1.17040731       0.00044620       0.00015976       0.00034069      -5.72998637
Ni      26.35127538      28.17024283       1.76070141       0.60000000      -0.47579831      -2.24902299       0.99001395       0.00041901      -0.00018542       0.00013325      -5.73002726
Ni      26.35743448      29.93671869      -0.01044998       0.60000000       0.30952334       2.29328591       0.61863684       0.00005889      -0.00003785       0.00092925      -5.73022634
Ni      24.58503017      28.16088620       3.53391809       0.60000000       2.33047022       0.57325779       0.16032559       0.00097860       0.00087969      -0.00104622      -5.72958219
Ni      24.58124740      29.91382787       5.29865537       0.60000000       1.13524646       0.58611015      -0.18519453       0.00082454       0.00037166       0.00011563      -5.72902292
Ni      26.33406845      28.15207148       5.30404151       0.60000000      -1.83034526      -0.08640869       1.06152454      -0.00002040      -0.00005226       0.00024060      -5.72885925
Ni      26.34803726      29.92510501       3.52811143       0.60000000       1.30743253       1.04107944      -0.69317130       0.00029083       0.00042172       0.00061151      -5.72953731
Ni      24.56006760      28.13244661       7.07939584       0.60000000       1.08712826       0.04087758       1.35638581       0.00027187       0.00121468      -0.00023495      -5.72727102
Ni      24.56402742      29.89471853       8.82508097       0.60000000       0.82276944       0.91702121      -1.94359957       0.00077934      -0.00081575       0.00082336      -5.72819746
Ni      26.31172916      28.12917929       8.83529335       0.60000000       0.80281386       2.63428422      -1.47991927       0.00072836      -0.00072987       0.00113554      -5.72757119
Ni      26.33296400      29.90793531       7.06069183       0.60000000       1.22661513      -1.49697575       0.88711968       0.00025732      -0.00047660       0.00130162      -5.72878861
Ni      24.53658651      28.10950531      10.59851053       0.60000000      -2.24635958       0.06029191      -0.73259356       0.00127049       0.00102484      -0.00013211      -5.72595245
Ni      24.55715053      29.89068277      12.32990736       0.60000000       0.38796366       2.06036266       0.56782481       0.00072032       0.00001989      -0.00092398      -5.72851098
Ni      26.30022070      28.12165994      12.34053426       0.60000000       0.26458579      -0.10978815       0.85746320      -0.00006984      -0.00077388      -0.00005852      -5.72756714
Ni      26.32172571      29.89765262      10.57596555       0.60000000       1.23728364      -0.06900883      -0.07791734       0.00112618      -0.00043854      -0.00097909      -5.72882420
Ni      24.53217838      28.11235192      14.09017826       0.60000000      -2.40849507       0.81808088      -0.36612163       0.00042890      -0.00018817       0.00021613      -5.72463858
Ni      24.56223068      29.90027267      15.82784684       0.60000000      -0.25124894      -0.93922779      -0.74278534      -0.00117160      -0.00072430      -0.00075462      -5.72804809
Ni      26.30364306      28.13106960      15.83145136       0.60000000       0.24191259      -0.06037484      -0.00878902      -0.00001621      -0.00034887       0.00202930      -5.72663575
Ni      26.32128176      29.90077894      14.07722708       0.60000000       1.32414142      -0.74940439      -1.81115180       0.00011003      -0.00031731      -0.00092177      -5.72925597
Ni      24.54691860      28.13237259      17.58071122       0.60000000       0.47182230       1.03029047      -0.53394302      -0.00159206      -0.00472605      -0.00072333      -5.73270345
Ni      24.57254915      29.91109970      19.33352906       0.60000000       1.63235714      -0.63150546       0.35589610       0.00120123      -0.00108134      -0.00139486      -5.72815460
Ni      26.31903159      28.14439666      19.32964507       0.60000000       1.28325406      -0.15552671       0.37423094      -0.00040600       0.00029204      -0.00097667      -5.72647518
Ni      26.32969376      29.91070702      17.57939564       0.60000000       1.18595535      -1.07313506      -1.57989550      -0.00269957      -0.00181724      -0.00114981      -5.72930562
Ni      24.56479547      28.14417754      21.08348582       0.60000000      -1.64575583       2.11275640      -0.33772979      -0.00038157      -0.00054236       0.00061773      -5.72877795
Ni      24.58159223      29.91815366      22.84409622       0.60000000       1.61044846       1.61652756       0.66297050       0.00033679       0.00000406       0.00037143      -5.72913086
Ni      26.33576056      28.15579035      22.84029973       0.60000000      -0.73593045      -1.23670834      -1.23589876       0.00217087       0.00069448       0.00065630      -5.72834671
Ni      26.33945162      29.91873636      21.08843887       0.60000000       0.59858656       1.00812231      -3.57339462       0.00035046       0.00036162       0.00049063      -5.72947168
Ni      24.57860083      28.15492674      24.59570719       0.60000000       0.68719106       0.48240034       2.65960129      -0.00147903      -0.00035866       0.00236342      -5.72836953
Ni      24.58939710      29.92724975      26.36131931       0.60000000       0.31647669       0.14887687      -1.26641695       0.00097404      -0.00024090       0.00039825      -5.73019749
Ni      26.34754585      28.16711749      26.36114841       0.60000000      -0.24663069       2.93568868       0.46333410      -0.00000687      -0.00025922      -0.00010409      -5.73009157
Ni      26.34796785      29.92688916      24.60399499       0.60000000      -0.36342600       0.69535182       1.54842848      -0.00014362      -0.00016424       0.00003908      -5.73017776
Ni      24.58947823      28.16745622      28.11992554       0.60000000      -2.08470849       0.04591589      -0.59894304       0.00025831       0.00091894       0.00035487      -5.73035187
Ni      24.59641578      29.93587556      29.88737164       0.60000000       0.56564702       1.88109211       0.08903891      -0.00042681      -0.00001638       0.00001524      -5.73046094
Ni      26.35498643      28.17425866      29.88761881       0.60000000      -0.05334773      -0.83945564       3.00033575       0.00037769      -0.00005709      -0.00094518      -5.73048085
Ni      26.35476352      29.93504954      28.12631617       0.60000000      -0.96614838      -0.90452521       1.13306955      -0.00006276      -0.00006575      -0.00072301      -5.73045206
Ni      24.59686930      28.17487850      31.65070135       0.60000000      -0.41320246       0.08616958       0.59161779      -0.00069117      -0.00045683      -0.00041625      -5.73052436
Ni      24.59910294      29.93850191      33.42003776       0.60000000       1.81530741       1.45848166       0.40507861      -0.00046029      -0.00038726      -0.00077173      -5.73048896
Ni      26.35775200      28.17654573      33.42069870       0.60000000      -1.60554457       1.09076961       0.38643901      -0.00076701      -0.00034481      -0.00095808      -5.73048699
Ni      26.35900541      29.93939333      31.65509053       0.60000000       1.02485558      -0.38582830       3.17811170      -0.00083758      -0.00074803      -0.00143446      -5.73046619
Ni      24.59911452      31.70029556      -0.01236789       0.60000000      -1.23822331      -1.32866330       0.18504006       0.00009263      -0.00059063       0.00061412      -5.73020411
Ni      24.59862007      33.46219037       1.75273317       0.60000000       0.07760262      -1.22421051      -0.56579416      -0.00007855      -0.00042845       0.00012705      -5.73002833
Ni      26.35629922      31.69633230       1.75594679       0.60000000       1.39493655       0.65056746       0.82002208       0.00003309      -0.00066047       0.00063481      -5.72990632
Ni      26.35996030      33.46554926      -0.01352116       0.60000000      -0.48844830       1.41390433      -1.36240433       0.00044259      -0.00021531       0.00003489      -5.73005038
Ni      24.59307805      31.69014457       3.52359830       0.60000000       0.64291715       0.61530962       1.52817072       0.00033066      -0.00047647       0.00068823      -5.72970796
Ni      24.59345736      33.45388894       5.28310040       0.60000000      -0.11047061      -1.44720660      -0.08276780      -0.00009253      -0.00150865      -0.00030587      -5.72999084
Ni      26.34740326      31.68446946       5.28837368       0.60000000       2.17117814      -0.42007517      -0.63337127       0.00045787      -0.00023155       0.00044885      -5.72956979
Ni      26.35588193      33.45793567       3.51853229       0.60000000       1.68066106      -0.61514044      -0.93234507       0.00018410      -0.00050527      -0.00055035      -5.72992653
Ni      24.58295254      31.67651871       7.05258590       0.60000000       0.83619695       0.28267296       0.32239365      -0.00005119       0.00063419       0.00152343      -5.72947937
Ni      24.58820897      33.44676214       8.80333552       0.60000000       0.31535510      -0.41714812      -0.45878354       0.00024163       0.00089629       0.00067501      -5.73029459
Ni      26.33878361      31.67435835       8.80951865       0.60000000      -0.05784607       0.04963441      -1.23294515      -0.00088946       0.00047093       0.00085024      -5.72955370
Ni      26.35008481      33.45008644       7.04363944       0.60000000       0.47936555       0.30155190       0.19273458       0.00033632      -0.00045772      -0.00034176      -5.73000598
Ni      24.57570159      31.66942026      10.56690970       0.60000000       0.41351193       0.32144482      -0.00645874       0.00000520       0.00014515       0.00156424      -5.72983074
Ni      24.58689253      33.44512286      12.31513407       0.60000000       1.09684084       2.32099497       0.77636546      -0.00069455       0.00030679      -0.00019314      -5.73065811
Ni      26.33579272      31.67290069      12.31897285       0.60000000      -0.27509557      -0.03686058      -2.26780630       0.00049927       0.00078734      -0.00010872      -5.73003137
Ni      26.34696169      33.44613303      10.55883905       0.60000000      -0.19011478       0.27877683       0.32735701      -0.00064417       0.00053336       0.00048387      -5.73025483
Ni      24.57628556      31.67187893      14.07260732       0.60000000       0.14515095       2.26110426       0.04009592      -0.00080011       0.00166876      -0.00025178      -5.73029459
Ni      24.58845478      33.44687041      15.82535514       0.60000000       0.31139441      -0.01300579       0.48605978       0.00008209       0.00214503      -0.00049211      -5.73082811
Ni      26.33906927      31.67788431      15.82558404       0.60000000       2.31969769       1.77570484      -0.46249198      -0.00020942       0.00075241      -0.00071711      -5.73039466
Ni      26.34741636      33.44736104      14.06964160       0.60000000       0.20639910       0.09114226      -0.58298589       0.00021999       0.00047776      -0.00023141      -5.73054528
Ni      24.58125137      31.67782919      17.58026868       0.60000000      -0.25122007       1.50431193       1.73417469      -0.00207103       0.00217984      -0.00143780      -5.73024428
Ni      24.59094004      33.45155152      19.33692904       0.60000000       3.24620185       0.19597599       0.40926399       0.00019094       0.00048597       0.00024377      -5.73089230
Ni      26.34461583      31.68447645      19.33566477       0.60000000       0.32630579       2.16961369       0.52739096       0.00052553       0.00076935      -0.00051405      -5.73065513
Ni      26.34963404      33.45144490      17.58090580       0.60000000       0.07012543       0.33245637       1.06968022       0.00036681       0.00020659      -0.00011802      -5.73074776
Ni      24.58665634      31.68431468      21.09163030       0.60000000      -0.04308628       0.02675379      -1.57719614      -0.00138294       0.00134087      -0.00094906      -5.73062420
Ni      24.59343078      33.45810195      22.84983276       0.60000000      -0.13553793       0.73927152      -0.15813083       0.00077994       0.00013947       0.00044734      -5.73079646
Ni      26.34993363      31.69084224      22.84888748       0.60000000       0.48065587      -0.60903142      -0.28636797       0.00037391       0.00102924       0.00030690      -5.73061115
Ni      26.35209910      33.45749838      21.09349714       0.60000000      -2.09023334      -1.74189218       1.22529553       0.00055504      -0.00023806       0.00050227      -5.73075956
Ni      24.59131972      31.69114356      24.60549616       0.60000000       1.11425899       0.84680816      -1.05254344       0.00014897       0.00049776       0.00050843      -5.73057348
Ni      24.59653798      33.46444272      26.36600821       0.60000000      -0.42645790      -1.22338744       0.39090188      -0.00062772       0.00032427       0.00036085      -5.73052901
Ni      26.35484888      31.69792626      26.36666682       0.60000000      -0.89776251       1.21820741      -0.58423841      -0.00026271      -0.00061049      -0.00066785      -5.73041379
Ni      26.35479466      33.46373346      24.60807391       0.60000000      -0.08117798      -1.24004929       1.72019021       0.00019368       0.00013906       0.00016240      -5.73054928
Ni      24.59641461      31.69870853      28.12611712       0.60000000      -1.67485671      -0.55880567      -0.58115338      -0.00101922      -0.00064653      -0.00110320      -5.73040599
Ni      24.59938137      33.46844367      29.88928623       0.60000000      -0.10726492       1.55175045      -1.08188585      -0.00068163      -0.00033137      -0.00054418      -5.73037523
Ni      26.35901607      31.70289675      29.89078506       0.60000000      -2.26280325       0.69862000       1.43068097      -0.00081237       0.00011876      -0.00014396      -5.73041523
Ni      26.35809651      33.46870406      28.12778279       0.60000000      -1.70575802      -0.79172584       1.39265276      -0.00086662      -0.00117308       0.00009925      -5.73039842
Ni      24.59966858      31.70267355      31.65398437       0.60000000      -0.52231808       1.15996795       0.46767526      -0.00020527       0.00044414      -0.00061258      -5.73043752
Ni      24.60042046      33.46767559      33.41923808       0.60000000      -0.28594403       1.06624241      -1.35015898       0.00050905       0.00045835       0.00019989      -5.73022240
Ni      26.36013863      31.70295477      33.42140159       0.60000000      -0.38049348       1.01765769      -1.64823150       0.00011247      -0.00016403       0.00013448      -5.73029166
Ni      26.36034690      33.46921125      31.65449239       0.60000000      -1.00185274      -1.30971477       0.94735778       0.00016146       0.00081316       0.00082101      -5.73026049
Ni      28.12170696       0.03132375      -0.01537770       0.60000000      -0.57912819       1.52473953       2.32306347      -0.00001284      -0.00026850      -0.00061423      -5.72994548
Ni      28.12180632       1.79420586       1.74775937       0.60000000      -2.24534368       0.35331225      -0.53711074      -0.00016105      -0.00050365      -0.00091105      -5.73009741
Ni      29.88391595       0.02917525       1.75019020       0.60000000       0.25683592      -0.15791403      -0.64254759      -0.00051135      -0.00095976      -0.00058962      -5.72995019
Ni      29.88408989       1.79671292      -0.01668837       0.60000000       0.51513359      -0.19399741      -0.30270586      -0.00051792      -0.00020137      -0.00117252      -5.72996628
Ni      28.11992440       0.02574465       3.51458074       0.60000000      -0.75414214       1.11408513       0.90905704       0.00016640      -0.00114378      -0.00104296      -5.73005766
Ni      28.12079150       1.79046620       5.27516482       0.60000000       0.18825691      -1.19132072      -0.79798555      -0.00030359      -0.00073712      -0.00034371      -5.73030221
Ni      29.88181856       0.02459582       5.27664200       0.60000000       0.23581103      -1.67336673       0.39926624       0.00018011      -0.00097325       0.00007487      -5.73008054
Ni      29.88464810       1.79266992       3.51246051       0.60000000       1.31866091      -0.67318748      -2.52582375      -0.00015936      -0.00082870      -0.00073243      -5.73017222
Ni      28.11703359       0.02105393       7.03814803       0.60000000       1.34150248       2.21564940       0.41568849      -0.00017287       0.00029429       0.00043300      -5.73019952
Ni      28.11879750       1.78858219       8.79604457       0.60000000      -1.69418339      -0.85252769      -0.60192487       0.00099339      -0.00025936       0.00016140      -5.73046112
Ni      29.87978630       0.02176204       8.79662531       0.60000000       1.26780217      -1.76613374       0.88311730      -0.00047484       0.00057495       0.00089097      -5.73018837
Ni      29.88355693       1.79019161       7.03599299       0.60000000       0.43864980      -0.00723304      -0.73620377      -0.00048880      -0.00048932       0.00025613      -5.73028004
Ni      28.11517543       0.01933136      10.55519120       0.60000000       0.42493346       0.54333406      -0.34888293       0.00052471      -0.00019746       0.00013556      -5.73035383
Ni      28.11748595       1.78884006      12.31234838       0.60000000       3.11038142       0.17016643      -0.15078438       0.00093307      -0.00074452       0.00049663      -5.73065484
Ni      29.87835784       0.02201010      12.31214415       0.60000000       2.08583209      -0.56582995       1.38002290       0.00070133      -0.00052686       0.00032187      -5.73029536
Ni      29.88187372       1.78960075      10.55429463       0.60000000       0.01186752       1.57647841      -0.36138441       0.00034342      -0.00030293      -0.00005434      -5.73040450
Ni      28.11495408       0.02038365      14.06897131       0.60000000      -1.05129338      -0.22016797       0.50282163      -0.00001928      -0.00039903      -0.00002113      -5.73052132
Ni      28.11505227       1.79200821      15.82654128       0.60000000       0.67014545      -2.13748843      -2.47257521       0.00145191      -0.00046767      -0.00009125      -5.73069787
Ni      29.87754554       0.02475605      15.82572909       0.60000000       1.26803678      -0.58557175      -0.88125850      -0.00015327      -0.00067701       0.00017537      -5.73038483
Ni      29.87957868       1.79165593      14.06968006       0.60000000       4.41626347      -0.49849623       1.28392357       0.00039643      -0.00030251       0.00072816      -5.73044640
Ni      28.11422677       0.02445183      17.58180803       0.60000000      -1.01698766       0.44232494       0.58966896       0.00050448       0.00001285       0.00025310      -5.73066294
Ni      28.11074337       1.79946061      19.33722127       0.60000000      -1.05957593      -0.70134305      -0.96016782      -0.00010988       0.00071503      -0.00049240      -5.73055100
Ni      29.87630228       0.02959318      19.33826379       0.60000000      -0.41556193      -0.00475627       1.95354557      -0.00031113      -0.00020820      -0.00002410      -5.73040134
Ni      29.87560322       1.79675817      17.58269264       0.60000000       0.78818953       1.63247288       0.64046585      -0.00031729       0.00045580      -0.00000429      -5.73031753
Ni      28.11373405       0.03075268      21.09379075       0.60000000       0.76982354      -0.74495935      -0.65413442      -0.00085520       0.00016100      -0.00011838      -5.73059195
Ni      28.10892977       1.80701053      22.84621877       0.60000000       1.18628496      -0.38497383       0.36569270      -0.00077097      -0.00124055       0.00009623      -5.73021686
Ni      29.87614576       0.03480697      22.85095454       0.60000000      -0.68254197      -0.05182856       1.20140058      -0.00028090      -0.00006021      -0.00040574      -5.73031247
Ni      29.87191140       1.80356068      21.09271916       0.60000000       1.22891303       0.97940034       0.55660982      -0.00044280      -0.00081762       0.00005638      -5.73012221
Ni      28.11473341       0.03634711      24.60733593       0.60000000      -1.77696694      -0.95027423      -1.24248611      -0.00038322      -0.00027647      -0.00046022      -5.73041034
Ni      28.11165421       1.80858268      26.36151651       0.60000000       0.32219015       0.16181411      -0.20412906      -0.00047509       0.00052727       0.00000690      -5.73003519
Ni      29.87828949       0.03759015      26.36761448       0.60000000       0.50849808      -0.28344626      -0.83278212      -0.00012259       0.00054555      -0.00041556      -5.73021507
Ni      29.87211579       1.80692449      24.60485257       0.60000000      -1.41389448       1.05571612       0.02975108      -0.00046417       0.00082438       0.00000590      -5.72995073
Ni      28.11766159       0.03814091      28.12685776       0.60000000       0.29971405      -1.78788198       0.28040591       0.00006947       0.00006541       0.00017802      -5.73024917
Ni      28.11638436       1.80513656      29.88582918       0.60000000      -1.31153642       0.32962952      -1.55280502       0.00029427       0.00085423       0.00034018      -5.72997916
Ni      29.88144797       0.03711833      29.89073420       0.60000000       0.77613274      -0.99723406       1.57938518       0.00043178       0.00038418       0.00060348      -5.73004168
Ni      29.87600650       1.80579115      28.12464520       0.60000000       2.22282601      -0.33762501       0.19184691       0.00036551       0.00088665       0.00085754      -5.72992057
Ni      28.12065989       0.03597186      31.65354304       0.60000000      -0.14950941       2.62375682      -0.71857293       0.00018090       0.00034546       0.00056777      -5.73003811
Ni      28.12040792       1.79965560      33.41626615       0.60000000       2.45267972       0.38257499      -0.74555154      -0.00012956      -0.00001613      -0.00044413      -5.72991097
Ni      29.88390081       0.03388207      33.41978391       0.60000000      -0.63073892       2.03059695      -1.13156755      -0.00034632      -0.00001069      -0.00018178      -5.72991520
Ni      29.88086450       1.80169624      31.65219565       0.60000000       0.81487107       0.31597679      -0.03174513       0.00000529       0.00013814       0.00019489      -5.72985631
Ni      28.12052314       3.56161591      -0.01999954       0.60000000       0.33353933       1.72284904       1.45952599       0.00001018      -0.00026317      -0.00108595      -5.73004818
Ni      28.12088039       5.32264895       1.74503795       0.60000000      -0.19416790       0.89810495      -0.53611598      -0.00006726       0.00008625      -0.00108137      -5.73033524
Ni      29.88468865       3.55903051       1.74713362       0.60000000      -1.02014567      -0.74988254      -1.61599468      -0.00040042       0.00005345      -0.00108272      -5.73017144
Ni      29.88200142       5.32430439      -0.01982833       0.60000000       0.94548515      -1.36624502      -0.13663262       0.00008597       0.00015626      -0.00133363      -5.73006350
Ni      28.12196738       3.55734588       3.51089007       0.60000000      -0.06379232      -1.03848749       1.00326011      -0.00025858      -0.00029125      -0.00011628      -5.73035794
Ni      28.12105519       5.32078926       5.27490226       0.60000000       0.12796383      -0.79058877       0.72238516       0.00004418      -0.00009160       0.00034356      -5.73058438
Ni      29.88517467       3.55687269       5.27455856       0.60000000      -1.08201277      -0.24630817      -0.29842487      -0.00033600      -0.00099473       0.00016173      -5.73037267
Ni      29.88489450       5.32139758       3.51158505       0.60000000      -0.02371296       1.06474708      -0.39810818      -0.00038320       0.00030811      -0.00035198      -5.73039144
Ni      28.12056089       3.55586169       7.03625126       0.60000000       0.56323754       1.18251519       0.27098225       0.00057438      -0.00020545       0.00053412      -5.73054892
Ni      28.11835232       5.32094586       8.79860314       0.60000000      -1.20489938       1.77576691      -0.15551055       0.00159913       0.00036159       0.00008415      -5.73044962
Ni      29.88358185       3.55615973       8.79611643       0.60000000      -0.16866694       2.50552523       2.49682318       0.00143894      -0.00091957      -0.00024428      -5.73055154
Ni      29.88385415       5.32121942       7.03740277       0.60000000      -1.87686003      -1.57146628       1.46860202       0.00122307      -0.00098427      -0.00035666      -5.73061192
Ni      28.11845767       3.55601314      10.55562320       0.60000000       1.20491611      -0.56376264       0.61599818       0.00128640      -0.00164306       0.00013592      -5.73060417
Ni      28.11436467       5.32284124      12.31614223       0.60000000      -0.24972579       0.23705474      -2.10818376       0.00212282       0.00013250       0.00178734      -5.72926706
Ni      29.88085818       3.55720676      12.31332574       0.60000000      -0.25852835      -0.13332050       0.28206887       0.00240470      -0.00066495      -0.00026025      -5.73052067
Ni      29.88147030       5.32143521      10.55680675       0.60000000       0.78248347       1.27921515       0.10168077       0.00075523       0.00048469      -0.00002107      -5.73041183
Ni      28.11513881       3.55869732      14.07147170       0.60000000       0.82497011       1.95622394      -0.41570008      -0.00026335      -0.00032641       0.00015268      -5.72995633
Ni      28.10369990       5.33252840      15.82903036       0.60000000      -0.14047507      -1.04304482       0.73837879      -0.00124837       0.00098177      -0.00008453      -5.72755831
Ni      29.87496156       3.56252002      15.82772884       0.60000000       0.57293413      -0.22862324      -0.45344071       0.00104465      -0.00084479      -0.00003475      -5.73020917
Ni      29.87600011       5.32466812      14.07230179       0.60000000       0.04526819      -0.00945928       0.64517156      -0.00200379       0.00251962       0.00131946      -5.72974664
Ni      28.10674548       3.56785307      17.58218749       0.60000000      -0.71302525      -0.00807655       1.76909661      -0.00256750       0.00186301       0.00043369      -5.72986811
Ni      28.08753453       5.34974551      19.32842045       0.60000000      -0.50138536      -0.95910645      -1.04782968      -0.00025049      -0.00008071      -0.00112496      -5.72816110
Ni      29.86691389       3.57140471      19.33623698       0.60000000      -0.62137161       0.36888797       0.90854340       0.00011606      -0.00106475       0.00005681      -5.72994560
Ni      29.86386198       5.33549312      17.58179081       0.60000000      -0.68843521      -0.01878740       1.46024062      -0.00017392      -0.00002440      -0.00058059      -5.72950280
Ni      28.09889550       3.57906589      21.08583126       0.60000000      -0.88988926       0.88797915       0.82520376       0.00171036      -0.00099319       0.00008291      -5.72981572
Ni      28.08292144       5.35781986      22.82701371       0.60000000       0.12088640       1.43629918      -0.16407569       0.00249448      -0.00231865       0.00274627      -5.72832078
Ni      29.86292142       3.57743297      22.84275160       0.60000000       0.62390559       1.32486303      -0.77551358       0.00119196      -0.00078310       0.00082519      -5.72951156
Ni      29.85335510       5.34581146      21.08316775       0.60000000      -0.10322016       1.76149684      -0.06696929       0.00125499      -0.00148169       0.00109843      -5.72926599
Ni      28.10049455       3.58214380      24.59467982       0.60000000      -0.81574695      -1.95988795       0.21886153       0.00014908      -0.00019665       0.00090655      -5.72940338
Ni      28.09365153       5.35054721      26.34471780       0.60000000      -0.35252899       0.02564881       0.34851558      -0.00075191       0.00069921       0.00034770      -5.72877204
Ni      29.86692640       3.57600481      26.35796542       0.60000000       0.03072304       0.14822535       1.06649273      -0.00034909       0.00133810       0.00014932      -5.72951651
Ni      29.85370206       5.34660578      24.59097296       0.60000000       0.73387038      -0.69019184       2.43275158       0.00145822       0.00034145       0.00164587      -5.72885942
Ni      28.10812524       3.57654788      28.11665235       0.60000000       1.48030291      -0.38046375      -0.31160230      -0.00056808       0.00132874      -0.00066570      -5.72965389
Ni      28.10650384       5.33885837      29.87511704       0.60000000      -0.30415279       1.17637232      -1.42088807      -0.00010356       0.00062457       0.00003401      -5.72955060
Ni      29.87445394       3.57025892      29.88373839       0.60000000      -0.74985875      -0.24962624       2.28891571      -0.00007377       0.00047717       0.00023791      -5.72973210
Ni      29.86418767       5.33944958      28.11411144       0.60000000       0.77338826      -0.92311851       2.56624133      -0.00114560       0.00084290      -0.00067275      -5.72934741
Ni      28.11559240       3.56862909      31.64672121       0.60000000      -0.08721897      -0.26485154       0.47996022       0.00015618       0.00018903      -0.00011365      -5.72983170
Ni      28.11602231       5.32876610      33.41038121       0.60000000      -0.91189971      -0.00838114      -0.69835733       0.00042699      -0.00023048      -0.00040633      -5.72994363
Ni      29.88106498       3.56380202      33.41535025       0.60000000      -0.59824118      -1.32209820      -3.63410804      -0.00031364       0.00022451      -0.00093796      -5.72986412
Ni      29.87473303       5.33081633      31.64587690       0.60000000      -1.56475065      -0.56700828      -0.73787909      -0.00019814       0.00003400      -0.00025106      -5.72973734
Ni      28.11739027       7.08690923      -0.02314931       0.60000000       1.62288490       1.13593937       1.39490682       0.00023683       0.00071691      -0.00071957      -5.73023564
Ni      28.11822232       8.84523478       1.74507960       0.60000000       0.66578806      -0.64524051       0.99576159      -0.00136252       0.00200752       0.00007157      -5.73042154
Ni      29.88282968       7.08427869       1.74649531       0.60000000      -0.37690394       0.24306020      -0.49588549      -0.00019140       0.00091954      -0.00108849      -5.73032832
Ni      29.87904915       8.84588515      -0.02100114       0.60000000       0.08284373       0.11142335      -0.98144390      -0.00039924       0.00061182      -0.00077424      -5.73021692
Ni      28.12032162       7.08378023       3.51134237       0.60000000       1.39351456      -0.08510653      -0.40802153      -0.00074842       0.00091369      -0.00041942      -5.73051852
Ni      28.11686180       8.84576439       5.27905960       0.60000000      -0.61879433      -0.37942646      -1.53452693       0.00029740       0.00142743       0.00020370      -5.73055047
Ni      29.88306013       7.08416184       5.27704318       0.60000000       0.41439288      -0.18443606      -0.61307087       0.00022422       0.00040865      -0.00021928      -5.73053110
Ni      29.88149718       8.84486511       3.51405506       0.60000000       1.47803240      -0.85369938       1.47035358      -0.00025758       0.00210535      -0.00062388      -5.73042786
Ni      28.11779716       7.08423171       7.04025637       0.60000000      -0.52595615      -1.13001220      -0.92360008       0.00042698       0.00163560      -0.00062221      -5.73050165
Ni      28.11004978       8.84827545       8.80696649       0.60000000       0.75180966       2.08175661       0.13808646       0.00059929       0.00246061       0.00074344      -5.72928405
Ni      29.87994040       7.08534799       8.80054845       0.60000000       0.21447045      -1.80740616      -0.21983815       0.00088508       0.00063073      -0.00003567      -5.73030430
Ni      29.87750698       8.84756435       7.04329797       0.60000000      -1.66431275      -0.73103228       0.91741246       0.00097947       0.00031576       0.00038659      -5.73033863
Ni      28.11330468       7.08568718      10.56182973       0.60000000      -2.34065258      -1.13609208      -0.37513466       0.00043196      -0.00082923      -0.00111322      -5.72950083
Ni      28.10069958       8.85094182      12.32461829       0.60000000       0.43256509       0.46874973      -1.90207018      -0.00204610       0.00026830       0.00068526      -5.74196380
Ni      29.87528672       7.08707587      12.31694266       0.60000000       1.58135580      -0.67096371       1.11248452      -0.00021324      -0.00095262       0.00168297      -5.72948408
Ni      29.87116845       8.84981430      10.56373212       0.60000000      -0.23303722       0.53848762       0.16766533       0.00059022       0.00207999      -0.00011247      -5.72919011
Ni      28.10462291       7.09096295      14.07574182       0.60000000      -0.54558343       0.06920192      -0.81178170      -0.00429775       0.00447861       0.00165647      -5.73470879
Ni      28.07657006       8.86731549      15.82377630       0.60000000       2.29971752      -0.25858855      -1.14605055      -0.00328867       0.00368633       0.00156002      -5.74328977
Ni      29.86366604       7.09504612      15.82805542       0.60000000      -0.81364012       1.43630437       0.92637341      -0.00266393       0.00080778      -0.00139655      -5.72836620
Ni      29.86256082       8.85284934      14.07466453       0.60000000       1.09778975       1.26356828      -0.15872641      -0.00260489       0.00128216       0.00050620      -5.73065126
Ni      28.08062378       7.11280679      17.57511711       0.60000000      -1.07450411       0.56583839       0.32190885       0.00017870       0.00170336       0.00059554      -5.72597986
Ni      28.04942210       8.88977929      19.30556958       0.60000000       0.75914182      -0.14944340      -0.76742904       0.00421808       0.00108311       0.00189454      -5.72274333
Ni      29.84783804       7.10803750      19.32769826       0.60000000      -0.61263150       1.37022938      -1.14975566       0.00018522      -0.00108888       0.00038399      -5.72912693
Ni      29.84741251       8.86242379      17.57488644       0.60000000       0.71955304      -0.65641799       2.08789326      -0.00280084       0.00255454      -0.00286086      -5.72860491
Ni      28.06236284       7.13025498      21.06181792       0.60000000       0.12486684      -0.07295643       2.91934987       0.00042713      -0.00172034       0.00284160      -5.72576511
Ni      28.04587956       8.89470865      22.79770975       0.60000000      -2.19357560       0.31095830       0.68405669      -0.00105321       0.00055378      -0.00283669      -5.72484475
Ni      29.84008364       7.11383566      22.82644318       0.60000000      -1.34894589       0.79351670      -1.42834940       0.00186128      -0.00027260       0.00287041      -5.72837919
Ni      29.83196241       8.87305904      21.06813098       0.60000000       2.09163809      -0.58843392      -0.56195387       0.00083598       0.00067970       0.00137000      -5.72838926
Ni      28.07133110       7.12553093      24.57049766       0.60000000       2.41088599       1.62905732       1.15051104       0.00305816      -0.00068186       0.00121585      -5.72727525
Ni      28.07120788       8.88002173      26.32416652       0.60000000       1.23770094      -0.90402916       0.17701553       0.00036851       0.00023455       0.00187882      -5.72765821
Ni      29.84974344       7.10766797      26.34347013       0.60000000       0.03503206       0.64996206      -0.21483179       0.00036435       0.00082330       0.00122754      -5.72869152
Ni      29.83501566       8.87158733      24.57503722       0.60000000       0.77022563      -0.27534522      -1.85325147       0.00008692      -0.00016235       0.00199772      -5.72821510
Ni      28.09187688       7.11009618      28.10080682       0.60000000      -1.46612153       2.10848677       1.38873561      -0.00089598       0.00069525       0.00034530      -5.72882205
Ni      28.09547364       8.86285244      29.86424490       0.60000000       0.13083255       0.01227019       0.16409516      -0.00026805      -0.00018205       0.00075882      -5.72928143
Ni      29.86501646       7.09741991      29.87494960       0.60000000       2.30547519      -1.45844031      -1.64670235      -0.00053733      -0.00004459       0.00014209      -5.72947508
Ni      29.85230248       8.86204833      28.10322528       0.60000000      -0.53120275       0.68241506       1.31989111      -0.00014361      -0.00063340       0.00144892      -5.72905999
Ni      28.10782774       7.09604783      31.63850130       0.60000000      -2.26810768      -0.22818540       0.96595508       0.00041650      -0.00002643       0.00041135      -5.72973633
Ni      28.11118986       8.85055260      33.40643946       0.60000000      -1.29549291       0.37587143       2.07944250       0.00040130       0.00031557      -0.00103797      -5.73007870
Ni      29.87668632       7.08870517      33.41121874       0.60000000       0.16363771      -1.05313787       2.20730002       0.00011636      -0.00000067      -0.00052321      -5.72993505
Ni      29.86879600       8.85200364      31.64069515       0.60000000       0.80883883       0.58293993       0.93096864      -0.00009388      -0.00010705       0.00005004      -5.72976047
Ni      28.11430070      10.60558115      -0.02354705       0.60000000      -1.44339998       1.07220120      -0.80352175      -0.00018557       0.00080739      -0.00035863      -5.73036468
Ni      28.11442454      12.36270378       1.74768865       0.60000000       0.51192810       0.28129024      -0.01501903       0.00000863       0.00132489       0.00009860      -5.73047513
Ni      29.87936964      10.60396736       1.74812457       0.60000000      -0.53499181      -2.66423704       0.92329643      -0.00095197       0.00169684      -0.00026011      -5.73034912
Ni      29.87633126      12.36188243      -0.01999586       0.60000000      -0.77549332       0.48722982      -1.17230777      -0.00038008       0.00009364      -0.00026104      -5.73030764
Ni      28.11573052      10.60518494       3.51495535       0.60000000      -0.93123978      -0.22639438      -2.45459928       0.00059528       0.00127767      -0.00097109      -5.73044467
Ni      28.10813827      12.36684953       5.28644670       0.60000000       1.30128810      -0.97555859      -1.61804104       0.00147580      -0.00136028      -0.00083129      -5.73058635
Ni      29.87608217      10.60664449       5.28273721       0.60000000       1.13075017      -0.11204341       0.25644348      -0.00019642       0.00142593       0.00010062      -5.73033720
Ni      29.87549599      12.36334664       3.51843426       0.60000000       0.31990677       1.34974998       1.44977393       0.00016909       0.00180563      -0.00078405      -5.73034769
Ni      28.10824835      10.60918826       7.04892097       0.60000000      -0.82854733       0.44115418       0.88050999       0.00094938       0.00035938      -0.00049274      -5.72991896
Ni      28.08883871      12.37282785       8.82297923       0.60000000      -0.80430993       0.97783387      -0.61417189      -0.00191028      -0.00154617       0.00267240      -5.72714406
Ni      29.86634680      10.61144823       8.81037060       0.60000000      -0.16100523      -0.91484784       1.37192960      -0.00133995       0.00063495       0.00211373      -5.72917759
Ni      29.86430605      12.36863354       7.05309394       0.60000000      -2.02592137       1.71806385       0.65083847       0.00104450       0.00017003       0.00030052      -5.72992450
Ni      28.09328346      10.61327757      10.57585756       0.60000000      -0.24853947      -0.07648574       0.99108954      -0.00308279       0.00205196       0.00206272      -5.73455906
Ni      28.05388354      12.37174350      12.34985854       0.60000000      -0.47891295      -1.83057810      -0.21169927      -0.00074488       0.00145423      -0.00017952      -5.73938233
Ni      29.85503316      10.61380892      12.32580415       0.60000000       0.34480516      -1.32908137       2.31042580      -0.00256150      -0.00016203       0.00042019      -5.73009497
Ni      29.84613021      12.37312769      10.57924971       0.60000000       0.95692811      -1.78340930       0.33085892      -0.00067861      -0.00199869       0.00136256      -5.72708982
Ni      28.07131670      10.61443644      14.08125856       0.60000000       0.15385096      -0.64745688       1.03889004       0.00222776       0.00114985      -0.00176040      -5.73502183
Ni      28.04135657      12.36517855      15.82121937       0.60000000      -0.78889493       0.29914273      -0.36359454       0.00126884       0.00108770      -0.00058099      -5.74531549
Ni      29.84731005      10.61464190      15.82453688       0.60000000       0.52701636       0.50073124      -1.83681730      -0.00328227      -0.00071281      -0.00201780      -5.73235339
Ni      29.83639925      12.37050727      14.08112116       0.60000000      -0.80539149       1.36588544      -0.86048370      -0.00090605      -0.00087873      -0.00187558      -5.73147649
Ni      28.04538912      10.63188720      17.55421060       0.60000000       1.23163801       0.16608396       0.29876126      -0.00493359      -0.00010024       0.00162735      -5.74096924
Ni      28.03055185      12.38213566      19.29298278       0.60000000      -1.72309699      -0.28426655      -1.53018544       0.00009764       0.00038747      -0.00011850      -5.73950988
Ni      29.83148260      10.62251886      19.31549267       0.60000000      -0.70021304       1.33238378       2.33878447      -0.00236942       0.00242930      -0.00071804      -5.72813225
Ni      29.82945467      12.37097071      17.56848218       0.60000000      -0.59274227      -0.18986682      -0.07447083      -0.00128701       0.00179033      -0.00142083      -5.73130095
Ni      28.02862041      10.64867340      21.03663184       0.60000000      -0.33533417       1.30699833      -1.32161902      -0.00219666      -0.00133350       0.00023487      -5.72154474
Ni      28.03335405      12.39324649      22.78515311       0.60000000      -1.28809094      -0.18138021      -0.13819123       0.00186854       0.00327483      -0.00078560      -5.72345716
Ni      29.82510204      10.62761332      22.81321778       0.60000000       0.75724593      -0.32841624       1.36998271       0.00120110      -0.00067560       0.00193150      -5.72821921
Ni      29.82408473      12.37540800      21.06055356       0.60000000      -0.49652147       1.22271571      -0.39899773      -0.00200447       0.00284834      -0.00186318      -5.72791970
Ni      28.04892548      10.64280471      24.54942710       0.60000000      -0.34500521       0.05203996       0.12918740       0.00153970       0.00086847       0.00155627      -5.72596616
Ni      28.06340318      12.38461851      26.31425564       0.60000000      -0.75795253      -0.16827857       0.48338495      -0.00073113       0.00263342       0.00096187      -5.72746021
Ni      29.83952398      10.62213434      26.33336733       0.60000000       1.25129597      -2.46851761       0.17371986      -0.00059401      -0.00054683       0.00182185      -5.72880608
Ni      29.83000823      12.37612930      24.56884432       0.60000000      -0.65914540       1.43610086       0.64558644       0.00011774       0.00097555       0.00161120      -5.72849900
Ni      28.07942868      10.62681869      28.08853642       0.60000000       1.56460535      -1.11286242       0.63259391       0.00082353       0.00034929       0.00116854      -5.72869128
Ni      28.09121703      12.37255432      29.85996819       0.60000000       0.75443506      -0.82366825       0.47882317       0.00085519      -0.00049877       0.00094478      -5.72956449
Ni      29.85887227      10.61318038      29.86941504       0.60000000       2.05383235      -1.50434946       0.52171759       0.00048615      -0.00146008       0.00104774      -5.72957385
Ni      29.84905039      12.37051713      28.09953015       0.60000000       0.38383632      -0.71826105       0.94283499      -0.00047925      -0.00078463       0.00091585      -5.72946471
Ni      28.10226350      10.61292028      31.63368839       0.60000000       0.50233686       0.92392934      -2.27815143      -0.00005003      -0.00025478      -0.00004447      -5.72984171
Ni      28.10878042      12.36440229      33.40564376       0.60000000       1.27184982       1.38849864       2.13329188       0.00011488       0.00011181      -0.00011374      -5.73028070
Ni      29.87343275      10.60615055      33.40975641       0.60000000       1.72276821       0.07928487       0.25277914       0.00011005       0.00014494      -0.00097275      -5.73008817
Ni      29.86653613      12.36451985      31.63945204       0.60000000      -1.13474107      -0.19241151       0.77085316       0.00056113      -0.00033842       0.00000961      -5.72999656
Ni      28.11241449      14.11902844      -0.02169547       0.60000000      -0.60926423      -0.55561670       0.19952244      -0.00046588       0.00062159      -0.00012579      -5.73052192
Ni      28.11099554      15.87596539       1.75128132       0.60000000      -0.97776927      -0.55792234      -1.31372133       0.00057282       0.00139056      -0.00043591      -5.73059344
Ni      29.87523571      14.11911611       1.75124119       0.60000000       0.56973591       1.57402555       1.33044315       0.00036324       0.00070885      -0.00070561      -5.73040038
Ni      29.87465317      15.87428149      -0.01756071       0.60000000       2.57970792       0.08909939      -0.74503309       0.00054442       0.00036812      -0.00084189      -5.73041081
Ni      28.10945831      14.12174326       3.52020662       0.60000000       1.19233562      -0.73491449      -0.57025716       0.00026031       0.00081347      -0.00019022      -5.73053151
Ni      28.09737512      15.87986147       5.29593158       0.60000000       0.22648599      -1.02386998      -1.18327511      -0.00077388      -0.00104417      -0.00048985      -5.73005939
Ni      29.86612166      14.12286242       5.29003617       0.60000000       0.60751548      -0.49797488       0.33509259       0.00035480       0.00095637      -0.00051297      -5.73018581
Ni      29.86919020      15.87660728       3.52324842       0.60000000      -1.00023025      -1.20879132      -0.31353020      -0.00022292       0.00163169      -0.00015705      -5.73027754
Ni      28.09169755      14.12715258       7.06209157       0.60000000      -1.11734776       0.33336241      -1.48227758       0.00089605       0.00023332      -0.00055218      -5.72946614
Ni      28.06450623      15.88001221       8.84236539       0.60000000       1.35508749      -0.73714517       0.23478848       0.00004215      -0.00190927       0.00169245      -5.72645634
Ni      29.84557697      14.12711252       8.82521144       0.60000000      -0.29092487      -2.78321347       0.89835628      -0.00059379      -0.00095271       0.00037013      -5.72882110
Ni      29.85083035      15.87896110       7.06317071       0.60000000       1.73217633      -0.34899110      -1.24851893      -0.00015522       0.00008609       0.00033412      -5.72969246
Ni      28.05387105      14.12823568      10.60265377       0.60000000      -3.08697153       1.05321349      -0.03610098      -0.00162615      -0.00105550       0.00131823      -5.72290927
Ni      28.01049725      15.86757958      12.37402462       0.60000000      -0.76151537       0.65069282      -0.44952216       0.00170757       0.00051573       0.00144363      -5.72052264
Ni      29.82318883      14.12578192      12.34245850       0.60000000      -0.62998685       1.06278772       1.91999964      -0.00025991      -0.00126364      -0.00009922      -5.72652733
Ni      29.82277346      15.87704739      10.59509128       0.60000000       0.53584519      -0.16619513      -0.11882622      -0.00122420      -0.00160819      -0.00018447      -5.72801483
Ni      28.01491373      14.11444478      14.10355039       0.60000000       2.66250710       0.91419753       0.61341596      -0.00150743       0.00008829      -0.00104100      -5.73809052
Ni      27.98212965      15.86151224      15.84732372       0.60000000       1.96426398       1.86474088       0.42268537      -0.00131506       0.00041867      -0.00071196      -5.73603082
Ni      29.81505747      14.12249119      15.82888064       0.60000000      -0.77699963      -0.54043658      -1.32399743       0.00005789       0.00158235      -0.00055982      -5.73068738
Ni      29.79936969      15.87172466      14.09700647       0.60000000       0.20875322      -2.06757312      -0.60871689      -0.00144310      -0.00214216       0.00063687      -5.72593653
Ni      28.02208423      14.11991809      17.56309326       0.60000000      -0.08448438      -0.04101923      -1.04240169      -0.00241102       0.00040683      -0.00070251      -5.74323666
Ni      28.01565719      15.87344372      19.30603787       0.60000000       0.06440830      -0.20366149       1.27485209       0.00186897       0.00080479      -0.00376493      -5.74546212
Ni      29.81987893      14.12413303      19.31285707       0.60000000      -0.49988838       0.19762515       2.33742241      -0.00381854       0.00079125      -0.00031430      -5.73135507
Ni      29.80373900      15.87306259      17.57221233       0.60000000       0.01326588      -1.01060648      -0.59159291      -0.00354530      -0.00092824       0.00049271      -5.72953635
Ni      28.03301314      14.13330125      21.03911219       0.60000000       1.58913981      -0.92264153       1.44577394      -0.00254554       0.00145628       0.00037802      -5.74292678
Ni      28.04299914      15.88114956      22.78906119       0.60000000       0.76760279       0.10060390      -0.34419411       0.00127647      -0.00022691       0.00122804      -5.74294949
Ni      29.82685051      14.12601466      22.81275935       0.60000000      -0.34795187       1.05167910       0.90084912      -0.00122363       0.00103939      -0.00112695      -5.72772270
Ni      29.82192645      15.87566162      21.06087143       0.60000000      -0.87902444      -0.11180171      -0.00723481      -0.00132748       0.00076752       0.00013830      -5.73146021
Ni      28.05070245      14.13542406      24.54580682       0.60000000       1.11825174       0.26909085      -1.49358709      -0.00076929       0.00125160       0.00148017      -5.72507095
Ni      28.07059648      15.87807308      26.31839057       0.60000000       0.38686969       0.56298365       1.83759171       0.00057623       0.00139546       0.00009205      -5.72688448
Ni      29.84064237      14.12378499      26.33323059       0.60000000      -0.36321186      -0.89945301      -0.96369367       0.00019795       0.00103226       0.00001136      -5.72898793
Ni      29.83615540      15.87466613      24.57267845       0.60000000       1.54885389       0.01923135      -1.16524480      -0.00159076       0.00158864      -0.00049889      -5.72775590
Ni      28.08038164      14.12748879      28.08734725       0.60000000      -0.54944051       0.32386249      -0.10987605      -0.00116856       0.00145357       0.00124447      -5.72893929
Ni      28.09468271      15.87510934      29.86310032       0.60000000      -0.91379189      -0.20491406      -0.58177843       0.00034857      -0.00069538      -0.00029239      -5.72983229
Ni      29.85962226      14.12045295      29.86995874       0.60000000       0.45014657       1.95892378      -0.31541255      -0.00085057      -0.00083288       0.00007784      -5.72989595
Ni      29.85284677      15.87377688      28.10285718       0.60000000      -1.01740921      -0.78281966       0.20921851       0.00077527      -0.00094842       0.00096574      -5.72970992
Ni      28.10191010      14.12116793      31.63398292       0.60000000       0.06440244      -0.95865787       0.32657643       0.00077366      -0.00021171       0.00000041      -5.73009646
Ni      28.10942994      15.87418804      33.40807938       0.60000000       0.20503055       0.32496046       1.88250677      -0.00070796       0.00008359      -0.00042601      -5.73043114
Ni      29.87246190      14.11832446      33.41060332       0.60000000      -0.66233433      -1.09624586       0.63214796       0.00015290      -0.00018386       0.00024319      -5.73026878
Ni      29.86823792      15.87334964      31.64150965       0.60000000      -0.73806294      -0.25399077       2.50033165      -0.00063674      -0.00002240       0.00043868      -5.73016858
Ni      28.11168861      17.63032597      -0.01852801       0.60000000       0.82371446      -0.42544036       0.90921255       0.00085024       0.00072152      -0.00018575      -5.73057735
Ni      28.10864540      19.38686623       1.75544463       0.60000000       0.16213310       0.51839851       1.43346636       0.00019242       0.00075477      -0.00015280      -5.73049057
Ni      29.87222860      17.63095780       1.75437833       0.60000000       0.47741053      -0.90827371       0.65311552      -0.00018594       0.00094086       0.00023212      -5.73038125
Ni      29.87448927      19.38591542      -0.01478254       0.60000000       0.57596232      -0.56020010      -0.80475628      -0.00042840       0.00068218      -0.00005925      -5.73038089
Ni      28.10371320      17.63280484       3.52591781       0.60000000       1.29359305       1.34505068      -1.77328846       0.00015509       0.00024876       0.00002364      -5.73037648
Ni      28.08996031      19.38484804       5.30350122       0.60000000       0.43660648      -1.48934001       1.82702272      -0.00056748      -0.00145539       0.00036160      -5.72968155
Ni      29.85790843      17.63185595       5.29651096       0.60000000       1.25396177       0.64584817      -0.88243986      -0.00034844      -0.00035380       0.00061446      -5.72989398
Ni      29.86477010      19.38613059       3.52739138       0.60000000      -0.46017006       1.16752750       0.89908748       0.00082837       0.00030078      -0.00027671      -5.73014122
Ni      28.07710596      17.63109286       7.07511753       0.60000000      -0.11353874       0.21770308      -0.76461898      -0.00047334      -0.00183170       0.00053450      -5.72857785
Ni      28.05093709      19.36971527       8.85482072       0.60000000       0.14100086      -1.02315614      -1.07635251       0.00045052      -0.00007189       0.00051476      -5.72664064
Ni      29.83168022      17.62734235       8.83593543       0.60000000      -0.72928741      -0.90527154      -0.25839795      -0.00036775       0.00113458      -0.00017972      -5.72900516
Ni      29.84303472      19.38080185       7.07013037       0.60000000      -1.29793448       0.89944989      -0.56121165      -0.00128956      -0.00094705      -0.00061052      -5.72928709
Ni      28.02956254      17.61789512      10.62086331       0.60000000      -1.32525544       1.67080651       0.47999651       0.00046929      -0.00154742       0.00097266      -5.72464210
Ni      27.99385717      19.34466405      12.38845896       0.60000000      -0.65184810       0.45281572       0.52281764       0.00156246       0.00146140       0.00023542      -5.72099471
Ni      29.79864843      17.61809478      12.35771716       0.60000000      -1.60791631      -0.04790390      -1.80455828       0.00140368      -0.00006583      -0.00013669      -5.72726798
Ni      29.81141751      19.36787907      10.60398868       0.60000000       0.66526576       1.42913871      -0.97591590      -0.00032074       0.00026451      -0.00038355      -5.72799814
Ni      27.96870246      17.59826778      14.12997540       0.60000000      -0.71103955       0.48142392      -1.13258811      -0.00077094       0.00166542      -0.00017458      -5.71676499
Ni      27.96027688      19.33745868      15.86109895       0.60000000      -0.72579332      -2.30135294       0.04103530       0.00205926      -0.00050336       0.00173760      -5.71883082
Ni      29.78637489      17.61579020      15.84080787       0.60000000       0.53879504       0.64551629       0.57136311      -0.00155723      -0.00301929       0.00056543      -5.72523898
Ni      29.78513476      19.35783413      14.10642758       0.60000000      -0.43388157       0.27038987       0.64575579       0.00097243      -0.00038216      -0.00140256      -5.72653687
Ni      27.97193197      17.60557780      17.58255213       0.60000000      -0.23751436       0.85212059       0.04565824      -0.00426300       0.00200225       0.00141547      -5.73412806
Ni      28.00140912      19.35890994      19.30658917       0.60000000       0.71792734       1.33297255       0.83233705      -0.00110736      -0.00190455       0.00073886      -5.74411750
Ni      29.80766644      17.62287586      19.31400201       0.60000000       0.69018277       0.07449121       0.07615290      -0.00208913      -0.00231130       0.00273400      -5.72856140
Ni      29.79347944      19.36356555      17.57599835       0.60000000       0.39987803      -1.69662783      -0.71184735      -0.00061684      -0.00137563       0.00066978      -5.72545147
Ni      28.03031018      17.62211424      21.04590105       0.60000000       1.98532870      -1.28793359      -0.53023846      -0.00060854       0.00134027      -0.00003689      -5.73567206
Ni      28.06582940      19.37750180      22.81090832       0.60000000       0.18261699       1.09242217       1.65746908      -0.00074112      -0.00016783       0.00126035      -5.74237537
Ni      29.83182896      17.62560668      22.81670121       0.60000000       0.26408087       0.52812473      -0.80196519      -0.00106232      -0.00122842      -0.00016962      -5.72939742
Ni      29.82180762      19.37487165      21.06364405       0.60000000      -0.33026162       0.04907200       1.16852490      -0.00098042      -0.00170968       0.00099058      -5.72833431
Ni      28.06749999      17.62699026      24.55947116       0.60000000       2.33623853      -0.41452300      -1.12045908      -0.00441157      -0.00067095      -0.00103501      -5.73388666
Ni      28.08191610      19.37635831      26.33168324       0.60000000       0.72538873       1.61901819      -0.19971699       0.00077174      -0.00022469      -0.00125841      -5.72744107
Ni      29.84903554      17.62579866      26.34108257       0.60000000       0.03593973      -0.08410760       0.28683696      -0.00190068      -0.00013868      -0.00195542      -5.72931343
Ni      29.84703889      19.37851897      24.58332489       0.60000000      -1.06286985      -2.46927532      -0.63016063       0.00000369       0.00070008       0.00126202      -5.72885829
Ni      28.08758179      17.62603384      28.09441753       0.60000000      -0.52976829      -1.18669961      -0.94319098      -0.00069840       0.00074892       0.00076142      -5.72900575
Ni      28.10104931      19.38012815      29.87076050       0.60000000      -0.25597698       0.42532080       1.09632557      -0.00033506      -0.00126861      -0.00031721      -5.73011518
Ni      29.86368088      17.62713569      29.87423723       0.60000000       0.73902284       1.25954341       1.55143228      -0.00033045      -0.00109816      -0.00027030      -5.73009723
Ni      29.85983873      19.38004537      28.11030417       0.60000000      -1.24395087       0.57717030      -0.29757266      -0.00000460      -0.00029285      -0.00012927      -5.73007464
Ni      28.10545727      17.62799484      31.63836538       0.60000000       1.32328381       0.80050081       0.51607159      -0.00004117      -0.00119783       0.00014038      -5.73027217
Ni      28.11142607      19.38467729      33.41204894       0.60000000       0.29505636      -0.50676372      -0.32250505      -0.00008912      -0.00038071      -0.00083090      -5.73051012
Ni      29.87353219      17.62904227      33.41349147       0.60000000      -0.98477578       0.52784566      -0.91132127      -0.00043166       0.00022739      -0.00061393      -5.73036277
Ni      29.87157094      19.38358696      31.64574548       0.60000000       0.25090413      -0.05933796      -0.37896325      -0.00001027      -0.00079041       0.00000727      -5.73031217
Ni      28.11234250      21.14203441      -0.01476942       0.60000000      -2.50765860      -0.78141397      -0.39138445      -0.00031084       0.00085047      -0.00017094      -5.73052192
Ni      28.10805250      22.89756434       1.75925144       0.60000000       0.02826685      -0.76540397       1.18781278       0.00028802       0.00066547      -0.00004602      -5.73028684
Ni      29.87070697      21.14185948       1.75765112       0.60000000       0.87866607      -0.32071530      -0.18840541       0.00088570       0.00105085      -0.00086538      -5.73024207
Ni      29.87541216      22.89903189      -0.01174354       0.60000000      -0.84017783       1.58545224      -1.39044309       0.00003020       0.00038667      -0.00060792      -5.73026514
Ni      28.09983909      21.14041338       3.53106908       0.60000000       0.41560190       0.99632914       0.54835388       0.00102241      -0.00092986       0.00060680      -5.73011923
Ni      28.08721895      22.88705463       5.30764867       0.60000000       0.72290138       0.55978150       0.43964838       0.00145940       0.00048748       0.00010691      -5.72939932
Ni      29.85412490      21.13692859       5.30040583       0.60000000      -0.63812300       1.34883137      -0.07540845      -0.00048885      -0.00073418       0.00093517      -5.72971278
Ni      29.86365805      22.89501538       3.52993166       0.60000000      -0.20743525       0.25767454      -0.97560861       0.00067206       0.00003305      -0.00046698      -5.72994661
Ni      28.07128656      21.12717613       7.08210215       0.60000000       1.37329374       1.75461773       1.33706970      -0.00009770      -0.00063342       0.00059664      -5.72855383
Ni      28.05257952      22.86184362       8.85514965       0.60000000      -0.31695750       0.11662338      -1.83531740       0.00032600       0.00193944      -0.00073734      -5.72721237
Ni      29.82670328      21.12266748       8.84041699       0.60000000      -0.34012743       2.06203065       0.73820315       0.00041319       0.00071040      -0.00025323      -5.72840178
Ni      29.84207938      22.88236341       7.07118673       0.60000000      -0.07360390      -1.09379750      -0.12977773      -0.00016134      -0.00052020       0.00068940      -5.72903699
Ni      28.02438649      21.09887265      10.62711906       0.60000000       1.46547092       1.14691269       1.63064192       0.00004672       0.00101352       0.00037107      -5.72393310
Ni      28.01301212      22.83680116      12.37780238       0.60000000      -0.16863480       1.45992748       0.08936672      -0.00022399       0.00146891      -0.00044012      -5.72286737
Ni      29.79810071      21.10714343      12.35999844       0.60000000      -0.56627456      -0.52935277       1.86078049       0.00061053       0.00140321      -0.00176576      -5.72682530
Ni      29.81588129      22.86403363      10.60066323       0.60000000      -0.57892646      -1.59600186       1.91297013      -0.00018661       0.00110640      -0.00030167      -5.72756726
Ni      27.98049007      21.08160797      14.13115320       0.60000000       0.28595383      -0.31823297      -1.28309230       0.00185790       0.00231370      -0.00041498      -5.71978456
Ni      28.00432533      22.84218988      15.85190777       0.60000000      -0.31443010       1.93169529      -2.92533053       0.00043198       0.00004731       0.00167973      -5.72321451
Ni      29.79248206      21.10695670      15.84101634       0.60000000      -0.93470281      -0.44800826       1.16553794       0.00153628       0.00072600      -0.00059603      -5.72720701
Ni      29.80222004      22.85748609      14.09974578       0.60000000       0.70725944       3.49473932       0.67347227       0.00091250       0.00287780      -0.00361871      -5.72739786
Ni      27.99464275      21.09721596      17.57950218       0.60000000      -0.17555048      -2.25373849       2.06520341       0.00017519      -0.00026488       0.00046226      -5.72317624
Ni      28.04014278      22.86693017      19.31394203       0.60000000       0.25992419      -0.22310490       0.95345828       0.00353309       0.00030198       0.00294688      -5.72803676
Ni      29.81479441      21.12010210      19.31691514       0.60000000      -0.14542889       0.20491166       1.45157379      -0.00208660      -0.00168900       0.00185558      -5.72584671
Ni      29.81426800      22.86777635      17.57626764       0.60000000      -1.39760786       0.76044201      -0.41780368       0.00064939       0.00041551       0.00125543      -5.72839057
Ni      28.05377716      21.12930951      21.05810374       0.60000000      -0.12635808       0.84391958       0.46585350      -0.00325860      -0.00232155      -0.00095717      -5.73985779
Ni      28.07651927      22.88337842      22.82425321       0.60000000       1.15556936      -0.19982017       0.97047529      -0.00047272      -0.00165178      -0.00344541      -5.72849727
Ni      29.84299567      21.13183027      22.82723578       0.60000000       1.74790562       1.25678290      -0.42061887      -0.00215418       0.00135587      -0.00142228      -5.72752368
Ni      29.83882637      22.88338989      21.07317494       0.60000000      -0.18021408      -0.34664940       0.04264500      -0.00223424      -0.00234399       0.00026446      -5.72796518
Ni      28.08071674      21.12903649      24.57787809       0.60000000      -0.34519332       0.06542940      -1.02008732      -0.00184358       0.00253386      -0.00014643      -5.72641373
Ni      28.09751700      22.88727336      26.35114744       0.60000000       2.39060963       1.22828382       0.14644009      -0.00232804       0.00170288      -0.00212110      -5.72919655
Ni      29.85803141      21.13363189      26.35076428       0.60000000      -0.46335937       0.75328201      -0.14335086      -0.00125612       0.00139811       0.00098584      -5.72988147
Ni      29.85616246      22.88891303      24.59334375       0.60000000      -1.55485505       0.93836497      -0.99504202      -0.00071536       0.00154394      -0.00061600      -5.72919768
Ni      28.09758971      21.13189967      28.10755856       0.60000000      -1.15564460      -1.50747350      -1.17206648       0.00117963       0.00150821       0.00141415      -5.72979069
Ni      28.10827777      22.89322316      29.87969459       0.60000000      -0.10799430      -0.33014461      -0.35198565       0.00011912      -0.00061958       0.00024048      -5.73032135
Ni      29.86972619      21.13790450      29.88075890       0.60000000       0.05590750      -0.01243498       0.20692672      -0.00043700      -0.00068219       0.00031630      -5.73032498
Ni      29.86866294      22.89321652      28.11947282       0.60000000      -0.40186759       0.66477667      -1.41753080       0.00008261      -0.00037273       0.00050673      -5.73050886
Ni      28.10984201      21.13881166      31.64413681       0.60000000      -0.34011072       0.47122930      -0.92288354       0.00009695      -0.00114401      -0.00007251      -5.73035896
Ni      28.11420430      22.89829325      33.41645552       0.60000000       1.22499695      -0.41652523      -1.15585789      -0.00048750      -0.00033849      -0.00025006      -5.73045599
Ni      29.87561879      21.14152057      33.41672859       0.60000000       1.10256087       0.09641068      -1.24530316      -0.00023228       0.00004561       0.00075486      -5.73036706
Ni      29.87606950      22.89772325      31.65060854       0.60000000       0.69280892      -1.22739295      -1.53580287      -0.00061144      -0.00078340      -0.00013741      -5.73036575
Ni      28.11379792      24.65630546      -0.01114867       0.60000000      -0.07089925      -1.12684710       0.69490324       0.00024258       0.00032869      -0.00020441      -5.73039103
Ni      28.11028051      26.41172446       1.76082833       0.60000000       0.03435969       0.49353123      -1.63996098      -0.00013058       0.00005272       0.00039012      -5.73006696
Ni      29.87183197      24.65473782       1.75942494       0.60000000      -1.85009888      -1.58698004       1.17724285       0.00010111       0.00035503      -0.00011719      -5.73005503
Ni      29.87779001      26.41576528      -0.00981870       0.60000000      -0.59290476      -0.17612822       0.68669081       0.00020807       0.00015029       0.00025967      -5.73017985
Ni      28.10038499      24.64887581       3.53348554       0.60000000       0.74794426       0.91113488      -1.51685738       0.00010849      -0.00042455       0.00023721      -5.72976917
Ni      28.09210222      26.39666899       5.30418638       0.60000000      -1.31086947       2.33541904       1.16243216       0.00069269       0.00029908       0.00017784      -5.72909737
Ni      29.85526574      24.64449695       5.30017156       0.60000000       0.38565283       0.03424593      -0.05007028       0.00098354      -0.00014389       0.00049847      -5.72945988
Ni      29.86675361      26.40833228       3.52890615       0.60000000      -1.56390300      -0.66079464       1.02142935      -0.00000270      -0.00036600       0.00024379      -5.72971910
Ni      28.07452386      24.62870228       7.07983476       0.60000000       0.23934116       0.60827312       0.99340009       0.00111086       0.00096153      -0.00042516      -5.72845232
Ni      28.06870208      26.37510151       8.83832212       0.60000000       0.40511597       0.98802236       0.54808627       0.00002630      -0.00015247       0.00099233      -5.72787631
Ni      29.83370034      24.62733757       8.83376861       0.60000000       1.84902807      -1.52875790       0.00719860       0.00088473       0.00076553       0.00085938      -5.72846562
Ni      29.84944086      26.39386833       7.06409003       0.60000000      -0.91250269       1.83970456      -0.57662238       0.00107545       0.00048470       0.00044238      -5.72908431
Ni      28.04436670      24.60363286      10.61056163       0.60000000       0.33451083      -0.74881321       1.43049043      -0.00011038       0.00032602       0.00030694      -5.72643316
Ni      28.05304610      26.36403655      12.34741366       0.60000000       0.58401133      -0.11578770       0.87844992       0.00190518       0.00114180      -0.00175541      -5.72759819
Ni      29.81824852      24.61613388      12.34583532       0.60000000       1.85336002      -0.16123054      -0.20506478      -0.00152081       0.00072586      -0.00098448      -5.72789937
Ni      29.83471370      26.38128473      10.58398993       0.60000000      -2.17693881       1.37214713      -0.67479837       0.00039893      -0.00008243       0.00015120      -5.72859168
Ni      28.02860330      24.59834973      14.10585198       0.60000000      -1.81892264      -0.22159876      -0.84544416       0.00148686       0.00003772      -0.00062703      -5.72501910
Ni      28.05539764      26.37187477      15.83475398       0.60000000       0.47853612      -0.66123853      -0.80624854       0.00084492       0.00047790       0.00071171      -5.72728521
Ni      29.82010122      24.62093504      15.83439675       0.60000000       0.99581534      -1.18352946      -0.75605494       0.00000708       0.00247121      -0.00046660      -5.72900236
Ni      29.83125180      26.38080465      14.08425874       0.60000000      -1.79669907       0.49262177      -0.17128551       0.00085654       0.00096869      -0.00082508      -5.72911578
Ni      28.04098866      24.61312932      17.57832972       0.60000000       1.66835574       0.24469137      -1.87286938       0.00053234       0.00085829       0.00221793      -5.72595137
Ni      28.07180359      26.38455664      19.32480158       0.60000000      -1.19340683       0.17109526      -2.00812415      -0.00087684       0.00014096       0.00268541      -5.72646660
Ni      29.83668560      24.63338479      19.32427472       0.60000000       1.38902274       0.11108156      -0.93115913       0.00030373       0.00159921       0.00079389      -5.72893065
Ni      29.83977595      26.38933296      17.57813143       0.60000000       0.91268947       2.26891102       0.13380159      -0.00118368       0.00024373      -0.00076088      -5.72946244
Ni      28.07295540      24.63273715      21.07129459       0.60000000       0.32504575       2.23933103       2.01137254      -0.00103699       0.00041731      -0.00059464      -5.72852677
Ni      28.09482978      26.39968529      22.83733686       0.60000000       1.32949016      -0.96481330       1.06161915       0.00066726       0.00198471       0.00053118      -5.72886401
Ni      29.85474919      24.64397816      22.83659684       0.60000000       1.12025967       0.98622780       2.55348003      -0.00033288       0.00111775       0.00094261      -5.72922802
Ni      29.85436506      26.39954585      21.08274631       0.60000000       0.77745528       0.41283239      -1.56074156      -0.00082711      -0.00022208      -0.00022773      -5.72954607
Ni      28.09665835      24.64473022      24.59413157       0.60000000       1.94560367       2.63351172      -0.99502291      -0.00151900      -0.00084006       0.00002325      -5.72898149
Ni      28.10764373      26.40837511      26.36085599       0.60000000       1.56253016       2.29226480       0.45036947      -0.00005494       0.00088880       0.00023548      -5.73023361
Ni      29.86819180      24.65014798      26.36013521       0.60000000       0.25766550      -0.22671047      -0.01109669      -0.00029775       0.00114951       0.00085542      -5.73045325
Ni      29.86786673      26.40810174      24.60186022       0.60000000      -0.31086946      -0.06036216      -1.26494133      -0.00037482      -0.00061264       0.00001515      -5.73030853
Ni      28.10758356      24.65003506      28.11949488       0.60000000      -0.43042043      -1.43135430      -1.28436110       0.00089285       0.00047645       0.00013713      -5.73038346
Ni      28.11513874      26.41396708      29.88753977       0.60000000      -0.84931894      -2.01336681      -0.07339721      -0.00105028      -0.00058007      -0.00083000      -5.73044133
Ni      29.87626700      24.65485987      29.88722917       0.60000000      -0.78306322      -1.55769737       0.44214500      -0.00076897      -0.00060839       0.00020901      -5.73042971
Ni      29.87649030      26.41345703      28.12621839       0.60000000       0.21583209       0.59642893      -2.86800471      -0.00134307      -0.00073915      -0.00040854      -5.73050725
Ni      28.11484440      24.65540259      31.65044740       0.60000000      -1.30074986       0.10215310      -0.24615804      -0.00067873      -0.00122803      -0.00062219      -5.73038232
Ni      28.11718641      26.41627531      33.42086659       0.60000000      -0.49692940       1.07473298       0.92930231       0.00035958      -0.00040672      -0.00089151      -5.73042971
Ni      29.87855759      24.65739336      33.42055488       0.60000000      -0.42662876      -1.70916038       0.09671081      -0.00021489      -0.00070986      -0.00048851      -5.73032922
Ni      29.88046980      26.41670257      31.65521869       0.60000000      -1.35974215      -0.86918975       1.44463385      -0.00046649      -0.00071743      -0.00061818      -5.73039764
Ni      28.11667968      28.17529685      -0.00941581       0.60000000      -1.83359425       0.83197033       2.19708427       0.00033381       0.00054684       0.00017581      -5.73023242
Ni      28.11471747      29.93328508       1.75818234       0.60000000       0.71302101      -1.12255159       0.29025145       0.00078411      -0.00009836       0.00057061      -5.72986287
Ni      29.87537550      28.17297668       1.75854745       0.60000000       1.93815853       0.75627932      -0.00336647       0.00010708       0.00013408       0.00044315      -5.72989488
Ni      29.88099878      29.93813040      -0.01016536       0.60000000      -0.82981686      -1.81001096      -0.12365847       0.00039550       0.00043500       0.00044583      -5.73000884
Ni      28.10577118      28.16515263       3.52997007       0.60000000       0.96697219      -0.70755679      -0.41172076      -0.00037109      -0.00020248       0.00059570      -5.72957987
Ni      28.10345061      29.92072980       5.29260768       0.60000000       0.13904441       0.61503550      -0.02762780      -0.00042227      -0.00040030      -0.00009936      -5.72936559
Ni      29.86294112      28.16188876       5.29364079       0.60000000       0.18956434       0.09805523      -2.34555021       0.00042334       0.00032820      -0.00018905      -5.72943205
Ni      29.87330772      29.93042597       3.52360538       0.60000000      -0.25390702      -0.75588018      -0.10302245       0.00015414      -0.00038730      -0.00012860      -5.72964388
Ni      28.08825579      28.14800255       7.06504034       0.60000000      -1.03814681      -0.04594807      -0.33922739       0.00034917      -0.00085905       0.00075557      -5.72877896
Ni      28.09144976      29.90866116       8.81569966       0.60000000      -1.67134636       0.01481554      -0.56103348       0.00094554      -0.00077602       0.00011868      -5.72911435
Ni      29.84997917      28.14994494       8.81843778       0.60000000      -1.58981036      -1.00986444       0.14871344       0.00033718      -0.00057797       0.00007281      -5.72913772
Ni      29.86315650      29.92011378       7.05135753       0.60000000       0.33904636       0.08710079      -0.44851908       0.00060018       0.00005917      -0.00057735      -5.72946960
Ni      28.07396554      28.13506161      10.58263432       0.60000000      -2.62378536      -1.58715409      -0.43618704       0.00073108       0.00041970       0.00013874      -5.72845489
Ni      28.08704480      29.90607165      12.32416017       0.60000000      -0.35764778      -0.72614119       0.03004766       0.00026286      -0.00014964      -0.00107612      -5.72948772
Ni      29.84397657      28.14577489      12.32741991       0.60000000      -2.01838285       0.05779368       1.67156337       0.00145128       0.00074750      -0.00011600      -5.72928923
Ni      29.85660001      29.91424918      10.56678250       0.60000000       1.18000267      -1.26985161       0.87670136       0.00025012      -0.00058481       0.00006956      -5.72955489
Ni      28.07166845      28.13681876      14.08227000       0.60000000       0.54056846      -0.06817998       0.40340341       0.00122348       0.00083671      -0.00166054      -5.72900420
Ni      28.09031119      29.91144485      15.82680080       0.60000000      -0.89142128      -0.43914262      -0.60597254       0.00019470       0.00082418      -0.00113045      -5.72988516
Ni      29.84725338      28.15053260      15.82812706       0.60000000      -1.33281110      -1.33368615       0.71871067       0.00058335       0.00081057      -0.00090165      -5.72975838
Ni      29.85663498      29.91569201      14.07357652       0.60000000      -0.06155074      -0.55242714       0.96009658       0.00008258      -0.00006046      -0.00056507      -5.72984529
Ni      28.07964095      28.14631242      17.57853272       0.60000000      -0.91918727       0.87136927       0.45334455       0.00059382      -0.00095520      -0.00085696      -5.72856057
Ni      28.09843086      29.91916854      19.33341709       0.60000000       1.06092815       0.35155231       1.60716219       0.00079377       0.00088746      -0.00035405      -5.73004186
Ni      29.85617245      28.15799924      19.33175936       0.60000000       0.44293400      -0.02832677       0.97107162      -0.00024524       0.00077812      -0.00059202      -5.72983593
Ni      29.86133063      29.92097379      17.57969817       0.60000000       0.89499108      -0.18045980       0.21320312      -0.00012241      -0.00019332       0.00020673      -5.73013282
Ni      28.09447504      28.15691013      21.08460169       0.60000000      -0.65639107      -0.75444960       1.29532297      -0.00049078      -0.00168904      -0.00004705      -5.72899038
Ni      28.10748595      29.92698314      22.84683438       0.60000000       1.52120962       0.47953369      -1.37713768       0.00086529      -0.00029245       0.00023732      -5.73027217
Ni      29.86772659      28.16633046      22.84522739       0.60000000      -1.70903688      -1.44297101      -0.99799614      -0.00008728       0.00106152      -0.00036201      -5.73025227
Ni      29.86888435      29.92751689      21.09071346       0.60000000       0.08034624       0.42903386       0.09939660      -0.00041255      -0.00058209      -0.00000937      -5.73029315
Ni      28.10723454      28.16682085      24.60259888       0.60000000      -1.62772776       1.57607927      -0.56479253      -0.00023094      -0.00041907       0.00038217      -5.73010129
Ni      28.11481226      29.93444398      26.36657467       0.60000000       0.81377789      -0.59625698      -1.20263265       0.00023522       0.00002056       0.00003276      -5.73045939
Ni      29.87629900      28.17299321      26.36629660       0.60000000      -0.35317703      -1.69524975      -0.58867347      -0.00002002       0.00006128      -0.00005736      -5.73051286
Ni      29.87619282      29.93383908      24.60785432       0.60000000      -1.00797575       0.95800594       0.36698998      -0.00058377      -0.00018488      -0.00006143      -5.73043394
Ni      28.11509310      28.17382682      28.12654088       0.60000000      -1.64300051       1.08370136       0.02810903      -0.00050123      -0.00048741      -0.00057805      -5.73052514
Ni      28.11962242      29.93949092      29.89189121       0.60000000       0.26874133       1.39892012      -1.52752799      -0.00075752      -0.00083736      -0.00106986      -5.73043364
Ni      29.88141651      28.17731495      29.89204029       0.60000000       0.90427709      -0.44856357      -2.16232435      -0.00056565      -0.00121414      -0.00114825      -5.73043412
Ni      29.88147557      29.93891796      28.13019536       0.60000000      -1.11580036      -1.98511519      -1.04037307      -0.00089175      -0.00078087      -0.00073283      -5.73041719
Ni      28.11904339      28.17737496      31.65538167       0.60000000       0.41700445       0.33105812       1.10167028      -0.00038103      -0.00070486      -0.00073463      -5.73044366
Ni      28.12044655      29.93960955      33.42267880       0.60000000      -0.86784466       0.79052824      -1.14361467      -0.00056443       0.00013553       0.00021519      -5.73030847
Ni      29.88160637      28.17781944      33.42291616       0.60000000      -0.88557557      -0.23478985      -2.03148332       0.00020480      -0.00016549       0.00011492      -5.73027337
Ni      29.88357172      29.94082792      31.65747405       0.60000000       0.70452891      -0.43525550       1.44428519      -0.00012948      -0.00020664       0.00029792      -5.73033017
Ni      28.12004969      31.70094336      -0.01130136       0.60000000      -0.69372748      -2.04775811      -0.48661706       0.00017483       0.00028968       0.00076457      -5.73001748
Ni      28.11962963      33.46261492       1.75278481       0.60000000       0.93097245      -0.94951270      -0.28869035       0.00006783      -0.00080943      -0.00029411      -5.72989124
Ni      29.88010546      31.69858836       1.75471220       0.60000000      -0.27609705       0.36925498       0.80790291       0.00036301      -0.00018586       0.00025115      -5.72978801
Ni      29.88372964      33.46634633      -0.01304590       0.60000000       0.08273710      -0.22159549      -2.19743935      -0.00045839      -0.00017314       0.00028780      -5.72989005
Ni      28.11361034      31.69238506       3.52186890       0.60000000       2.23522491      -0.52747327       0.14872970       0.00065279      -0.00048049      -0.00044203      -5.72970659
Ni      28.11450212      33.45499691       5.28103877       0.60000000       1.39451352      -0.64856436       0.81721734       0.00076503      -0.00003866      -0.00018636      -5.72991067
Ni      29.87348154      31.69068210       5.28388457       0.60000000      -0.90287789       0.45579046       0.89619893       0.00036776      -0.00064581      -0.00063363      -5.72968078
Ni      29.88031118      33.46053411       3.51680930       0.60000000      -0.99520947      -0.53379826       0.88303685       0.00028994      -0.00110364      -0.00019081      -5.72983390
Ni      28.10523731      31.68251363       7.04810615       0.60000000      -0.77082018       1.08685412      -0.20271016       0.00014783      -0.00082607       0.00007428      -5.72962797
Ni      28.11032144      33.44986505       8.80082147       0.60000000       0.76777113       0.75478669      -0.28781322      -0.00035809      -0.00042496       0.00047861      -5.73005450
Ni      29.86761008      31.68450087       8.80410382       0.60000000       0.66027511      -0.37079514      -1.60435501       0.00014673      -0.00075648       0.00020909      -5.72980052
Ni      29.87620774      33.45490139       7.04046670       0.60000000      -0.85131283      -1.65413237      -0.26026944       0.00003580      -0.00028516       0.00032268      -5.72995996
Ni      28.10018109      31.67747333      10.56302919       0.60000000       0.00752241       1.31265514       0.17477943      -0.00021249       0.00040588       0.00048891      -5.72979367
Ni      28.10914345      33.44898650      12.31370815       0.60000000       0.52613709       0.26762873       0.87660395      -0.00041223       0.00062798       0.00074377      -5.73024398
Ni      29.86589359      31.68332282      12.31599805       0.60000000       1.16753236       0.95297386       1.33564815      -0.00062747       0.00039149       0.00069481      -5.72999370
Ni      29.87375733      33.45263970      10.55687608       0.60000000      -0.72097352      -1.38788361      -0.79753426      -0.00033681      -0.00038725       0.00030911      -5.73011410
Ni      28.10048627      31.67951989      14.07133901       0.60000000       0.40081096       0.68509030       0.93743173       0.00014822      -0.00012145      -0.00013653      -5.73011518
Ni      28.11032017      33.45214748      15.82508527       0.60000000      -2.73394718      -0.49862360      -0.81758018       0.00045702       0.00004219      -0.00012699      -5.73046476
Ni      29.86752196      31.68656783      15.82542684       0.60000000       2.12832903       0.80161567      -1.81362209       0.00052651      -0.00009407      -0.00031921      -5.73019117
Ni      29.87362411      33.45376433      14.06934779       0.60000000      -0.08786710       0.75848933      -1.34214265      -0.00039726       0.00044334      -0.00001983      -5.73024946
Ni      28.10468768      31.68499734      17.58023982       0.60000000       0.67349226       0.83594345      -0.88786932      -0.00032721       0.00013708      -0.00080497      -5.73047251
Ni      28.11231522      33.45719819      19.33732527       0.60000000       0.08726009      -0.83041953      -2.08062398       0.00034632       0.00044824      -0.00017440      -5.73061615
Ni      29.87143235      31.69146183      19.33645315       0.60000000       1.13269502       1.21141461      -1.56455700       0.00054074       0.00020125      -0.00011619      -5.73035979
Ni      29.87471614      33.45768159      17.58142884       0.60000000      -0.92120427      -1.05970032      -0.51266943       0.00004344      -0.00017424      -0.00033666      -5.73041254
Ni      28.10979824      31.69100652      21.09238616       0.60000000       0.28436864      -1.04574536       0.86261086      -0.00000267       0.00023581      -0.00020371      -5.73054814
Ni      28.11467977      33.46309466      22.85111845       0.60000000       0.23649441      -0.57124341       1.05502707       0.00024766      -0.00006694      -0.00080132      -5.73051971
Ni      29.87631918      31.69707151      22.85103026       0.60000000      -2.58278933      -0.34833309      -0.36768850      -0.00108486      -0.00044228      -0.00114463      -5.73039347
Ni      29.87637240      33.46246358      21.09451077       0.60000000      -1.91785556       1.34979002      -0.53993427       0.00019685       0.00029611      -0.00061446      -5.73043311
Ni      28.11494613      31.69756355      24.60846589       0.60000000      -0.56698092       0.01192633      -0.08053396      -0.00085078      -0.00128995      -0.00048331      -5.73042250
Ni      28.11776449      33.46838478      26.36835775       0.60000000      -1.29490016       0.53346788      -0.20545374      -0.00078589      -0.00132656      -0.00101206      -5.73040473
Ni      29.88056738      31.70204014      26.36967310       0.60000000      -1.19669759      -0.38264819       0.32764165      -0.00018958      -0.00045542      -0.00095499      -5.73038626
Ni      29.87901181      33.46757824      24.61011686       0.60000000      -0.88513040      -1.18134115       0.30854579      -0.00059241      -0.00138226      -0.00111299      -5.73038781
Ni      28.11913549      31.70262843      28.12942612       0.60000000       1.06998114       0.24012530       0.57333938      -0.00049914       0.00001845       0.00012504      -5.73040038
Ni      28.12069057      33.47020152      29.89149384       0.60000000       2.26445403       0.37931100      -0.73428971      -0.00008786       0.00030722       0.00054701      -5.73028260
Ni      29.88367230      31.70484531      29.89349998       0.60000000      -0.39825262      -1.34891654       0.20991013      -0.00045908      -0.00047347      -0.00022398      -5.73031878
Ni      29.88190410      33.47014206      28.13037667       0.60000000      -1.18622038      -1.11902716      -0.20574602      -0.00006109       0.00040952      -0.00052802      -5.73028177
Ni      28.12160727      31.70448533      31.65661390       0.60000000       0.99374128       1.27882894      -0.96656182      -0.00026297      -0.00022973       0.00031481      -5.73031080
Ni      28.12182892      33.46827672      33.42086250       0.60000000       0.26832413       0.46403173      -0.55340120       0.00035945       0.00029366       0.00058872      -5.73005944
Ni      29.88395325      31.70375279      33.42260757       0.60000000       0.26106281       0.32181999       1.01546242      -0.00009835       0.00051275       0.00083509      -5.73008096
Ni      29.88405782      33.46998700      31.65656910       0.60000000      -1.24683119       0.49535675       1.29663443      -0.00005636       0.00017359       0.00028213      -5.73008496
Ni      31.64779990       0.03211152      -0.01435681       0.60000000       1.09951536      -1.15097650      -0.16731930      -0.00086497      -0.00048953      -0.00027181      -5.72992378
Ni      31.64855777       1.79536034       1.74926543       0.60000000      -1.60863757      -2.70321444       0.20255157      -0.00035229      -0.00057326      -0.00084512      -5.73005688
Ni      33.41220598       0.03173035       1.75061151       0.60000000      -0.94071580      -1.75413678      -1.96102819      -0.00060764      -0.00084151       0.00001080      -5.72995460
Ni      33.41204396       1.79755861      -0.01432181       0.60000000       1.25428928       1.37152725      -0.37472411      -0.00056257      -0.00006050      -0.00049690      -5.72995901
Ni      31.64726004       0.02844932       3.51399601       0.60000000      -0.60436836       1.06815398      -3.52906215      -0.00048236      -0.00112326       0.00017385      -5.72998995
Ni      31.64892914       1.79294520       5.27526494       0.60000000       1.27827429      -0.15318174       0.23063315      -0.00084359      -0.00049345       0.00082686      -5.73018616
Ni      33.41198862       0.02958853       5.27657560       0.60000000       0.06050788      -1.25245466       0.36586630      -0.00045853      -0.00094121       0.00017859      -5.73002189
Ni      33.41389929       1.79603197       3.51393145       0.60000000      -1.36879556      -0.23708493       0.78892202      -0.00019283      -0.00064299       0.00014360      -5.73008114
Ni      31.64579223       0.02559148       7.03711303       0.60000000       1.43721358       0.99857856      -0.17596098      -0.00043467      -0.00088619       0.00059051      -5.73009628
Ni      31.64783163       1.79186652       8.79583265       0.60000000      -0.40920023       0.99412765       0.30338781       0.00052536      -0.00036022       0.00122812      -5.73022729
Ni      33.41120433       0.02821741       8.79705382       0.60000000      -0.61284630      -0.60859036       1.92035736      -0.00040095      -0.00084074       0.00008115      -5.73008412
Ni      33.41437448       1.79515896       7.03722789       0.60000000      -1.04159604       1.32576112       0.65827031      -0.00057667      -0.00024646       0.00103903      -5.73014718
Ni      31.64432684       0.02448676      10.55486786       0.60000000      -1.06706817      -1.25565224      -0.05491023      -0.00023827       0.00022234       0.00025570      -5.73016733
Ni      31.64611230       1.79239868      12.31250401       0.60000000       0.44967406       0.46383226      -1.95417833       0.00008461      -0.00070337       0.00040697      -5.73028243
Ni      33.41014703       0.02783587      12.31299617       0.60000000       1.52094309       0.53465248       1.99926680      -0.00031764      -0.00003912      -0.00028964      -5.73013693
Ni      33.41352257       1.79494194      10.55550772       0.60000000      -0.42189655       1.17792161      -2.23173891       0.00009215      -0.00047201       0.00053345      -5.73015243
Ni      31.64292333       0.02568754      14.06938543       0.60000000      -0.49930594       1.56279478      -1.95280434       0.00032458      -0.00007376       0.00001539      -5.73023987
Ni      31.64284663       1.79524661      15.82660170       0.60000000      -0.46313948       0.93122372      -1.35069011      -0.00002931      -0.00041267       0.00059294      -5.73022395
Ni      33.40866312       0.02896124      15.82639778       0.60000000       0.17543442      -0.04276454      -1.31630206      -0.00057844      -0.00004331      -0.00009975      -5.73019415
Ni      33.41145688       1.79557747      14.07033968       0.60000000       0.40181216      -0.19883222      -0.16667975      -0.00053217      -0.00005150      -0.00023133      -5.73020184
Ni      31.64158635       0.02879430      17.58236300       0.60000000      -0.35650677       0.20445548      -0.35525071      -0.00052279       0.00001358       0.00040022      -5.73025763
Ni      31.63880512       1.79990202      19.33839669       0.60000000      -0.40287939       0.58873870      -0.65416470       0.00061087      -0.00026182       0.00021733      -5.73010468
Ni      33.40707599       0.03131926      19.33895660       0.60000000      -0.57997992      -1.19966781       2.88903542      -0.00028710      -0.00021288       0.00020778      -5.73014617
Ni      33.40785121       1.79786249      17.58283205       0.60000000       0.76909067      -2.15630093       0.77065363       0.00016148      -0.00038715       0.00047791      -5.73014957
Ni      31.64032750       0.03294797      21.09498953       0.60000000      -0.73224988      -1.77961526       1.02124880       0.00032847      -0.00033677       0.00003794      -5.73020929
Ni      31.63678296       1.80377558      22.84997985       0.60000000       0.54219300       0.81796855      -0.00487400      -0.00059271       0.00025901      -0.00028960      -5.72997695
Ni      33.40643093       0.03377360      22.85261843       0.60000000       0.78325182      -0.37666885      -0.46772126       0.00020291       0.00008545       0.00011336      -5.73012084
Ni      33.40478714       1.80050098      21.09474457       0.60000000       1.13845367       0.08897477       0.82964332      -0.00043117       0.00016878       0.00028407      -5.73006475
Ni      31.64121285       0.03598474      24.60980618       0.60000000      -0.80764742       1.98049367       0.16681127      -0.00051236       0.00037289      -0.00035721      -5.73016542
Ni      31.63830920       1.80454070      26.36614898       0.60000000      -1.22305624       1.59097960      -1.34117670      -0.00043301       0.00089252       0.00011855      -5.72990865
Ni      33.40751818       0.03528494      26.37001755       0.60000000      -0.63539786      -0.85111907       0.51369081      -0.00012580      -0.00007754       0.00031449      -5.73002970
Ni      33.40370481       1.80212456      24.60905626       0.60000000       0.70368027      -0.48835983       0.13631283      -0.00016481       0.00008181       0.00017622      -5.73000121
Ni      31.64354633       0.03678406      28.12973055       0.60000000       0.79734530       0.68697509      -1.17148039       0.00043929       0.00058180       0.00023291      -5.73002219
Ni      31.64223535       1.80247077      29.88975219       0.60000000       1.39834116       0.81924537      -1.08525883       0.00003637       0.00002108       0.00042556      -5.72982413
Ni      33.40951367       0.03520569      29.89318136       0.60000000      -0.44787615       1.30376655       1.12757510      -0.00009599       0.00027945      -0.00029461      -5.72989619
Ni      33.40558754       1.80179535      28.12914863       0.60000000       0.17429718       0.16787778      -0.62999404      -0.00051140      -0.00035304       0.00016593      -5.72987539
Ni      31.64632224       0.03529111      31.65591538       0.60000000      -1.01643450       1.03046123      -0.66733533      -0.00026761       0.00026907      -0.00018146      -5.72990388
Ni      31.64631380       1.79878761      33.41916915       0.60000000       0.53272862      -0.57382302       0.97967729      -0.00062645       0.00012697      -0.00075265      -5.72988099
Ni      33.41141308       0.03376614      33.42133149       0.60000000       0.46347595      -1.81591283       0.31599126      -0.00072982      -0.00003508      -0.00051537      -5.72992009
Ni      33.40892853       1.79971208      31.65579610       0.60000000       1.47919018      -0.65836148      -1.26029933      -0.00075237       0.00018336      -0.00057770      -5.72986132
Ni      31.64714719       3.56105841      -0.01656999       0.60000000       0.59440610       0.81962076      -0.11296872      -0.00040364       0.00026465      -0.00136450      -5.72998726
Ni      31.64831279       5.32282041       1.74846369       0.60000000       0.33006267       2.34595267       0.49283018      -0.00030417       0.00055228      -0.00110538      -5.73016661
Ni      33.41358567       3.56096132       1.75042145       0.60000000      -0.06891213      -0.00763751      -1.33196443      -0.00010843       0.00003382      -0.00083225      -5.73006213
Ni      33.41128526       5.32430978      -0.01470526       0.60000000      -0.27830216       0.61424211      -1.43990818      -0.00067423       0.00035589      -0.00102281      -5.72999609
Ni      31.64967823       3.55876942       3.51273636       0.60000000      -0.68895282       0.00332420      -0.22267256      -0.00037407      -0.00003199      -0.00060310      -5.73022789
Ni      31.64967686       5.32244220       5.27642636       0.60000000       0.93363750       1.36722156       0.89401645       0.00068249       0.00038548       0.00001420      -5.73035312
Ni      33.41570808       3.56073457       5.27687259       0.60000000       0.62173836       1.61626887       2.57030852      -0.00039369       0.00011065       0.00087835      -5.73018593
Ni      33.41507422       5.32429595       3.51532214       0.60000000       0.25462460       0.18004040      -1.16656712      -0.00009280       0.00028758      -0.00045222      -5.73016500
Ni      31.64970058       3.55811763       7.03658423       0.60000000      -1.79089047       0.17056496       0.32638570       0.00038070      -0.00076207       0.00064421      -5.73031199
Ni      31.64863740       5.32307452       8.79802999       0.60000000       0.00095877       1.54828149      -0.68002147       0.00125265      -0.00083929       0.00031132      -5.73051184
Ni      33.41577839       3.56108629       8.79775670       0.60000000       0.46494846      -0.14046950       0.84320694      -0.00005138      -0.00053737       0.00111779      -5.73019212
Ni      33.41624723       5.32547637       7.03967642       0.60000000       1.13175813      -1.66887563      -1.60543427       0.00034110       0.00035048       0.00050716      -5.73022163
Ni      31.64824214       3.55813044      10.55530583       0.60000000      -1.20444808      -0.99591570      -0.66000142       0.00034227      -0.00010896       0.00031025      -5.73041987
Ni      31.64557773       5.32409154      12.31463165       0.60000000      -1.32962799       0.58112661       0.22173784       0.00075345      -0.00138870       0.00009467      -5.73046583
Ni      33.41383831       3.56156411      12.31415115       0.60000000      -0.37515184       0.65700780      -0.80953374       0.00050647      -0.00054693      -0.00004172      -5.73024493
Ni      33.41522948       5.32638497      10.55801660       0.60000000      -0.88365354       0.73276837      -1.12272139       0.00000398      -0.00013884      -0.00041537      -5.73031247
Ni      31.64459927       3.56006838      14.07079848       0.60000000      -1.62327786      -1.19663210      -0.08703357       0.00004451       0.00025450       0.00016657      -5.73037672
Ni      31.63865948       5.32827464      15.82767739       0.60000000      -0.25049080      -0.59441106       0.12800708       0.00094153      -0.00153304       0.00002529      -5.73025668
Ni      33.40968693       3.56326297      15.82726091       0.60000000       0.74018745      -0.89818490       0.39514554       0.00009712       0.00009051       0.00010080      -5.73021704
Ni      33.41148644       5.32740862      14.07190221       0.60000000       1.72102816       0.96138970      -1.47599412       0.00006618       0.00007786      -0.00042670      -5.73037159
Ni      31.63815015       3.56536429      17.58282534       0.60000000      -0.97538792      -0.64426493       0.48074811       0.00022858      -0.00040696      -0.00007342      -5.73013264
Ni      31.62988953       5.33479270      19.33550156       0.60000000       0.93276486      -0.24501750       0.63397235       0.00049037      -0.00061571      -0.00017163      -5.73009443
Ni      33.40435071       3.56621282      19.33795327       0.60000000       1.78644634      -1.71880900       0.48116486       0.00006574      -0.00045311       0.00086766      -5.73012495
Ni      33.40562732       5.32974492      17.58227272       0.60000000       1.16153973       0.06052421      -1.57709864      -0.00045916       0.00001854       0.00094236      -5.73034185
Ni      31.63241785       3.57074213      21.09167877       0.60000000       0.14633812      -1.95191663       0.50727067      -0.00007999       0.00006764       0.00041152      -5.72986442
Ni      31.62412011       5.33873727      22.84231378       0.60000000      -0.77128106      -0.88962782      -0.08023602       0.00071535       0.00046050      -0.00033655      -5.72960240
Ni      33.40048579       3.56828723      22.84933624       0.60000000      -0.13670550       1.52084484      -1.12741929      -0.00066208       0.00055489       0.00021765      -5.72999978
Ni      33.39883778       5.33235592      21.09130293       0.60000000      -0.71359245       0.99689800      -2.29381542       0.00031670       0.00024913       0.00131367      -5.73019695
Ni      31.63119412       3.57262294      24.60316361       0.60000000      -0.23064953      -0.31676174      -4.04815047      -0.00041944       0.00065908       0.00034849      -5.72967637
Ni      31.62668767       5.33693881      26.35726567       0.60000000       0.65901091       0.79731443      -1.02106292      -0.00016660       0.00083541       0.00057933      -5.72949338
Ni      33.40046789       3.56814962      26.36559806       0.60000000      -0.58029612      -0.24383036      -1.11737405      -0.00027522      -0.00043015       0.00055315      -5.72989124
Ni      33.39593826       5.33308742      24.60363579       0.60000000      -1.08972261       1.22789252       1.08169756      -0.00112856      -0.00062591       0.00029865      -5.72996199
Ni      31.63559387       3.57000777      28.12339621       0.60000000      -1.15769596       0.12369308       0.25704522      -0.00052210       0.00021939       0.00055293      -5.72971839
Ni      31.63509314       5.33136125      29.88378529       0.60000000      -0.04797826       0.60208573       0.99682174      -0.00097367      -0.00002846       0.00000193      -5.72971064
Ni      33.40449522       3.56548320      29.88989332       0.60000000      -0.51075057       2.10696097       0.39081039      -0.00097889      -0.00012842       0.00013652      -5.72985059
Ni      33.39857923       5.33033986      28.12419397       0.60000000       0.14496747       0.08163316       0.61013210      -0.00015599       0.00013219       0.00050322      -5.72986555
Ni      31.64204553       3.56527547      31.65182357       0.60000000       0.34374382      -0.73566709       2.04162166      -0.00066246       0.00012460      -0.00014788      -5.72979259
Ni      31.64322873       5.32586341      33.41611774       0.60000000      -0.54258702      -1.08557015      -0.14860833      -0.00079742       0.00031356      -0.00082833      -5.72987461
Ni      33.40958340       3.56252900      33.41987527       0.60000000       0.59372985       0.86159322       1.22007395      -0.00084082       0.00017390      -0.00065878      -5.72991168
Ni      33.40521825       5.32658844      31.65313602       0.60000000       0.18552081       1.47545009      -1.64813031      -0.00138991       0.00006476       0.00000925      -5.72991472
Ni      31.64501375       7.08546082      -0.01779037       0.60000000      -0.60668747       1.49009987      -0.70115120      -0.00040744       0.00021008      -0.00121690      -5.73006302
Ni      31.64581172       8.84500493       1.74955046       0.60000000      -0.89870117       1.54751418       0.89868887      -0.00040502       0.00084355      -0.00103302      -5.73025322
Ni      33.41291959       7.08573185       1.75152106       0.60000000       2.54329664       1.07724060       0.75588866      -0.00060732       0.00051924      -0.00082620      -5.73011220
Ni      33.40959419       8.84555344      -0.01447828       0.60000000       0.53956512       0.54601884      -1.29736800      -0.00123971       0.00028681      -0.00089840      -5.73007661
Ni      31.64833187       7.08464650       3.51423485       0.60000000      -0.44915869       0.73338712      -1.65137328      -0.00010750       0.00098436      -0.00037662      -5.73032302
Ni      31.64552373       8.84674578       5.28062753       0.60000000       0.30027596       0.52193379      -0.11465492       0.00052049       0.00177213      -0.00034878      -5.73033220
Ni      33.41501248       7.08747384       5.28021450       0.60000000      -0.97749306      -0.93064912       0.18884969       0.00074178       0.00075241       0.00008786      -5.73022187
Ni      33.41279524       8.84701137       3.51817088       0.60000000       0.91428274      -2.25389079       0.46519930       0.00026594       0.00067789      -0.00039357      -5.73020452
Ni      31.64745580       7.08623482       7.04030884       0.60000000       0.10035006       0.38359320      -2.54568950       0.00075606       0.00034869       0.00041410      -5.73044348
Ni      31.64161943       8.84975349       8.80401982       0.60000000      -0.12094696      -1.51982756       0.11199181       0.00065203       0.00035923      -0.00082248      -5.73026472
Ni      33.41465322       7.08966702       8.80175668       0.60000000      -1.50006380      -2.03986874      -0.83263922       0.00018329      -0.00016888       0.00056032      -5.73028690
Ni      33.41251007       8.85011262       7.04459089       0.60000000      -0.95892331       0.27241064       1.41546818       0.00049172       0.00114267       0.00041216      -5.73020685
Ni      31.64460383       7.08733839      10.55890346       0.60000000       1.38823317       1.33330582      -0.39165894       0.00096522       0.00094020       0.00046041      -5.73039585
Ni      31.63681961       8.85117067      12.31824177       0.60000000       1.79420455       0.52211708      -0.48262328      -0.00026722      -0.00004803       0.00050248      -5.72968858
Ni      33.41178930       7.09069375      12.31676983       0.60000000       1.77632403       1.13657728       1.08971552       0.00066563      -0.00058583       0.00005896      -5.73041970
Ni      33.40998322       8.85244606      10.56243689       0.60000000      -1.76533472       0.77125582       0.47885890       0.00079448       0.00027986       0.00008301      -5.73034954
Ni      31.63914803       7.08915832      14.07235038       0.60000000      -0.75946097       0.17746892       0.24145143       0.00039803       0.00122422       0.00038426      -5.73003751
Ni      31.63051195       8.85258157      15.82619551       0.60000000       0.29224333       0.79339322       1.08618108       0.00003113       0.00056991       0.00102330      -5.72985959
Ni      33.40686827       7.09162797      15.82731520       0.60000000       1.03144477       1.22866894      -0.08644495       0.00058975      -0.00049261      -0.00039130      -5.73057926
Ni      33.40647147       8.85266111      14.07298625       0.60000000       0.30653057       0.21503979       0.15152916       0.00033220      -0.00026192       0.00052630      -5.73059475
Ni      31.62995494       7.09463327      17.58057149       0.60000000      -1.43722428      -0.94620452       0.41845501       0.00076117       0.00044376       0.00052496      -5.73035127
Ni      31.62002816       8.85780944      19.32944688       0.60000000       1.59199990       2.13905759       1.56266993      -0.00021658      -0.00028604      -0.00037968      -5.73064178
Ni      33.39943255       7.09367529      19.33518470       0.60000000      -2.04812352       0.81723555      -0.86222693       0.00074680       0.00004376       0.00070236      -5.73058593
Ni      33.40015768       8.85289746      17.58014467       0.60000000      -0.56962225       1.32497193       1.97520048       0.00198715       0.00110584       0.00093075      -5.73091745
Ni      31.62026273       7.10070563      21.08454589       0.60000000      -0.09429627      -0.56554766       0.39126269      -0.00039476       0.00049388      -0.00054796      -5.73004568
Ni      31.61224664       8.86070182      22.83302239       0.60000000      -0.49036936       0.27797114       2.01146159       0.00107416       0.00104810       0.00012925      -5.72985214
Ni      33.39308655       7.09503977      22.84399828       0.60000000      -0.71090462       1.20532829       1.94916156      -0.00003560      -0.00005211       0.00092133      -5.73025644
Ni      33.39274658       8.85410737      21.08703886       0.60000000       0.11306554      -0.03268335      -1.83698483       0.00054287      -0.00030371       0.00023171      -5.73076522
Ni      31.61775351       7.10105239      24.59320045       0.60000000      -0.01819336       0.43456831       0.30678427       0.00098907       0.00149552       0.00042097      -5.72940117
Ni      31.61669938       8.85772246      26.34911994       0.60000000      -0.35680277      -0.98669231       1.27907467       0.00084301       0.00040841       0.00000861      -5.72943568
Ni      33.39304124       7.09341533      26.35999443       0.60000000      -0.92552328       0.53492250       0.00290876      -0.00036771      -0.00029508       0.00022761      -5.72990364
Ni      33.38893114       8.85334813      24.59843470       0.60000000      -0.20047903      -0.45416193      -0.15731027       0.00084012      -0.00010430       0.00026151      -5.73018527
Ni      31.62603682       7.09611521      28.11557190       0.60000000      -1.32729221      -0.68181034      -0.46376812      -0.00080926       0.00016186       0.00016599      -5.72951907
Ni      31.62898632       8.85174640      29.87866064       0.60000000       1.19468001      -1.19481961      -0.11698326      -0.00075827      -0.00004733       0.00003621      -5.72969210
Ni      33.39935707       7.08927081      29.88626141       0.60000000       1.51696507       1.43607715       0.47051488      -0.00065163       0.00077958      -0.00051952      -5.72991282
Ni      33.39359358       8.85020423      28.12031928       0.60000000      -0.78977971       0.53736517       0.73464799      -0.00061442       0.00041670      -0.00064135      -5.72991180
Ni      31.63692905       7.08961055      31.64759753       0.60000000       0.31330415       1.21007144      -0.05988334      -0.00089884       0.00019795      -0.00022999      -5.72980422
Ni      31.63999965       8.84666238      33.41419293       0.60000000      -2.10064488       0.94442971       1.76165032      -0.00059400       0.00012444      -0.00058984      -5.72998232
Ni      33.40734457       7.08628797      33.41860446       0.60000000      -0.63102508       0.88313735       0.22537168      -0.00135719       0.00018992      -0.00061456      -5.72997999
Ni      33.40212357       8.84677182      31.65118663       0.60000000       0.26642561       1.18014903      -0.18826570      -0.00067622       0.00043639      -0.00087424      -5.72997671
Ni      31.64244699      10.60393793      -0.01751791       0.60000000      -0.09282758      -1.19288518       0.76005101      -0.00112301       0.00042493      -0.00049560      -5.73016912
Ni      31.64190324      12.36196401       1.75176640       0.60000000       1.50341433       0.72279434      -0.52022395      -0.00013534       0.00071794      -0.00074846      -5.73024964
Ni      33.41008391      10.60477835       1.75328647       0.60000000      -0.23490487      -1.03327219      -0.26481328      -0.00009222       0.00054187      -0.00068406      -5.73016781
Ni      33.40730046      12.36153608      -0.01374793       0.60000000       1.47636678      -1.25656790      -1.60706566      -0.00064113       0.00032166      -0.00053179      -5.73011947
Ni      31.64363079      10.60499064       3.51767374       0.60000000       0.36784942      -0.86004884      -2.36696624       0.00025211       0.00181600      -0.00048318      -5.73028481
Ni      31.63743720      12.36507664       5.28620351       0.60000000      -0.31930070       1.39413878       2.63417223      -0.00007606       0.00151811      -0.00029350      -5.73014551
Ni      33.41007522      10.60772204       5.28454635       0.60000000       0.34819872       0.74194983      -1.53405119      -0.00035443       0.00151111       0.00042457      -5.73017305
Ni      33.40798084      12.36364599       3.52108389       0.60000000       0.82883139       0.07833717      -0.37581672      -0.00038123       0.00113958      -0.00012135      -5.73016357
Ni      31.63870247      10.60891156       7.04710411       0.60000000       0.72467325       0.36379312      -0.09948969       0.00056293       0.00132495      -0.00022961      -5.73016107
Ni      31.62710248      12.36952366       8.81338830       0.60000000      -0.65500464      -0.01245753       1.92898807       0.00074716       0.00036738      -0.00074625      -5.72978848
Ni      33.40681672      10.61144858       8.80772062       0.60000000       1.28434844      -1.52936218      -1.21119435       0.00035490       0.00043540       0.00011887      -5.73021567
Ni      33.40386944      12.36718825       7.05007843       0.60000000      -0.96180336       1.00109123      -0.53767900       0.00037237       0.00114853       0.00013522      -5.73009902
Ni      31.63140479      10.61222039      10.56630180       0.60000000      -1.00253394      -0.40769974      -0.12335845       0.00094468       0.00018515       0.00056119      -5.72960228
Ni      31.61957434      12.37077324      12.32552282       0.60000000      -1.45659099      -0.49298380       0.28577337       0.00051890      -0.00052461      -0.00003281      -5.72932166
Ni      33.40356928      10.61269439      12.32042554       0.60000000       0.14750525      -1.06702601      -0.01073602       0.00056052      -0.00037890      -0.00002577      -5.73054367
Ni      33.39923482      12.36990431      10.56826216       0.60000000      -1.31140449      -0.80433109       1.05044547       0.00061578       0.00001972      -0.00045818      -5.73038626
Ni      31.62659141      10.61187793      14.07396908       0.60000000       1.80119962       1.04278123       0.71738966       0.00228643       0.00028611       0.00046228      -5.72972625
Ni      31.61524294      12.36945162      15.82596983       0.60000000       0.55514040       1.69491517      -0.78219512      -0.00000476      -0.00098298      -0.00079871      -5.72965682
Ni      33.39903955      10.61179311      15.82655495       0.60000000      -0.44442745      -1.33465743       1.32692670       0.00156015       0.00027225       0.00081574      -5.73093796
Ni      33.39541549      12.36966316      14.07541308       0.60000000      -1.36339733      -2.64234263       0.73713876       0.00155074      -0.00026903       0.00058556      -5.73090124
Ni      31.62029032      10.61291806      17.57644593       0.60000000       1.07642897       0.15840852       1.51206215      -0.00114152       0.00011005      -0.00192701      -5.73007107
Ni      31.61003865      12.36915881      19.32420618       0.60000000      -0.98420876       1.36010497       0.07372154       0.00089819      -0.00051202      -0.00075937      -5.72984272
Ni      33.39271586      10.61145086      19.33185085       0.60000000       1.01591913       1.10809880      -1.19679985       0.00138895      -0.00035595      -0.00004540      -5.73111463
Ni      33.39075707      12.36822800      17.57842158       0.60000000      -0.27998137       2.02056843       0.71149088       0.00234381      -0.00036643       0.00073181      -5.73104483
Ni      31.61109703      10.61554606      21.07707992       0.60000000       2.21355553       0.11025245      -1.45116996       0.00124024       0.00090020      -0.00005223      -5.73054028
Ni      31.60744903      12.36911384      22.82869133       0.60000000       0.63190789      -0.46047359       1.04059872       0.00200103       0.00014041       0.00008611      -5.73031425
Ni      33.38732985      10.61081042      22.84006232       0.60000000       0.90825232       0.96597995      -0.44903664       0.00092929      -0.00124719      -0.00048326      -5.73068154
Ni      33.38623032      12.36670924      21.08397021       0.60000000      -0.49017056       1.31743084      -1.50458628       0.00120144      -0.00060045       0.00000924      -5.73097956
Ni      31.61010821      10.61514185      24.58622599       0.60000000       1.20460532       1.86316651       0.76857017       0.00143582       0.00070694       0.00144006      -5.72981453
Ni      31.61412676      12.36711592      26.34630689       0.60000000       1.08325214       1.33657418       1.88326521       0.00096107      -0.00072795       0.00115662      -5.72991908
Ni      33.38867451      10.60856015      26.35676076       0.60000000      -1.64045245       0.59834527      -1.08149356       0.00069897      -0.00035984      -0.00000326      -5.73009634
Ni      33.38568601      12.36482669      24.59643544       0.60000000      -0.31649875      -0.78562004      -1.00361230       0.00173270      -0.00076473       0.00074156      -5.73053694
Ni      31.62073160      10.61111136      28.11100362       0.60000000      -2.38010476      -0.47476963       0.42348078       0.00051828      -0.00105062       0.00032481      -5.72967476
Ni      31.62720026      12.36376370      29.87734047       0.60000000       1.71979503      -0.72803255      -0.11502253       0.00037574      -0.00037874       0.00006329      -5.72993875
Ni      33.39691043      10.60572835      29.88412071       0.60000000       1.61894747      -2.10838629      -0.83502161      -0.00077636      -0.00006166      -0.00016520      -5.72999752
Ni      33.39208153      12.36273536      28.11909865       0.60000000       0.35340307       1.70361770      -0.60612131       0.00020169       0.00001894       0.00018717      -5.73013330
Ni      31.63375189      10.60629861      31.64539174       0.60000000       0.83021682       0.59809458       1.22591066      -0.00040097      -0.00023443      -0.00008893      -5.72991532
Ni      31.63821712      12.36159023      33.41417622       0.60000000      -0.96114189      -0.40059777       2.50024215      -0.00064479      -0.00021527      -0.00040236      -5.73010814
Ni      33.40543554      10.60404590      33.41803624       0.60000000      -1.21395205       1.26883249       0.84467823      -0.00096647       0.00018393      -0.00029515      -5.73005170
Ni      33.40121245      12.36141604      31.65037608       0.60000000       0.59550586      -1.05146073      -0.40037070      -0.00084687      -0.00049934       0.00060095      -5.73009199
Ni      31.64004259      14.11808662      -0.01608653       0.60000000       1.14118173      -0.09310494      -0.46305682      -0.00005953      -0.00006499      -0.00049801      -5.73022950
Ni      31.63837654      15.87502749       1.75404080       0.60000000      -0.65126674      -3.45022920       0.04304966      -0.00040782       0.00013757       0.00004884      -5.73025244
Ni      33.40661773      14.11905803       1.75472792       0.60000000       0.51557187       0.02633028      -0.84852061      -0.00078124       0.00015172      -0.00010919      -5.73014688
Ni      33.40565838      15.87435674      -0.01321109       0.60000000      -0.57021249       0.31485616       1.80390806      -0.00049914      -0.00029544      -0.00004794      -5.73017156
Ni      31.63761911      14.12006840       3.52137691       0.60000000      -0.11430042      -1.10186760       1.95821129      -0.00019643       0.00114618      -0.00027745      -5.73021615
Ni      31.62900131      15.87681733       5.29115215       0.60000000       0.72652129       2.54230750       3.14566468       0.00075836       0.00145625      -0.00010554      -5.73003483
Ni      33.40249536      14.12141122       5.28836393       0.60000000      -0.20488222      -1.83947204      -1.21123578       0.00033253       0.00122360      -0.00046094      -5.73011833
Ni      33.40271699      15.87571746       3.52308467       0.60000000      -0.47186283      -0.49911330      -0.62598336      -0.00058308       0.00043360      -0.00055085      -5.73013943
Ni      31.62667132      14.12346704       7.05469922       0.60000000      -0.80785159       0.64799494      -1.57406162       0.00048491       0.00073681       0.00024503      -5.72992826
Ni      31.61338508      15.87756277       8.82165732       0.60000000       0.72089218       0.09624616       1.63045424       0.00081927       0.00074666       0.00002896      -5.72973436
Ni      33.39568934      14.12388294       8.81332701       0.60000000       1.96448490       2.05345800       0.75765082       0.00041631       0.00139807       0.00048125      -5.73015362
Ni      33.39476355      15.87689812       7.05390653       0.60000000      -0.45503895      -0.45510339       0.94677010       0.00048486       0.00152109      -0.00025146      -5.73007250
Ni      31.61327197      14.12555643      10.57687830       0.60000000       0.84047528      -0.44556144       0.02170418       0.00185181       0.00007283      -0.00041889      -5.72964525
Ni      31.59934429      15.87620729      12.33607406       0.60000000      -1.91914507       0.59109911       1.07443586       0.00078243       0.00022868      -0.00052223      -5.72968251
Ni      33.39058042      14.12482953      12.32533928       0.60000000      -0.45062882       0.62380590      -1.21470064       0.00117631       0.00038959       0.00150521      -5.73070925
Ni      33.38663980      15.87727523      10.57336428       0.60000000       1.01118057      -2.03142459       0.22102686       0.00116247       0.00103933       0.00114648      -5.73027575
Ni      31.60648817      14.12484081      14.08051013       0.60000000      -0.80450266      -1.51668231       0.59639650       0.00018728      -0.00167933      -0.00064018      -5.72944856
Ni      31.59531825      15.87475348      15.82988224       0.60000000      -0.47323007       0.30258710      -0.43841565       0.00155134       0.00050082       0.00148816      -5.72929275
Ni      33.38707096      14.12382053      15.82800956       0.60000000      -0.75204354       2.06237848      -0.39900825       0.00185713      -0.00104671      -0.00013540      -5.73103642
Ni      33.38276112      15.87685754      14.07934835       0.60000000      -0.89496926      -0.21460527      -0.07723166      -0.00010745      -0.00078211       0.00055344      -5.73094630
Ni      31.60403476      14.12297214      17.57423008       0.60000000      -0.27346990      -0.57146520      -0.23296178       0.00198242       0.00081385       0.00050064      -5.72895688
Ni      31.59950833      15.87463503      19.32243944       0.60000000       0.89721844       0.04635422       0.18843473       0.00251477       0.00062217       0.00038124      -5.72901386
Ni      33.38388281      14.12205383      19.32994235       0.60000000      -2.59977612      -0.53747812       0.11926476       0.00159986      -0.00090132       0.00010000      -5.73093903
Ni      33.38068213      15.87577915      17.57883429       0.60000000       1.50799007      -0.21238515       0.23364281       0.00163533      -0.00100676       0.00021958      -5.73110610
Ni      31.60510870      14.12195748      21.07421367       0.60000000       0.06070067       1.04757731       0.26151715       0.00300453       0.00058731       0.00022467      -5.72961891
Ni      31.60729955      15.87386503      22.82925032       0.60000000       0.99548769      -0.63148592       0.03880043       0.00183779      -0.00004113       0.00038507      -5.72943109
Ni      33.38329792      14.11998084      22.83885526       0.60000000       0.43498024      -1.92043851      -1.18309990       0.00312399      -0.00035964       0.00000048      -5.73081982
Ni      33.38079727      15.87450765      21.08319152       0.60000000       0.41413532       1.38758919      -0.29454302       0.00260773       0.00010581       0.00067014      -5.73087388
Ni      31.61025374      14.12069426      24.58648336       0.60000000       0.99639674      -0.50818677      -0.04467422       0.00121996       0.00054434      -0.00106007      -5.73013777
Ni      31.61711161      15.87285908      26.34908218       0.60000000      -0.96133014       1.37198538      -1.19788469       0.00091358      -0.00058160       0.00019769      -5.73017257
Ni      33.38851907      14.11836881      26.35682503       0.60000000      -0.24897225      -1.92716599      -0.07726070       0.00051043      -0.00051025       0.00101680      -5.73041576
Ni      33.38548393      15.87304506      24.59716341       0.60000000       0.10883748      -0.27221808       0.62185368       0.00198506       0.00045625       0.00144403      -5.73062056
Ni      31.62153862      14.11908508      28.11139428       0.60000000       1.40318663       1.16420964       0.11538482      -0.00050429      -0.00052420       0.00024544      -5.73002291
Ni      31.62947271      15.87282250      29.87906306       0.60000000      -0.05307660       0.99675626      -0.28911200      -0.00083945      -0.00050317       0.00055623      -5.73015285
Ni      33.39723286      14.11751327      29.88420296       0.60000000      -0.45967011      -0.35472632      -1.14244432      -0.00035447      -0.00026968      -0.00006044      -5.73020846
Ni      33.39395126      15.87270993      28.12013051       0.60000000      -1.59708645       0.94550417      -0.12672082      -0.00007636      -0.00009160       0.00080713      -5.73037457
Ni      31.63370592      14.11780434      31.64593492       0.60000000      -1.21075927      -2.25196540      -0.24727672      -0.00025089      -0.00028381      -0.00012162      -5.73013455
Ni      31.63798560      15.87348195      33.41547297       0.60000000       1.83095297      -0.65149422      -0.20331635      -0.00034273      -0.00006920       0.00023079      -5.73024398
Ni      33.40458163      14.11769276      33.41826024       0.60000000      -0.50622204       0.87295048       0.66192087      -0.00066159      -0.00037803       0.00022423      -5.73014748
Ni      33.40212062      15.87325562      31.65092520       0.60000000      -0.26800699      -0.46898851      -0.44862235      -0.00093654      -0.00035822       0.00010355      -5.73023778
Ni      31.63907874      17.63004444      -0.01433326       0.60000000      -1.70684441       0.36901381       1.10418798      -0.00064457       0.00023464      -0.00033306      -5.73027283
Ni      31.63608800      19.38621507       1.75614860       0.60000000      -1.06500302       1.14409392      -0.00592666       0.00019742       0.00069004      -0.00084366      -5.73018783
Ni      33.40376762      17.63064324       1.75559620       0.60000000       0.07506126      -0.33039632      -1.06844868      -0.00075263       0.00006395      -0.00056589      -5.73016298
Ni      33.40518643      19.38616051      -0.01274838       0.60000000       0.50456105       1.72616573      -1.06602754      -0.00075856       0.00018762      -0.00035933      -5.73013920
Ni      31.63254821      17.63101441       3.52446940       0.60000000       1.57350466      -0.21679728      -0.03690471      -0.00010057       0.00094358      -0.00046557      -5.73012906
Ni      31.62388992      19.38460874       5.29428795       0.60000000       2.22057082       0.51095305      -2.04235596      -0.00032026       0.00014565      -0.00004483      -5.72991180
Ni      33.39629292      17.63070704       5.29016856       0.60000000       0.31800960       1.65707010       0.11967562      -0.00024875       0.00075618       0.00019845      -5.73008198
Ni      33.39910507      19.38582757       3.52368272       0.60000000       0.39316501      -0.88316914      -0.10379878      -0.00028599       0.00052363      -0.00012913      -5.73011535
Ni      31.61773458      17.63015745       7.06005867       0.60000000       2.48350194       0.92091770      -0.03708440       0.00068938       0.00077207      -0.00050558      -5.72975701
Ni      31.60576903      19.37909569       8.82623675       0.60000000       0.66079482       0.93499753      -0.91954195       0.00068290      -0.00082800       0.00062715      -5.72942406
Ni      33.38613752      17.62956789       8.81660649       0.60000000      -0.33604919      -1.05842809      -1.47723889       0.00089276       0.00117325       0.00112091      -5.73005402
Ni      33.38877366      19.38354051       7.05512067       0.60000000      -0.25225637      -1.92088549      -0.20456344      -0.00021138       0.00027136       0.00089827      -5.73002416
Ni      31.59995746      17.62668658      10.58498843       0.60000000       0.33850486      -1.71638839      -2.73276978      -0.00081822      -0.00108020       0.00055407      -5.72946221
Ni      31.58968950      19.37225205      12.34119004       0.60000000      -0.60791248       0.04970373       0.66968432      -0.00035739      -0.00101456       0.00252223      -5.72923464
Ni      33.37922853      17.62785078      12.32966718       0.60000000       1.16806910       0.94797829      -1.72114253       0.00032681       0.00065959       0.00125170      -5.73042870
Ni      33.37928721      19.37993532      10.57576341       0.60000000       1.39580633       0.78326308       0.70298528      -0.00093609       0.00013266       0.00091694      -5.73012549
Ni      31.58874652      17.62334846      14.08813936       0.60000000       0.87150835       2.44549567      -0.93472940       0.00096754      -0.00136141       0.00144517      -5.72968739
Ni      31.58696638      19.37145747      15.83337897       0.60000000      -1.90722280      -1.78366253      -0.71689972       0.00170270      -0.00172571       0.00111570      -5.73014665
Ni      33.37761022      17.62734056      15.83017805       0.60000000      -0.05426433      -0.41676470       3.27640499       0.00035087      -0.00063906       0.00014863      -5.73117667
Ni      33.37530879      19.37796984      14.08159368       0.60000000       0.70329861      -0.63719666       1.43721005       0.00067607      -0.00063965       0.00011701      -5.73067421
Ni      31.59230367      17.62451249      17.57586403       0.60000000       1.50180932      -0.75290626      -0.70355328       0.00183965      -0.00171342       0.00149800      -5.72956192
Ni      31.59730592      19.37636902      19.32390572       0.60000000       1.09236241      -0.04608977      -1.59741751       0.00039952      -0.00096738       0.00032893      -5.72902638
Ni      33.37831549      17.62755696      19.33020386       0.60000000      -0.62994826      -0.91145154      -1.73200159       0.00299717       0.00052560       0.00122026      -5.73111671
Ni      33.37671223      19.37911558      17.57995886       0.60000000      -0.89689322      -0.45636812      -1.00764200       0.00226148       0.00002337       0.00048147      -5.73118490
Ni      31.60236408      17.62643482      21.07448111       0.60000000       0.51757643      -0.43029455       0.93223225       0.00147356       0.00103747      -0.00063518      -5.72883672
Ni      31.61029638      19.37962821      22.83238921       0.60000000      -2.04246429       1.30233458       1.08409045       0.00053205       0.00043169      -0.00012941      -5.72945637
Ni      33.38276789      17.62743704      22.83975987       0.60000000      -0.51225936      -0.42400559      -0.04658564       0.00230038       0.00073049       0.00030763      -5.73066247
Ni      33.38095189      19.38084673      21.08457955       0.60000000      -0.51230047      -1.36217064       0.25533683       0.00175616       0.00138508       0.00037682      -5.73063618
Ni      31.61394117      17.62627246      24.58993392       0.60000000      -3.12707610      -1.12330603       3.66874910       0.00149803      -0.00037604      -0.00082633      -5.72998679
Ni      31.62347276      19.38111572      26.35441148       0.60000000       2.10588303      -0.17558163       1.84957681       0.00085493      -0.00096301       0.00152176      -5.73056674
Ni      33.39128884      17.62736484      26.35861301       0.60000000       1.38231510      -0.05522442       0.68340680      -0.00019903      -0.00016035       0.00093564      -5.73060638
Ni      33.38884652      19.38188404      24.59927867       0.60000000       1.20629320      -0.54694259      -0.67862895       0.00060255       0.00044249       0.00091101      -5.73069876
Ni      31.62598870      17.62703575      28.11522603       0.60000000      -0.78123885      -1.89005555       1.83823145      -0.00057736      -0.00136053       0.00082336      -5.73036188
Ni      31.63364720      19.38317328      29.88260749       0.60000000      -0.07245538       0.68540871      -1.72743550      -0.00060400      -0.00078230       0.00103115      -5.73035461
Ni      33.40007649      17.62833042      29.88528943       0.60000000       1.08643575       1.65187627      -1.54051827      -0.00063305      -0.00007446       0.00050484      -5.73037511
Ni      33.39835436      19.38320443      28.12207976       0.60000000       1.71187423       0.72263407       0.74338269       0.00002507      -0.00016146       0.00110487      -5.73057979
Ni      31.63571453      17.62848593      31.64792541       0.60000000       0.47685310       1.50181557       0.46901289      -0.00028416      -0.00048997       0.00049732      -5.73025817
Ni      31.63932633      19.38534106      33.41749461       0.60000000       0.23774407       0.66836714      -0.84595853      -0.00041319       0.00013229       0.00019484      -5.73027617
Ni      33.40495696      17.62963971      33.41869236       0.60000000       1.08136115       0.45225634      -1.63478329      -0.00003823      -0.00010452      -0.00005304      -5.73020685
Ni      33.40466108      19.38492377      31.65168499       0.60000000      -0.91594474      -0.62052171      -1.47898898      -0.00020168      -0.00014770       0.00037001      -5.73029262
Ni      31.63920438      21.14236056      -0.01254431       0.60000000       0.80296852       0.34233108       0.02493515       0.00004862       0.00036010      -0.00019662      -5.73017424
Ni      31.63601896      22.89834243       1.75742109       0.60000000      -0.72659121       0.19321630      -1.02175797      -0.00001905       0.00058475      -0.00044806      -5.73003811
Ni      33.40248136      21.14218158       1.75576225       0.60000000       1.88942789      -1.75426811      -0.95152241      -0.00031021       0.00040278      -0.00052388      -5.73006850
Ni      33.40600230      22.89949912      -0.01249522       0.60000000      -1.58078050      -0.74037109      -3.38960913      -0.00056970       0.00000564       0.00034655      -5.73005599
Ni      31.63015155      21.14067680       3.52624184       0.60000000       0.85115423       0.33256371      -0.78285019       0.00028820       0.00075694      -0.00052657      -5.73004317
Ni      31.62280668      22.89269958       5.29480604       0.60000000      -0.85693402       0.74673599       0.33005369       0.00025913      -0.00032730       0.00009121      -5.72979981
Ni      33.39310396      21.13945899       5.29027072       0.60000000       1.62684157       1.91584552      -2.20593433      -0.00037932       0.00051335      -0.00003805      -5.73005515
Ni      33.39814941      22.89720362       3.52330351       0.60000000       0.31031532      -1.45827820       2.82552514      -0.00018258       0.00061865      -0.00054632      -5.73000395
Ni      31.61409451      21.13470897       7.06218561       0.60000000      -1.01397549       1.90617498      -0.68716787      -0.00050636      -0.00167429       0.00023071      -5.72959042
Ni      31.60607057      22.88231905       8.82500626       0.60000000       0.63339379      -1.91844384      -0.21789997      -0.00073419      -0.00118809       0.00130569      -5.72924340
Ni      33.38244631      21.13448021       8.81687578       0.60000000      -1.74172834      -1.09987818      -0.98691600      -0.00115261      -0.00008434       0.00062920      -5.73001534
Ni      33.38768336      22.89180886       7.05399815       0.60000000      -2.41801362      -1.00888302      -1.16682079      -0.00066025       0.00026550       0.00016101      -5.72998804
Ni      31.59641772      21.12507155      10.58643340       0.60000000       0.73923436      -0.49119991       0.00786883       0.00010238      -0.00071616       0.00214352      -5.72906184
Ni      31.59426984      22.87427467      12.33757565       0.60000000       2.45193622       1.05215377       1.24875017       0.00041833      -0.00091684       0.00211237      -5.72903007
Ni      33.37592574      21.13042821      12.32975838       0.60000000       0.34658498      -0.14698805      -0.39120007      -0.00117345      -0.00091976       0.00107943      -5.73024148
Ni      33.37922204      22.88597924      10.57339223       0.60000000      -0.22694631       0.57402561      -0.20800742      -0.00140729      -0.00058884       0.00121109      -5.73005831
Ni      31.58825233      21.12048591      14.08866437       0.60000000       1.24559686      -0.59948767      -0.33622469      -0.00058379      -0.00141771       0.00140776      -5.72949064
Ni      31.59606828      22.87595608      15.83179047       0.60000000      -0.84631735      -1.31644290      -0.74214138      -0.00072447      -0.00095146       0.00087498      -5.73000628
Ni      33.37614104      21.13049299      15.83065524       0.60000000       3.05761796       0.32042071      -1.00239485       0.00101861       0.00022367       0.00032185      -5.73077399
Ni      33.37740622      22.88434286      14.07948406       0.60000000       1.00171675      -1.42729020       0.06117778      -0.00081817      -0.00134049       0.00115370      -5.73036081
Ni      31.59431541      21.12466220      17.57741574       0.60000000       0.60212043       0.80485082       0.97781908       0.00035373      -0.00124298       0.00064235      -5.73026007
Ni      31.60615386      22.88293049      19.32724692       0.60000000      -0.21061834      -1.93608802      -0.69887298       0.00001012       0.00126036       0.00069272      -5.73028129
Ni      33.38034281      21.13345175      19.33196949       0.60000000      -0.98543112      -1.28599843      -0.84664104       0.00135083       0.00143576      -0.00001338      -5.73074925
Ni      33.38103859      22.88696051      17.58093537       0.60000000      -0.26498708      -0.32684294       2.94956297       0.00016526      -0.00060694      -0.00095020      -5.73062009
Ni      31.60689168      21.13158708      21.07806350       0.60000000       0.90090448      -1.07719339       2.17689022       0.00119884      -0.00013160       0.00012671      -5.72947162
Ni      31.61934919      22.88990991      22.83869755       0.60000000      -1.23106934       0.34067667       0.25004742       0.00104572       0.00198687       0.00064023      -5.73027915
Ni      33.38737585      21.13609558      22.84229594       0.60000000       0.78386554       1.11276468      -0.07462644       0.00049567       0.00179180      -0.00006465      -5.73061717
Ni      33.38728719      22.89055417      21.08752350       0.60000000      -1.83749064       0.98273006       0.00594741       0.00002217       0.00104689      -0.00021752      -5.73057318
Ni      31.62115899      21.13566257      24.59583837       0.60000000       0.74920111       2.18089808       1.34907924       0.00132742       0.00029006      -0.00065134      -5.73045826
Ni      31.63083017      22.89363195      26.36022302       0.60000000       0.36491089       1.00052700      -0.74858532      -0.00010088       0.00026341       0.00015147      -5.73059762
Ni      33.39701213      21.13817836      26.36121300       0.60000000       1.68875752       0.33913591       0.45907243      -0.00041350       0.00076625       0.00133376      -5.73069841
Ni      33.39598995      22.89361263      24.60247884       0.60000000       3.61167317       1.32517451      -0.76257513       0.00041241       0.00072395       0.00195832      -5.73062950
Ni      31.63212110      21.13801955      28.12030410       0.60000000      -0.66187570      -1.56796963       0.14704685      -0.00060719      -0.00035746       0.00028772      -5.73053187
Ni      31.63933897      22.89710269      29.88713961       0.60000000      -2.53475011      -2.22033806       0.64256110      -0.00074093      -0.00068175      -0.00012283      -5.73045826
Ni      33.40443932      21.14032452      29.88688666       0.60000000      -0.03641824      -2.05604950      -0.55185763      -0.00002121      -0.00040064       0.00052057      -5.73045135
Ni      33.40425103      22.89615231      28.12453149       0.60000000      -0.06606857      -1.10066089       0.19115579      -0.00053089      -0.00053670       0.00078382      -5.73053664
Ni      31.63940863      21.14095786      31.65109206       0.60000000      -2.09719370      -0.40841827      -1.03037331      -0.00096708      -0.00049195      -0.00015638      -5.73035413
Ni      31.64172238      22.89936423      33.41988632       0.60000000      -0.06086578      -0.67877216      -0.13165884      -0.00045927      -0.00029494       0.00010868      -5.73024851
Ni      33.40686289      21.14214687      33.41935031       0.60000000      -0.18427823       1.32920138      -0.26751489      -0.00110056      -0.00010370       0.00020196      -5.73018497
Ni      33.40834224      22.89852967      31.65312887       0.60000000       0.31093588      -2.04906151       1.20462586      -0.00097882       0.00006407       0.00066823      -5.73032522
Ni      31.64096774      24.65730393      -0.01105962       0.60000000       0.45924439       2.15178657      -0.64424431      -0.00019143      -0.00000500       0.00030654      -5.73008859
Ni      31.63829106      26.41432537       1.75729890       0.60000000       0.66392599       0.24226459       0.15725860      -0.00023154       0.00021915       0.00009502      -5.72990626
Ni      33.40330496      24.65642423       1.75538672       0.60000000       1.39441678       1.29312742       1.35098159      -0.00050489       0.00025350      -0.00016732      -5.72994143
Ni      33.40782767      26.41673029      -0.01221212       0.60000000      -0.45962304       0.46331263      -0.99371845      -0.00048352      -0.00018799       0.00041876      -5.72996044
Ni      31.63105639      24.65276749       3.52619073       0.60000000       0.57241071       1.26131713      -1.03834294       0.00030834       0.00006683      -0.00043918      -5.72986150
Ni      31.62661620      26.40631985       5.29166486       0.60000000      -1.06509654      -0.04339418       0.14574088       0.00035477      -0.00006306      -0.00031726      -5.72965926
Ni      33.39391457      24.65153360       5.28847199       0.60000000       0.01032053       1.84343526      -2.06642008      -0.00027402       0.00046128      -0.00043999      -5.72993803
Ni      33.40024510      26.41311489       3.52151944       0.60000000       1.20918581       1.66757064       0.16911902      -0.00046723       0.00037232      -0.00052539      -5.72986311
Ni      31.61663718      24.64312880       7.05927254       0.60000000      -1.60496025      -0.27010928       0.79218061      -0.00049305      -0.00063703       0.00075526      -5.72951967
Ni      31.61456955      26.39621860       8.81685016       0.60000000      -1.45922769      -0.27682341       0.78651077       0.00013708       0.00030408       0.00047300      -5.72944593
Ni      33.38475236      24.64490560       8.81300591       0.60000000      -0.36255492       2.64769790       0.03996248      -0.00077405      -0.00007879       0.00015631      -5.72996962
Ni      33.39158250      26.40673039       7.04957636       0.60000000       1.64642401       0.79893741       0.34811622      -0.00058980       0.00032799      -0.00014626      -5.72990149
Ni      31.60378066      24.63312468      10.57954522       0.60000000      -1.10889636      -0.52296083      -1.64467302      -0.00030641      -0.00027524       0.00129956      -5.72919470
Ni      31.60893843      26.39180362      12.32735288       0.60000000       1.16124722       0.66622407       1.06194311      -0.00056581      -0.00017898       0.00070026      -5.72951841
Ni      33.38061725      24.64126307      12.32494973       0.60000000       1.10575490      -0.02334812       2.06611130      -0.00150287      -0.00077637       0.00143826      -5.73016822
Ni      33.38581981      26.40162580      10.56704452       0.60000000      -1.58116727       0.06031061      -0.20711272      -0.00044218       0.00019291       0.00027897      -5.73005486
Ni      31.60098946      24.63161112      14.08245065       0.60000000      -0.35775777       0.78966728       1.02684825      -0.00027854      -0.00101648       0.00033499      -5.72952354
Ni      31.61192031      26.39501973      15.82863565       0.60000000       0.27207167      -1.05282400      -0.50406803       0.00011117       0.00026037      -0.00029307      -5.72994959
Ni      33.38286533      24.64260632      15.82919014       0.60000000      -0.41716418       0.90799727      -0.84523487      -0.00101033      -0.00060308      -0.00055641      -5.73040724
Ni      33.38589052      26.40129953      14.07522760       0.60000000       0.10124032      -0.57392372       0.27511171      -0.00118002      -0.00087673       0.00049012      -5.73025519
Ni      31.60800319      24.63738247      17.57876827       0.60000000       1.28660615       1.51100057       0.78925186      -0.00031687      -0.00059068      -0.00043011      -5.73023170
Ni      31.62023520      26.40135242      19.33221078       0.60000000       0.34169894      -0.04056208      -0.00186121       0.00013861       0.00077253      -0.00074551      -5.73024726
Ni      33.38833800      24.64620222      19.33452262       0.60000000       1.32893937      -0.43251457      -1.76519127       0.00012407       0.00026812      -0.00155999      -5.73050708
Ni      33.39022486      26.40401450      17.58147339       0.60000000      -0.96323015      -1.39796293       0.80254668      -0.00088665       0.00005963      -0.00117363      -5.73042238
Ni      31.61910653      24.64480089      21.08428820       0.60000000      -1.28103800      -0.04780812      -1.56045230       0.00003708       0.00091096      -0.00036545      -5.73041368
Ni      31.63008366      26.40733646      22.84509808       0.60000000       1.45601529       1.00660389       0.40439466      -0.00034699       0.00134462      -0.00061029      -5.73039448
Ni      33.39589028      24.64972541      22.84616337       0.60000000       0.32150273       0.45853657       0.15534521       0.00073375       0.00125982      -0.00023388      -5.73053581
Ni      33.39671268      26.40756370      21.09121825       0.60000000      -0.82916888      -1.43905805       0.44631411      -0.00070502       0.00069331      -0.00099751      -5.73047936
Ni      31.63004106      24.65003702      24.60168791       0.60000000      -1.21302412       1.63479722      -1.05657749      -0.00057880       0.00045165       0.00058916      -5.73046005
Ni      31.63905158      26.41233404      26.36573255       0.60000000      -1.11056964      -2.18801476       1.14245401      -0.00044969       0.00013772      -0.00088521      -5.73047012
Ni      33.40396402      24.65264744      26.36452547       0.60000000       1.44139498      -0.01797185      -2.35639764      -0.00029107       0.00041090       0.00044855      -5.73050791
Ni      33.40381885      26.41063570      24.60660859       0.60000000       0.46247793       1.92559694      -0.47650111      -0.00013687       0.00054920      -0.00029176      -5.73044246
Ni      31.63918778      24.65415006      28.12550848       0.60000000       1.09075374      -2.21290027      -2.13691622      -0.00038148      -0.00032606       0.00011767      -5.73049504
Ni      31.64453387      26.41598245      29.89110715       0.60000000      -0.35303458      -0.17604334       1.83492858      -0.00102072      -0.00057830      -0.00030702      -5.73042601
Ni      33.40942572      24.65568673      29.88932534       0.60000000       0.28104084       1.22935220       0.06159833      -0.00134671      -0.00031679       0.00018823      -5.73042542
Ni      33.40986075      26.41387013      28.12784091       0.60000000       1.12725771       1.42207123       0.78215115      -0.00135985      -0.00022021      -0.00025316      -5.73043418
Ni      31.64350923      24.65712748      31.65432253       0.60000000       0.81222067      -1.87500445       0.13097794      -0.00088317      -0.00038145       0.00045238      -5.73035789
Ni      31.64452736      26.41727382      33.42202054       0.60000000      -0.74080646       0.39433218       0.05806224       0.00008524      -0.00038625       0.00040148      -5.73019695
Ni      33.40911294      24.65754842      33.42033081       0.60000000      -0.82587239       1.41411448       1.36331632      -0.00062843       0.00001880       0.00077587      -5.73013818
Ni      33.41129241      26.41649173      31.65511800       0.60000000      -2.36878738      -0.15282532       1.82289653      -0.00021983       0.00001798       0.00067956      -5.73023379
Ni      31.64356182      28.17695471      -0.01061211       0.60000000       1.04041735       0.43297620      -1.25655508       0.00020273      -0.00002719       0.00033473      -5.72999090
Ni      31.64214913      29.93661176       1.75518826       0.60000000       1.00237619       0.29903582       1.53824810      -0.00008335      -0.00006855       0.00029272      -5.72979671
Ni      33.40590715      28.17598710       1.75418670       0.60000000       0.40918418       1.44989896      -1.62826249      -0.00090592      -0.00030237       0.00020577      -5.72984856
Ni      33.40987588      29.93964437      -0.01239513       0.60000000       1.49129311      -0.31372203       0.59992860      -0.00064060      -0.00045658       0.00004628      -5.72989750
Ni      31.63554288      28.17110600       3.52324673       0.60000000      -0.70998536       1.10644383       1.16801842      -0.00035560       0.00002254      -0.00023637      -5.72971433
Ni      31.63463551      29.92956040       5.28504806       0.60000000      -0.66174173       0.21712682       0.93439590      -0.00015016      -0.00016307      -0.00049897      -5.72961849
Ni      33.39850109      28.17071338       5.28437499       0.60000000      -0.57328071       0.57825616       2.18944373      -0.00045981       0.00040647      -0.00052522      -5.72980314
Ni      33.40481532      29.93603403       3.51822941       0.60000000       0.53158140       0.12379155       1.77788847      -0.00128409      -0.00035975       0.00039746      -5.72977328
Ni      31.62511686      28.16204617       7.05164153       0.60000000       1.58851616      -0.14012112      -0.16389673       0.00091691       0.00079401      -0.00066366      -5.72958416
Ni      31.62799441      29.92312933       8.80620975       0.60000000      -1.46531326       1.40774072      -1.16986401       0.00047434       0.00023792      -0.00035697      -5.72973669
Ni      33.39254803      28.16509315       8.80621961       0.60000000      -1.50410458       0.01121260      -0.67773101      -0.00087096       0.00066110      -0.00013751      -5.72995073
Ni      33.39930433      29.93088616       7.04349115       0.60000000       0.41782189       0.05894818       1.04125806      -0.00022389       0.00033690      -0.00067156      -5.72981882
Ni      31.61846113      28.15611785      10.56806645       0.60000000      -1.30895475      -0.66188273       1.32724054      -0.00042673      -0.00012256       0.00049169      -5.72964483
Ni      31.62590343      29.92149032      12.31793076       0.60000000      -0.14244828       0.46820617      -0.60243017      -0.00060283      -0.00025547       0.00059332      -5.72992033
Ni      33.39049446      28.16306374      12.31887854       0.60000000       0.11683615      -0.10178655      -0.00290783      -0.00015896      -0.00021510       0.00016967      -5.73014671
Ni      33.39652800      29.92770741      10.56033701       0.60000000       2.21735254       0.10594782       0.59409801      -0.00068886       0.00032969      -0.00030617      -5.73006105
Ni      31.61815437      28.15648854      14.07485657       0.60000000       1.44342940       0.73424043      -0.92263121      -0.00014789       0.00064203       0.00007986      -5.72986692
Ni      31.62794371      29.92392723      15.82619533       0.60000000      -2.16128496       0.09817282      -0.23252831       0.00009637       0.00056097      -0.00023021      -5.73009944
Ni      33.39287679      28.16448372      15.82728621       0.60000000      -1.98366162      -0.24893036       0.23836977      -0.00067052      -0.00013846      -0.00061653      -5.73028219
Ni      33.39679244      29.92768710      14.07157109       0.60000000       0.52814326       0.43150252      -1.47226077      -0.00028290      -0.00013187      -0.00017610      -5.73020297
Ni      31.62323986      28.16109922      17.58018182       0.60000000      -0.62780892      -0.55947654       1.16804399      -0.00002747       0.00018350      -0.00086567      -5.73012805
Ni      31.63284110      29.92833616      19.33601253       0.60000000      -0.12117744       0.05468632       1.33361640      -0.00039377      -0.00027806      -0.00032211      -5.73024762
Ni      33.39787594      28.16739896      19.33673039       0.60000000      -0.31192240       0.27693955       0.66271193      -0.00075823       0.00028739      -0.00122014      -5.73039490
Ni      33.39977342      29.92970099      17.58179923       0.60000000      -1.19366362       1.64376479      -1.50281504      -0.00046121      -0.00002042      -0.00051144      -5.73030955
Ni      31.63095303      28.16668484      21.09021577       0.60000000      -0.12890924       0.75254537      -1.04889102      -0.00057456      -0.00036159      -0.00060264      -5.73032129
Ni      31.63895818      29.93324574      22.85036873       0.60000000       1.87940610      -1.44727414       0.01396036       0.00015369      -0.00024223      -0.00061961      -5.73036647
Ni      33.40387373      28.17059941      22.85002595       0.60000000      -1.27391665      -1.22961972       0.90433816      -0.00024741       0.00001452      -0.00050523      -5.73039377
Ni      33.40405963      29.93244374      21.09413410       0.60000000       0.46755543      -0.89171687       1.91584860       0.00005253       0.00033572      -0.00067124      -5.73035175
Ni      31.63908398      28.17192456      24.60723478       0.60000000      -0.46515205      -0.59967820      -0.41494080      -0.00090511      -0.00007244       0.00011350      -5.73043239
Ni      31.64444391      29.93753849      26.36964331       0.60000000       0.60713641       0.29846351      -1.03746584      -0.00095268      -0.00029635      -0.00104962      -5.73037833
Ni      33.40965580      28.17366568      26.36835537       0.60000000       0.10215744       0.31877895       1.26251538      -0.00109446       0.00028159      -0.00076208      -5.73037612
Ni      33.40899228      29.93564525      24.61021987       0.60000000      -0.28484089       0.46547285       0.90745803      -0.00121296      -0.00053588      -0.00123869      -5.73032403
Ni      31.64479736      28.17603912      28.12960548       0.60000000      -0.32490788       0.08145030      -0.43734247      -0.00089348      -0.00054143      -0.00026452      -5.73041987
Ni      31.64744050      29.94040652      29.89371017       0.60000000       0.24497094       1.23743560       0.87990568      -0.00033347      -0.00009686      -0.00025024      -5.73032445
Ni      33.41234551      28.17663690      29.89203058       0.60000000       0.89970387       0.28089440       0.57877090      -0.00008838      -0.00005916       0.00028925      -5.73028064
Ni      33.41213740      29.93835869      28.13083770       0.60000000       0.79135773       1.53104230       0.12774137       0.00007236       0.00030256      -0.00049020      -5.73028761
Ni      31.64670532      28.17825079      31.65702045       0.60000000      -0.12472496       0.70917633      -1.21565865      -0.00009848      -0.00027934       0.00020150      -5.73028415
Ni      31.64685064      29.94041234      33.42288703       0.60000000       0.34485992       2.35212733       0.13479082       0.00003576       0.00000238       0.00064217      -5.73006934
Ni      33.41100692      28.17792765      33.42154098       0.60000000       1.05607815      -0.03395671       0.77615323      -0.00005455      -0.00005142       0.00051851      -5.73002124
Ni      33.41263649      29.94024868      31.65696786       0.60000000      -0.79868573       0.09973150       1.59567492       0.00007652      -0.00002931       0.00026340      -5.73007238
Ni      31.64632729      31.70249301      -0.01192232       0.60000000      -1.50016394       0.36037061       1.35699968      -0.00064080      -0.00026339       0.00035369      -5.72988111
Ni      31.64627922      33.46500472       1.75179532       0.60000000      -0.47587901       0.13860677       1.25219900      -0.00087691      -0.00094895       0.00018671      -5.72984147
Ni      33.40925255      31.70183133       1.75226873       0.60000000       1.00217340      -0.87345165       0.57625066      -0.00114231      -0.00065623       0.00020244      -5.72984970
Ni      33.41155372      33.46781734      -0.01331491       0.60000000      -0.03404644      -0.59429958       0.38929235      -0.00092986      -0.00068796      -0.00004685      -5.72991383
Ni      31.64176369      31.69744185       3.51822574       0.60000000       0.07517876       2.87485366      -0.11948987      -0.00015140      -0.00082237       0.00014115      -5.72971743
Ni      31.64313272      33.46046942       5.27846605       0.60000000      -0.31032760       0.54256051       0.92915569       0.00027111      -0.00135150      -0.00020492      -5.72986871
Ni      33.40553447      31.69796253       5.27950585       0.60000000       0.17758528      -2.61472260       2.29431844      -0.00097342      -0.00089061       0.00008660      -5.72977906
Ni      33.40995310      33.46506822       3.51515543       0.60000000      -3.11256420       0.28308638      -0.48674144      -0.00090156      -0.00106165       0.00013797      -5.72987556
Ni      31.63660723      31.69167096       7.04269032       0.60000000      -0.00716104      -1.09440078       0.91416751       0.00020732      -0.00043072      -0.00055029      -5.72977054
Ni      31.64061277      33.45715735       8.79849067       0.60000000      -0.10238344       2.66496145      -1.86187410      -0.00058447      -0.00006329      -0.00009576      -5.73002315
Ni      33.40254744      31.69441750       8.80013242       0.60000000       1.81287301      -0.80005299       1.02077908       0.00001056       0.00012023      -0.00085124      -5.72995937
Ni      33.40804897      33.46220108       7.03870579       0.60000000       0.79123691      -0.76323291      -0.63811052      -0.00044866      -0.00118979      -0.00034014      -5.72993559
Ni      31.63364527      31.68880908      10.55898978       0.60000000      -0.48147204      -1.60629711       1.01620364      -0.00014138      -0.00032457      -0.00014279      -5.72999114
Ni      31.63930258      33.45680790      12.31320234       0.60000000      -0.00459353      -0.49426794      -0.48866325       0.00014954      -0.00022559      -0.00030114      -5.73014832
Ni      33.40176930      31.69340710      12.31449649       0.60000000      -0.74020996       0.02858171       0.61483955      -0.00071885      -0.00044841      -0.00035297      -5.73014295
Ni      33.40675806      33.46050482      10.55622693       0.60000000      -1.10646620      -0.73403519      -0.13687942      -0.00033503      -0.00003983      -0.00036967      -5.73008585
Ni      31.63374415      31.68949425      14.07038927       0.60000000       1.80805526       0.57564717      -1.57660726      -0.00055205       0.00023038      -0.00003575      -5.73012680
Ni      31.63946997      33.45867473      15.82574179       0.60000000      -1.11011193       0.71249486      -1.88765301      -0.00022772       0.00001664      -0.00055835      -5.73024321
Ni      33.40261701      31.69423619      15.82621023       0.60000000      -1.57781240      -0.31981850      -0.88191092      -0.00018960       0.00011718      -0.00021387      -5.73023343
Ni      33.40625144      33.46069022      14.06992484       0.60000000      -0.46570083       0.76209221       0.19330894      -0.00009584      -0.00026987      -0.00029686      -5.73017859
Ni      31.63581286      31.69250951      17.58132705       0.60000000       1.60061432       1.38193461      -1.34229873       0.00013917       0.00038047      -0.00070772      -5.73026192
Ni      31.64036379      33.46217900      19.33830424       0.60000000       0.39277723       1.24262911      -0.11208684      -0.00042247       0.00010261      -0.00030967      -5.73030418
Ni      33.40491037      31.69648513      19.33830027       0.60000000      -2.94584842       0.93846152       0.78658530      -0.00042099      -0.00008060      -0.00025049      -5.73028809
Ni      33.40639883      33.46215423      17.58240390       0.60000000      -0.16544004       0.84620355      -0.19538525      -0.00036243       0.00039120      -0.00001976      -5.73022330
Ni      31.63956904      31.69683431      21.09423877       0.60000000       0.02376392      -1.34634420       0.37653114      -0.00098078      -0.00091273      -0.00048194      -5.73033816
Ni      31.64203561      33.46625757      22.85252149       0.60000000       0.66861433      -1.27844298       2.63174394      -0.00018302      -0.00079110      -0.00031044      -5.73030686
Ni      33.40796542      31.69933421      22.85267694       0.60000000       0.25931507      -1.66047553       0.67542870      -0.00061373      -0.00044037      -0.00050542      -5.73027062
Ni      33.40723745      33.46486025      21.09559293       0.60000000      -1.01705821       2.19187265      -0.53853099      -0.00037336      -0.00058726      -0.00012461      -5.73021197
Ni      31.64332433      31.70086395      24.61073523       0.60000000       1.73596822       0.29127509       0.36724967       0.00016891      -0.00011460      -0.00084154      -5.73035502
Ni      31.64451741      33.46913115      26.37042532       0.60000000       1.23660997       1.63785141       0.33752406      -0.00007138       0.00019788      -0.00024640      -5.73025179
Ni      33.41080160      31.70201621      26.37079607       0.60000000       1.86784232      -0.96119176      -0.22813826       0.00011641       0.00006949      -0.00050673      -5.73024565
Ni      33.40867030      33.46723029      24.61138314       0.60000000      -0.55232152      -0.99555917      -0.40416299       0.00046380       0.00019526      -0.00012573      -5.73018694
Ni      31.64672070      31.70402134      28.13171120       0.60000000      -0.51369955      -0.10820352      -1.17175749      -0.00051692      -0.00040119      -0.00080216      -5.73029482
Ni      31.64682622      33.47020401      29.89359813       0.60000000       0.51619079      -0.65062138      -2.35456876       0.00022479       0.00036088      -0.00006284      -5.73008758
Ni      33.41246994      31.70388615      29.89386340       0.60000000       1.50938909      -1.04233937       0.48913177       0.00016515       0.00031974      -0.00003913      -5.73009652
Ni      33.41063764      33.46901058      28.13166594       0.60000000      -1.99110061      -1.39355526      -0.42069615       0.00009314       0.00024125       0.00008428      -5.73006487
Ni      31.64796438      31.70476898      31.65778627       0.60000000      -0.07929807       2.01867016       2.95297220       0.00000959       0.00025191       0.00020161      -5.73011768
Ni      31.64774776      33.46868090      33.42183060       0.60000000       0.04686101      -1.38997718      -0.24134703      -0.00062771       0.00001503       0.00001695      -5.72994024
Ni      33.41192523      31.70405863      33.42205300       0.60000000       1.36894847       0.55301217      -1.49288943      -0.00037479      -0.00044614      -0.00007525      -5.72994053
Ni      33.41176630      33.46921172      31.65739015       0.60000000      -1.59503593      -0.89257759       1.16420349      -0.00011289       0.00013938      -0.00033999      -5.72995108
